 VARIABLES = X,Y,Z,DU1,DU2,DU3,U1,U2,U3,S11,S22,S33,S12,S13,S23,E11,E22,E33,E12,E13,E23,SMISES
 ZONE, T="0.5000D-01" F=FEPOINT, I=   12 J=    2 ET=BRICK
   0.0000000000E+00   0.0000000000E+00   0.0000000000E+00   0.0000000000E+00   0.0000000000E+00   0.0000000000E+00   0.0000000000E+00   0.0000000000E+00   0.0000000000E+00   0.6250000010E+00  -0.2310286122E-13  -0.4396206034E-13  -0.1163925745E-17  -0.2125699513E-13  -0.5952760288E-14   0.1250000002E-02  -0.6237500010E-03  -0.6237500010E-03  -0.4362152660E-20  -0.2546480819E-15  -0.7141019849E-16   0.6250000010E+00
   0.1001250000E+01   0.0000000000E+00  -0.1315013886E-15   0.1250000000E-02   0.0000000000E+00  -0.1315013886E-15   0.0000000000E+00   0.0000000000E+00   0.0000000000E+00   0.6250000010E+00  -0.4485492306E-13  -0.4996044788E-13  -0.5168801784E-14  -0.1399837595E-13   0.6182544606E-14   0.1250000002E-02  -0.6237500010E-03  -0.6237500010E-03  -0.6200346228E-16  -0.1683921568E-15   0.7419454376E-16   0.6250000010E+00
   0.1001250000E+01   0.9993762500E+00  -0.9445407001E-16   0.1250000000E-02  -0.6237500000E-03  -0.9445407001E-16   0.0000000000E+00   0.0000000000E+00   0.0000000000E+00   0.6250000009E+00  -0.7154637815E-14  -0.1999570411E-14  -0.4720046258E-14  -0.8622505306E-14  -0.2996673896E-14   0.1250000002E-02  -0.6237500009E-03  -0.6237500009E-03  -0.5654642037E-16  -0.1024717751E-15  -0.3595344982E-16   0.6250000009E+00
   0.0000000000E+00   0.9993762500E+00  -0.3563478859E-16   0.0000000000E+00  -0.6237500000E-03  -0.3563478859E-16   0.0000000000E+00   0.0000000000E+00   0.0000000000E+00   0.6250000009E+00   0.7202490520E-14  -0.3055630285E-14  -0.5842633310E-14  -0.5832410212E-14  -0.1494767859E-13   0.1250000002E-02  -0.6237500009E-03  -0.6237500009E-03  -0.7009304583E-16  -0.7063014308E-16  -0.1791240973E-15   0.6250000009E+00
   0.0000000000E+00   0.0000000000E+00   0.9993762500E+00   0.0000000000E+00   0.0000000000E+00  -0.6237500000E-03   0.0000000000E+00   0.0000000000E+00   0.0000000000E+00   0.6250000009E+00   0.1962502803E-13   0.1688374165E-13  -0.2191767296E-17  -0.1507252168E-13  -0.6263032718E-15   0.1250000002E-02  -0.6237500009E-03  -0.6237500009E-03  -0.3980198611E-19  -0.1806941649E-15  -0.7343786375E-17   0.6250000009E+00
   0.1001250000E+01   0.0000000000E+00   0.9993762500E+00   0.1250000000E-02   0.0000000000E+00  -0.6237500000E-03   0.0000000000E+00   0.0000000000E+00   0.0000000000E+00   0.6250000009E+00   0.1718677655E-13   0.3045284763E-13  -0.5278248043E-14  -0.1406731004E-13   0.1130085662E-13   0.1250000002E-02  -0.6237500009E-03  -0.6237500009E-03  -0.6326971391E-16  -0.1683916614E-15   0.1353103477E-15   0.6250000009E+00
   0.1001250000E+01   0.9993762500E+00   0.9993762500E+00   0.1250000000E-02  -0.6237500000E-03  -0.6237500000E-03   0.0000000000E+00   0.0000000000E+00   0.0000000000E+00   0.6250000008E+00   0.7636973658E-15   0.2423348845E-13  -0.5055659429E-14  -0.8772138082E-14   0.2147714303E-14   0.1250000002E-02  -0.6237500008E-03  -0.6237500008E-03  -0.6070210937E-16  -0.1052866872E-15   0.2578298793E-16   0.6250000008E+00
   0.0000000000E+00   0.9993762500E+00   0.9993762500E+00   0.0000000000E+00  -0.6237500000E-03  -0.6237500000E-03   0.0000000000E+00   0.0000000000E+00   0.0000000000E+00   0.6250000008E+00  -0.4192984654E-14   0.3695243382E-14  -0.5939026841E-14   0.1428290600E-15  -0.9673791436E-14   0.1250000002E-02  -0.6237500008E-03  -0.6237500008E-03  -0.7118348913E-16   0.1762397267E-17  -0.1165472148E-15   0.6250000008E+00
   0.2002500000E+01   0.0000000000E+00  -0.2791026815E-15   0.2500000000E-02   0.0000000000E+00  -0.2791026815E-15   0.0000000000E+00   0.0000000000E+00   0.0000000000E+00   0.6250000009E+00   0.4688854741E-13   0.2423597799E-13  -0.1019461031E-13  -0.6627491282E-14   0.5173173195E-14   0.1250000002E-02  -0.6237500009E-03  -0.6237500009E-03  -0.1221977836E-15  -0.7891213906E-16   0.6223310621E-16   0.6250000009E+00
   0.2002500000E+01   0.9993762500E+00  -0.2479824767E-15   0.2500000000E-02  -0.6237500000E-03  -0.2479824767E-15   0.0000000000E+00   0.0000000000E+00   0.0000000000E+00   0.6250000009E+00   0.6500535065E-13   0.5215914293E-13  -0.3518139032E-14  -0.1094853989E-13  -0.4257995806E-14   0.1250000002E-02  -0.6237500009E-03  -0.6237500009E-03  -0.4242086775E-16  -0.1347828196E-15  -0.5136421000E-16   0.6250000009E+00
   0.2002500000E+01   0.0000000000E+00   0.9993762500E+00   0.2500000000E-02   0.0000000000E+00  -0.6237500000E-03   0.0000000000E+00   0.0000000000E+00   0.0000000000E+00   0.6250000009E+00  -0.7397420541E-14  -0.1095558833E-13  -0.1034369918E-13  -0.1264117269E-13   0.1016033779E-13   0.1250000002E-02  -0.6237500009E-03  -0.6237500009E-03  -0.1240504502E-15  -0.1542817462E-15   0.1212059153E-15   0.6250000009E+00
   0.2002500000E+01   0.9993762500E+00   0.9993762500E+00   0.2500000000E-02  -0.6237500000E-03  -0.6237500000E-03   0.0000000000E+00   0.0000000000E+00   0.0000000000E+00   0.6250000008E+00  -0.4340398171E-13  -0.3715374618E-13  -0.3944971187E-14  -0.1734017430E-13   0.5872130228E-15   0.1250000002E-02  -0.6237500008E-03  -0.6237500008E-03  -0.4723688113E-16  -0.2080952396E-15   0.8121135414E-17   0.6250000008E+00
     1     2     3     4     5     6     7     8
     2     9    10     3     6    11    12     7
 VARIABLES = X,Y,Z,DU1,DU2,DU3,U1,U2,U3,S11,S22,S33,S12,S13,S23,E11,E22,E33,E12,E13,E23,SMISES
 ZONE, T="0.1000D+00" F=FEPOINT, I=   12 J=    2 ET=BRICK
   0.0000000000E+00   0.0000000000E+00   0.0000000000E+00   0.0000000000E+00   0.0000000000E+00   0.0000000000E+00   0.0000000000E+00   0.0000000000E+00   0.0000000000E+00   0.1250000002E+01  -0.4526665616E-13  -0.4539799694E-13   0.4622561885E-17  -0.8258954217E-16   0.1031988580E-18   0.2500000004E-02  -0.1247500002E-02  -0.1247500002E-02   0.7910964753E-19   0.5460349753E-19  -0.1434069705E-18   0.1250000002E+01
   0.1002500000E+01   0.0000000000E+00  -0.4045723647E-18   0.1250000000E-02   0.0000000000E+00   0.1310968162E-15   0.1250000000E-02   0.0000000000E+00  -0.1315013886E-15   0.1250000002E+01   0.2677512489E-13   0.2684079528E-13   0.2748226939E-16   0.5551579886E-16   0.2554619592E-16   0.2500000004E-02  -0.1247500002E-02  -0.1247500002E-02   0.2822156017E-18  -0.1390395116E-17   0.5538809252E-18   0.1250000002E+01
   0.1002500000E+01   0.9987525000E+00  -0.1728083527E-18   0.1250000000E-02  -0.6237500000E-03   0.9428126166E-16   0.1250000000E-02  -0.6237500000E-03  -0.9445407001E-16   0.1250000002E+01  -0.2738343220E-13  -0.2751477298E-13  -0.3396161603E-16  -0.7169954809E-16  -0.1315586751E-16   0.2500000004E-02  -0.1247500002E-02  -0.1247500002E-02  -0.2091426201E-18   0.2334707353E-18  -0.3346608668E-18   0.1250000002E+01
   0.0000000000E+00   0.9987525000E+00  -0.2953981375E-20   0.0000000000E+00  -0.6237500000E-03   0.3563183461E-16   0.0000000000E+00  -0.6237500000E-03  -0.3563478859E-16   0.1250000002E+01   0.1854092409E-13   0.1848876677E-13   0.8128517146E-16   0.6079752829E-16   0.2875673681E-16   0.2500000004E-02  -0.1247500002E-02  -0.1247500002E-02   0.8757092407E-18  -0.2780934296E-18   0.5092339562E-18   0.1250000002E+01
   0.0000000000E+00   0.0000000000E+00   0.9987525000E+00   0.0000000000E+00   0.0000000000E+00  -0.6237500000E-03   0.0000000000E+00   0.0000000000E+00  -0.6237500000E-03   0.1250000002E+01  -0.1311960250E-13  -0.1312195995E-13   0.8279765638E-18   0.5470131142E-16  -0.1900244091E-16   0.2500000004E-02  -0.1247500002E-02  -0.1247500002E-02  -0.1567311440E-19   0.8180363040E-18   0.9856003800E-19   0.1250000002E+01
   0.1002500000E+01   0.0000000000E+00   0.9987525000E+00   0.1250000000E-02   0.0000000000E+00  -0.6237500000E-03   0.1250000000E-02   0.0000000000E+00  -0.6237500000E-03   0.1250000002E+01  -0.1204025205E-14  -0.1024610363E-14   0.2191585608E-16  -0.6580105998E-16   0.1992856918E-16   0.2500000004E-02  -0.1247500002E-02  -0.1247500002E-02   0.3140193670E-18  -0.5264436933E-18  -0.2133779800E-18   0.1250000002E+01
   0.1002500000E+01   0.9987525000E+00   0.9987525000E+00   0.1250000000E-02  -0.6237500000E-03  -0.6237500000E-03   0.1250000000E-02  -0.6237500000E-03  -0.6237500000E-03   0.1250000002E+01  -0.1300173320E-14  -0.1317769646E-14   0.6847117227E-16  -0.4012709364E-16  -0.1242821819E-15   0.2500000003E-02  -0.1247500002E-02  -0.1247500002E-02   0.6547779866E-18  -0.1005373952E-18  -0.1001272716E-17   0.1250000002E+01
   0.0000000000E+00   0.9987525000E+00   0.9987525000E+00   0.0000000000E+00  -0.6237500000E-03  -0.6237500000E-03   0.0000000000E+00  -0.6237500000E-03  -0.6237500000E-03   0.1250000002E+01   0.2410358571E-13   0.2412762273E-13  -0.9296486304E-16  -0.1080058865E-17   0.3663013956E-16   0.2500000003E-02  -0.1247500002E-02  -0.1247500002E-02  -0.1031670486E-17  -0.1745189006E-18  -0.1644315908E-18   0.1250000002E+01
   0.2005000000E+01   0.0000000000E+00  -0.1492617821E-17   0.2500000000E-02   0.0000000000E+00   0.2776100637E-15   0.2500000000E-02   0.0000000000E+00  -0.2791026815E-15   0.1250000002E+01  -0.3869384106E-14  -0.3869384103E-14  -0.1188193701E-15  -0.3393078130E-15  -0.4309871335E-16   0.2500000004E-02  -0.1247500002E-02  -0.1247500002E-02  -0.1435470756E-17   0.2390128583E-17  -0.3713861316E-18   0.1250000002E+01
   0.2005000000E+01   0.9987525000E+00  -0.1664357648E-17   0.2500000000E-02  -0.6237500000E-03   0.2463181190E-15   0.2500000000E-02  -0.6237500000E-03  -0.2479824767E-15   0.1250000002E+01  -0.6786926057E-13  -0.6784286608E-13  -0.2669121148E-15   0.2113383528E-15   0.8734799791E-16   0.2500000003E-02  -0.1247500002E-02  -0.1247500002E-02  -0.3381404627E-17  -0.4964842398E-17   0.7747622298E-18   0.1250000002E+01
   0.2005000000E+01   0.0000000000E+00   0.9987525000E+00   0.2500000000E-02   0.0000000000E+00  -0.6237500000E-03   0.2500000000E-02   0.0000000000E+00  -0.6237500000E-03   0.1250000002E+01  -0.1049526864E-13  -0.1056329649E-13   0.9519042577E-16   0.1188890649E-16   0.6858283712E-17   0.2500000003E-02  -0.1247500002E-02  -0.1247500002E-02   0.1158386530E-17  -0.4165564652E-17  -0.5778975313E-18   0.1250000002E+01
   0.2005000000E+01   0.9987525000E+00   0.9987525000E+00   0.2500000000E-02  -0.6237500000E-03  -0.6237500000E-03   0.2500000000E-02  -0.6237500000E-03  -0.6237500000E-03   0.1250000002E+01   0.6079095352E-13   0.6080210915E-13   0.2424960106E-15   0.5441346322E-16   0.6371661233E-16   0.2500000003E-02  -0.1247500002E-02  -0.1247500002E-02   0.2900546249E-17   0.1743072511E-17   0.1790808968E-17   0.1250000002E+01
     1     2     3     4     5     6     7     8
     2     9    10     3     6    11    12     7
 VARIABLES = X,Y,Z,DU1,DU2,DU3,U1,U2,U3,S11,S22,S33,S12,S13,S23,E11,E22,E33,E12,E13,E23,SMISES
 ZONE, T="0.1500D+00" F=FEPOINT, I=   12 J=    2 ET=BRICK
   0.0000000000E+00   0.0000000000E+00   0.0000000000E+00   0.0000000000E+00   0.0000000000E+00   0.0000000000E+00   0.0000000000E+00   0.0000000000E+00   0.0000000000E+00   0.1875000003E+01   0.6095458199E-13   0.6093934313E-13   0.4714911534E-17  -0.4528562313E-16   0.1037873184E-15   0.3750000006E-02  -0.1871250003E-02  -0.1871250003E-02   0.2236883350E-19  -0.8498624918E-19   0.1206127532E-17   0.1875000003E+01
   0.1003750000E+01   0.0000000000E+00  -0.2533029676E-18   0.1250000000E-02   0.0000000000E+00   0.1512693971E-18   0.2500000000E-02   0.0000000000E+00  -0.4045723647E-18   0.1875000003E+01  -0.2083505601E-13  -0.2080457828E-13  -0.9087761012E-18   0.8858147662E-16   0.1620854798E-16   0.3750000006E-02  -0.1871250003E-02  -0.1871250003E-02  -0.5420496567E-18  -0.1369598153E-18   0.5915400397E-18   0.1875000003E+01
   0.1003750000E+01   0.9981287500E+00  -0.4795504913E-19   0.1250000000E-02  -0.6237500000E-03   0.1248533036E-18   0.2500000000E-02  -0.1247500000E-02  -0.1728083527E-18   0.1875000003E+01   0.3045058509E-13   0.3024069252E-13  -0.3574259089E-16  -0.6269253886E-16  -0.3292849600E-16   0.3750000005E-02  -0.1871250003E-02  -0.1871250003E-02  -0.1445973416E-17  -0.1286956018E-18  -0.1281266759E-17   0.1875000003E+01
   0.0000000000E+00   0.9981287500E+00   0.5245060679E-18   0.0000000000E+00  -0.6237500000E-03   0.5274600493E-18   0.0000000000E+00  -0.1247500000E-02  -0.2953981375E-20   0.1875000003E+01  -0.6872855853E-14  -0.7056353946E-14   0.2896180205E-16  -0.2897506344E-16   0.3622287681E-16   0.3750000005E-02  -0.1871250003E-02  -0.1871250003E-02  -0.8092032596E-19  -0.4401399012E-18  -0.1788336824E-18   0.1875000003E+01
   0.0000000000E+00   0.0000000000E+00   0.9981287500E+00   0.0000000000E+00   0.0000000000E+00  -0.6237500000E-03   0.0000000000E+00   0.0000000000E+00  -0.1247500000E-02   0.1875000003E+01   0.2740261992E-13   0.2765178840E-13   0.4724918601E-17  -0.8520452436E-16  -0.9085828115E-16   0.3750000005E-02  -0.1871250003E-02  -0.1871250003E-02   0.5239819929E-19  -0.8103540467E-18  -0.6444784118E-18   0.1875000003E+01
   0.1003750000E+01   0.0000000000E+00   0.9981287500E+00   0.1250000000E-02   0.0000000000E+00  -0.6237500000E-03   0.2500000000E-02   0.0000000000E+00  -0.1247500000E-02   0.1875000003E+01  -0.1824053673E-14  -0.1745501869E-14  -0.3672940932E-16  -0.6967533437E-16   0.1010372494E-15   0.3750000005E-02  -0.1871250003E-02  -0.1871250003E-02  -0.5858745800E-18  -0.7610855819E-18   0.7885260309E-18   0.1875000003E+01
   0.1003750000E+01   0.9981287500E+00   0.9981287500E+00   0.1250000000E-02  -0.6237500000E-03  -0.6237500000E-03   0.2500000000E-02  -0.1247500000E-02  -0.1247500000E-02   0.1875000002E+01  -0.4722732447E-14  -0.4657062066E-14  -0.2820723855E-16  -0.1331051053E-18  -0.1213140658E-15   0.3750000005E-02  -0.1871250002E-02  -0.1871250002E-02  -0.1114809303E-17   0.1889645210E-17   0.7937300264E-19   0.1875000002E+01
   0.0000000000E+00   0.9981287500E+00   0.9981287500E+00   0.0000000000E+00  -0.6237500000E-03  -0.6237500000E-03   0.0000000000E+00  -0.1247500000E-02  -0.1247500000E-02   0.1875000003E+01  -0.1283305885E-13  -0.1286589404E-13  -0.2934849277E-16  -0.3454704076E-16  -0.2498917245E-16   0.3750000005E-02  -0.1871250003E-02  -0.1871250003E-02  -0.3591640782E-18  -0.6205846492E-18   0.4789954700E-18   0.1875000003E+01
   0.2007500000E+01   0.0000000000E+00  -0.1512722080E-17   0.2500000000E-02   0.0000000000E+00  -0.2010425911E-19   0.5000000000E-02   0.0000000000E+00  -0.1492617821E-17   0.1875000003E+01  -0.3857501678E-13  -0.3852458526E-13   0.1410593382E-15  -0.1713096174E-15   0.4448401662E-16   0.3750000006E-02  -0.1871250003E-02  -0.1871250003E-02   0.1012112558E-17  -0.3107303639E-17   0.1088183150E-17   0.1875000003E+01
   0.2007500000E+01   0.9981287500E+00  -0.1151322374E-17   0.2500000000E-02  -0.6237500000E-03   0.5130352740E-18   0.5000000000E-02  -0.1247500000E-02  -0.1664357648E-17   0.1875000003E+01   0.5043347901E-13   0.5029334005E-13   0.3706922228E-16   0.1269816071E-15   0.4592906586E-16   0.3750000005E-02  -0.1871250003E-02  -0.1871250003E-02  -0.4863819139E-18   0.5942462214E-17  -0.2868616816E-18   0.1875000003E+01
   0.2007500000E+01   0.0000000000E+00   0.9981287500E+00   0.2500000000E-02   0.0000000000E+00  -0.6237500000E-03   0.5000000000E-02   0.0000000000E+00  -0.1247500000E-02   0.1875000003E+01   0.3321010590E-13   0.3321418914E-13  -0.4635239263E-16   0.2206774519E-15  -0.5632674875E-16   0.3750000005E-02  -0.1871250003E-02  -0.1871250003E-02  -0.2152108801E-17  -0.7495810488E-19  -0.6215764193E-18   0.1875000003E+01
   0.2007500000E+01   0.9981287500E+00   0.9981287500E+00   0.2500000000E-02  -0.6237500000E-03  -0.6237500000E-03   0.5000000000E-02  -0.1247500000E-02  -0.1247500000E-02   0.1875000002E+01  -0.1316490845E-13  -0.1335956216E-13   0.5043675637E-16   0.1128333155E-15  -0.8258298603E-16   0.3750000005E-02  -0.1871250002E-02  -0.1871250002E-02  -0.5853541192E-18   0.1989724504E-17  -0.1262276052E-17   0.1875000002E+01
     1     2     3     4     5     6     7     8
     2     9    10     3     6    11    12     7
 VARIABLES = X,Y,Z,DU1,DU2,DU3,U1,U2,U3,S11,S22,S33,S12,S13,S23,E11,E22,E33,E12,E13,E23,SMISES
 ZONE, T="0.2000D+00" F=FEPOINT, I=   12 J=    2 ET=BRICK
   0.0000000000E+00   0.0000000000E+00   0.0000000000E+00   0.0000000000E+00   0.0000000000E+00   0.0000000000E+00   0.0000000000E+00   0.0000000000E+00   0.0000000000E+00   0.2500000004E+01  -0.1060840439E-14  -0.1347923720E-14   0.1442855542E-16  -0.1341964739E-15   0.1418170242E-15   0.5000000008E-02  -0.2495000004E-02  -0.2495000004E-02  -0.1225371448E-20  -0.1219850145E-17   0.1862378273E-17   0.2500000004E+01
   0.1005000000E+01   0.0000000000E+00  -0.9191829767E-18   0.1250000000E-02   0.0000000000E+00  -0.6658800091E-18   0.3750000000E-02   0.0000000000E+00  -0.2533029676E-18   0.2500000004E+01   0.4215368251E-13   0.4221191580E-13   0.1440696342E-16   0.6973038999E-16   0.7783271961E-16   0.5000000008E-02  -0.2495000004E-02  -0.2495000004E-02  -0.6936952399E-18   0.6062307405E-18   0.7371992461E-18   0.2500000004E+01
   0.1005000000E+01   0.9975050000E+00  -0.2255811843E-18   0.1250000000E-02  -0.6237500000E-03  -0.1776261351E-18   0.3750000000E-02  -0.1871250000E-02  -0.4795504913E-19   0.2500000004E+01  -0.3501134484E-14  -0.3814612253E-14   0.2546905449E-16  -0.1139649483E-16  -0.5934873069E-17   0.5000000007E-02  -0.2495000004E-02  -0.2495000004E-02  -0.1792576711E-17  -0.1497173274E-17  -0.8109109262E-19   0.2500000004E+01
   0.0000000000E+00   0.9975050000E+00   0.6392027135E-18   0.0000000000E+00  -0.6237500000E-03   0.1146966456E-18   0.0000000000E+00  -0.1871250000E-02   0.5245060679E-18   0.2500000004E+01  -0.1920065587E-13  -0.1927957239E-13   0.3766613157E-16  -0.3266611607E-16  -0.1808826420E-16   0.5000000007E-02  -0.2495000004E-02  -0.2495000004E-02   0.1105023729E-18  -0.1842584220E-18  -0.7271543560E-18   0.2500000004E+01
   0.0000000000E+00   0.0000000000E+00   0.9975050000E+00   0.0000000000E+00   0.0000000000E+00  -0.6237500000E-03   0.0000000000E+00   0.0000000000E+00  -0.1871250000E-02   0.2500000004E+01  -0.1916343266E-13  -0.1889766424E-13  -0.1091996360E-16  -0.9041937650E-16  -0.5387340393E-16   0.5000000007E-02  -0.2495000004E-02  -0.2495000004E-02  -0.6165037466E-18  -0.2154239660E-17  -0.1078297354E-17   0.2500000004E+01
   0.1005000000E+01   0.0000000000E+00   0.9975050000E+00   0.1250000000E-02   0.0000000000E+00  -0.6237500000E-03   0.3750000000E-02   0.0000000000E+00  -0.1871250000E-02   0.2500000004E+01  -0.1472605610E-13  -0.1445321528E-13   0.3050085789E-16  -0.3587029134E-17   0.1858234044E-15   0.5000000007E-02  -0.2495000004E-02  -0.2495000004E-02   0.1347838213E-17   0.9653032869E-18   0.2295849963E-17   0.2500000004E+01
   0.1005000000E+01   0.9975050000E+00   0.9975050000E+00   0.1250000000E-02  -0.6237500000E-03  -0.6237500000E-03   0.3750000000E-02  -0.1871250000E-02  -0.1871250000E-02   0.2500000003E+01  -0.6151930689E-14  -0.5901401140E-14   0.1413403484E-16   0.1055351210E-16  -0.1186784215E-15   0.5000000007E-02  -0.2495000003E-02  -0.2495000003E-02   0.7698783300E-18   0.6166096162E-19  -0.1303000699E-17   0.2500000003E+01
   0.0000000000E+00   0.9975050000E+00   0.9975050000E+00   0.0000000000E+00  -0.6237500000E-03  -0.6237500000E-03   0.0000000000E+00  -0.1871250000E-02  -0.1871250000E-02   0.2500000003E+01   0.1751672777E-13   0.1742194074E-13  -0.3368855979E-16   0.2606822650E-16  -0.7380977502E-16   0.5000000007E-02  -0.2495000003E-02  -0.2495000003E-02  -0.1335250625E-17   0.1594219872E-17   0.5417453982E-19   0.2500000003E+01
   0.2010000000E+01   0.0000000000E+00  -0.2954748338E-17   0.2500000000E-02   0.0000000000E+00  -0.1442026258E-17   0.7500000000E-02   0.0000000000E+00  -0.1512722080E-17   0.2500000004E+01   0.3673489454E-13   0.3646540758E-13  -0.1590735893E-15  -0.1885924897E-15  -0.3103231207E-16   0.5000000008E-02  -0.2495000004E-02  -0.2495000004E-02  -0.4681235178E-17  -0.5515687890E-17  -0.2117669145E-18   0.2500000004E+01
   0.2010000000E+01   0.9975050000E+00  -0.2970039523E-17   0.2500000000E-02  -0.6237500000E-03  -0.1818717149E-17   0.7500000000E-02  -0.1871250000E-02  -0.1151322374E-17   0.2500000003E+01  -0.9578419420E-14  -0.9434561957E-14  -0.2638686019E-15   0.4263211609E-16  -0.9813718035E-16   0.5000000007E-02  -0.2495000003E-02  -0.2495000003E-02  -0.4386504178E-17   0.4743915140E-17  -0.3069447368E-18   0.2500000003E+01
   0.2010000000E+01   0.0000000000E+00   0.9975050000E+00   0.2500000000E-02   0.0000000000E+00  -0.6237500000E-03   0.7500000000E-02   0.0000000000E+00  -0.1871250000E-02   0.2500000003E+01  -0.4087869793E-14  -0.4115260671E-14  -0.4627443059E-16  -0.9040564311E-16   0.4088110999E-16   0.5000000007E-02  -0.2495000003E-02  -0.2495000003E-02   0.6697681680E-18  -0.5584231322E-18   0.2744593794E-19   0.2500000003E+01
   0.2010000000E+01   0.9975050000E+00   0.9975050000E+00   0.2500000000E-02  -0.6237500000E-03  -0.6237500000E-03   0.7500000000E-02  -0.1871250000E-02  -0.1871250000E-02   0.2500000003E+01   0.3813613864E-14   0.3736423163E-14   0.6606611514E-16   0.3544921633E-15  -0.9090470615E-16   0.5000000006E-02  -0.2495000003E-02  -0.2495000003E-02   0.1287555384E-17   0.3754156977E-17   0.2263963741E-18   0.2500000003E+01
     1     2     3     4     5     6     7     8
     2     9    10     3     6    11    12     7
 VARIABLES = X,Y,Z,DU1,DU2,DU3,U1,U2,U3,S11,S22,S33,S12,S13,S23,E11,E22,E33,E12,E13,E23,SMISES
 ZONE, T="0.2500D+00" F=FEPOINT, I=   12 J=    2 ET=BRICK
   0.0000000000E+00   0.0000000000E+00   0.0000000000E+00   0.0000000000E+00   0.0000000000E+00   0.0000000000E+00   0.0000000000E+00   0.0000000000E+00   0.0000000000E+00   0.3125000005E+01  -0.5695448615E-13  -0.5696192323E-13   0.1447969541E-16  -0.9916485480E-16   0.2138216956E-15   0.6250000010E-02  -0.3118750005E-02  -0.3118750005E-02   0.5857901430E-18   0.4338921649E-18   0.6468048357E-18   0.3125000005E+01
   0.1006250000E+01   0.0000000000E+00  -0.1149132986E-17   0.1250000000E-02   0.0000000000E+00  -0.2299500096E-18   0.5000000000E-02   0.0000000000E+00  -0.9191829767E-18   0.3125000005E+01  -0.4404620544E-13  -0.4410171658E-13   0.1592871152E-15   0.1368796052E-15   0.6577566413E-16   0.6250000010E-02  -0.3118750005E-02  -0.3118750005E-02  -0.8432037670E-19  -0.1609893902E-17   0.2613908470E-17   0.3125000005E+01
   0.1006250000E+01   0.9968812500E+00  -0.5086606060E-18   0.1250000000E-02  -0.6237500000E-03  -0.2830794217E-18   0.5000000000E-02  -0.2495000000E-02  -0.2255811843E-18   0.3125000004E+01   0.2339983332E-13   0.2295972967E-13   0.1558883134E-15  -0.1475850960E-15  -0.3813091211E-16   0.6250000009E-02  -0.3118750004E-02  -0.3118750004E-02  -0.1108600137E-17   0.1509298169E-17  -0.3230355984E-17   0.3125000004E+01
   0.0000000000E+00   0.9968812500E+00   0.9190193164E-18   0.0000000000E+00  -0.6237500000E-03   0.2798166029E-18   0.0000000000E+00  -0.2495000000E-02   0.6392027135E-18   0.3125000005E+01   0.7316746839E-14   0.6969339740E-14  -0.1675950539E-16  -0.1137387792E-15  -0.5570159798E-16   0.6250000009E-02  -0.3118750005E-02  -0.3118750005E-02  -0.7140418356E-18  -0.2929564591E-17   0.1332092772E-17   0.3125000005E+01
   0.0000000000E+00   0.0000000000E+00   0.9968812500E+00   0.0000000000E+00   0.0000000000E+00  -0.6237500000E-03   0.0000000000E+00   0.0000000000E+00  -0.2495000000E-02   0.3125000005E+01   0.7228107154E-13   0.7265822698E-13  -0.1041586016E-16  -0.1106515306E-15  -0.9661185070E-16   0.6250000009E-02  -0.3118750005E-02  -0.3118750005E-02  -0.4012174820E-18   0.3677856356E-18  -0.1799412374E-18   0.3125000005E+01
   0.1006250000E+01   0.0000000000E+00   0.9968812500E+00   0.1250000000E-02   0.0000000000E+00  -0.6237500000E-03   0.5000000000E-02   0.0000000000E+00  -0.2495000000E-02   0.3125000004E+01   0.2192778793E-13   0.2258993615E-13  -0.9089673990E-16   0.1117601481E-15   0.1486571600E-15   0.6250000009E-02  -0.3118750004E-02  -0.3118750004E-02   0.1817133462E-18  -0.8085912034E-18  -0.5203638453E-20   0.3125000004E+01
   0.1006250000E+01   0.9968812500E+00   0.9968812500E+00   0.1250000000E-02  -0.6237500000E-03  -0.6237500000E-03   0.5000000000E-02  -0.2495000000E-02  -0.2495000000E-02   0.3125000004E+01  -0.1808485753E-13  -0.1814036867E-13  -0.8363419348E-16  -0.1126268947E-15  -0.1481981899E-15   0.6250000008E-02  -0.3118750004E-02  -0.3118750004E-02   0.8050401654E-18  -0.4084842516E-18   0.1092159446E-17   0.3125000004E+01
   0.0000000000E+00   0.9968812500E+00   0.9968812500E+00   0.0000000000E+00  -0.6237500000E-03  -0.6237500000E-03   0.0000000000E+00  -0.2495000000E-02  -0.2495000000E-02   0.3125000004E+01  -0.5231293575E-13  -0.5232037283E-13   0.4426498866E-16  -0.5298155149E-16  -0.1180126960E-15   0.6250000008E-02  -0.3118750004E-02  -0.3118750004E-02  -0.1555254522E-17   0.8290240164E-18  -0.2064666182E-17   0.3125000004E+01
   0.2012500000E+01   0.0000000000E+00  -0.4937692636E-17   0.2500000000E-02   0.0000000000E+00  -0.1982944297E-17   0.1000000000E-01   0.0000000000E+00  -0.2954748338E-17   0.3125000005E+01  -0.2555862621E-13  -0.2566221141E-13   0.1182860624E-15  -0.1086956087E-15   0.1029057219E-15   0.6250000009E-02  -0.3118750005E-02  -0.3118750005E-02   0.4517579598E-17   0.1428202481E-17   0.1112604881E-17   0.3125000005E+01
   0.2012500000E+01   0.9968812500E+00  -0.4083984777E-17   0.2500000000E-02  -0.6237500000E-03  -0.1113945253E-17   0.1000000000E-01  -0.2495000000E-02  -0.2970039523E-17   0.3125000004E+01  -0.8650790839E-14  -0.8517457319E-14   0.1095185236E-15  -0.1060799080E-15  -0.2915342677E-16   0.6250000009E-02  -0.3118750004E-02  -0.3118750004E-02   0.5895437853E-17   0.7309903857E-17   0.3452188891E-18   0.3125000004E+01
   0.2012500000E+01   0.0000000000E+00   0.9968812500E+00   0.2500000000E-02   0.0000000000E+00  -0.6237500000E-03   0.1000000000E-01   0.0000000000E+00  -0.2495000000E-02   0.3125000004E+01   0.4709107018E-14   0.4990114320E-14  -0.1069598192E-15  -0.2987008853E-16   0.1322058076E-15   0.6250000009E-02  -0.3118750004E-02  -0.3118750004E-02  -0.4958977158E-19  -0.6233970525E-17   0.2534271213E-17   0.3125000004E+01
   0.2012500000E+01   0.9968812500E+00   0.9968812500E+00   0.2500000000E-02  -0.6237500000E-03  -0.6237500000E-03   0.1000000000E-01  -0.2495000000E-02  -0.2495000000E-02   0.3125000004E+01  -0.5588963133E-14  -0.5692548327E-14  -0.9527915120E-16   0.3787372561E-15  -0.1875905952E-15   0.6250000008E-02  -0.3118750004E-02  -0.3118750004E-02  -0.4869924611E-18   0.5102850523E-17  -0.3610350960E-17   0.3125000004E+01
     1     2     3     4     5     6     7     8
     2     9    10     3     6    11    12     7
 VARIABLES = X,Y,Z,DU1,DU2,DU3,U1,U2,U3,S11,S22,S33,S12,S13,S23,E11,E22,E33,E12,E13,E23,SMISES
 ZONE, T="0.3000D+00" F=FEPOINT, I=   12 J=    2 ET=BRICK
   0.0000000000E+00   0.0000000000E+00   0.0000000000E+00   0.0000000000E+00   0.0000000000E+00   0.0000000000E+00   0.0000000000E+00   0.0000000000E+00   0.0000000000E+00   0.3750000006E+01   0.6416185901E-14   0.6529930336E-14   0.6711203013E-17  -0.8808107961E-16   0.2461129702E-15   0.7500000012E-02  -0.3742500006E-02  -0.3742500006E-02  -0.9341640167E-18  -0.3523328085E-18   0.2449646529E-17   0.3750000006E+01
   0.1007500000E+01   0.0000000000E+00  -0.8056401458E-18   0.1250000000E-02   0.0000000000E+00   0.3434928405E-18   0.6250000000E-02   0.0000000000E+00  -0.1149132986E-17   0.3750000006E+01   0.9800385212E-14   0.9835577868E-14   0.7241492642E-16  -0.6306580092E-16   0.7595255517E-16   0.7500000012E-02  -0.3742500006E-02  -0.3742500006E-02   0.1620705388E-17  -0.4148118294E-18   0.2130562431E-17   0.3750000006E+01
   0.1007500000E+01   0.9962575000E+00  -0.4412105908E-19   0.1250000000E-02  -0.6237500000E-03   0.4645395469E-18   0.6250000000E-02  -0.3118750000E-02  -0.5086606060E-18   0.3750000005E+01  -0.5259171809E-13  -0.5298574044E-13  -0.2336879109E-16   0.1433523131E-15   0.2086626668E-15   0.7500000011E-02  -0.3742500005E-02  -0.3742500005E-02  -0.1353791508E-17  -0.2116812203E-17   0.9211759390E-18   0.3750000005E+01
   0.0000000000E+00   0.9962575000E+00   0.1016213513E-17   0.0000000000E+00  -0.6237500000E-03   0.9719419699E-19   0.0000000000E+00  -0.3118750000E-02   0.9190193164E-18   0.3750000005E+01  -0.3233075814E-14  -0.3648146048E-14  -0.1412093490E-15  -0.1068025372E-15   0.1543906154E-17   0.7500000011E-02  -0.3742500005E-02  -0.3742500005E-02  -0.3449105511E-17  -0.4711318066E-18   0.1111227207E-18   0.3750000005E+01
   0.0000000000E+00   0.0000000000E+00   0.9962575000E+00   0.0000000000E+00   0.0000000000E+00  -0.6237500000E-03   0.0000000000E+00   0.0000000000E+00  -0.3118750000E-02   0.3750000005E+01  -0.4381483710E-14  -0.4456583916E-14  -0.8739807269E-18  -0.9138669909E-16  -0.1630873783E-15   0.7500000011E-02  -0.3742500005E-02  -0.3742500005E-02   0.9392579045E-18  -0.7417784776E-18  -0.3167585692E-17   0.3750000005E+01
   0.1007500000E+01   0.0000000000E+00   0.9962575000E+00   0.1250000000E-02   0.0000000000E+00  -0.6237500000E-03   0.6250000000E-02   0.0000000000E+00  -0.3118750000E-02   0.3750000005E+01   0.5609075941E-14   0.5932712956E-14   0.2370581448E-15  -0.8519126933E-16   0.8272520259E-16   0.7500000011E-02  -0.3742500005E-02  -0.3742500005E-02   0.6409742362E-18  -0.2733582445E-17  -0.4100243423E-18   0.3750000005E+01
   0.1007500000E+01   0.9962575000E+00   0.9962575000E+00   0.1250000000E-02  -0.6237500000E-03  -0.6237500000E-03   0.6250000000E-02  -0.3118750000E-02  -0.3118750000E-02   0.3750000005E+01   0.2551715243E-13   0.2528966353E-13   0.2668401839E-15   0.1650888138E-15  -0.6423058144E-16   0.7500000010E-02  -0.3742500005E-02  -0.3742500005E-02   0.2198577609E-17   0.4584813629E-17   0.8979961476E-18   0.3750000005E+01
   0.0000000000E+00   0.9962575000E+00   0.9962575000E+00   0.0000000000E+00  -0.6237500000E-03  -0.6237500000E-03   0.0000000000E+00  -0.3118750000E-02  -0.3118750000E-02   0.3750000005E+01   0.2617672363E-13   0.2642180884E-13   0.8624806464E-16  -0.1246357488E-16  -0.1409699013E-15   0.7500000010E-02  -0.3742500005E-02  -0.3742500005E-02   0.5181073625E-18   0.9017846261E-18  -0.3090925887E-17   0.3750000005E+01
   0.2015000000E+01   0.0000000000E+00  -0.2176628122E-17   0.2500000000E-02   0.0000000000E+00   0.2761064513E-17   0.1250000000E-01   0.0000000000E+00  -0.4937692636E-17   0.3750000006E+01  -0.2494463266E-14  -0.2486296782E-14  -0.1862098332E-15  -0.2215400869E-15  -0.1532649871E-15   0.7500000011E-02  -0.3742500006E-02  -0.3742500006E-02  -0.4609840053E-17  -0.3702519698E-17  -0.1907970570E-17   0.3750000006E+01
   0.2015000000E+01   0.9962575000E+00  -0.2825021433E-17   0.2500000000E-02  -0.6237500000E-03   0.1258963344E-17   0.1250000000E-01  -0.3118750000E-02  -0.4083984777E-17   0.3750000005E+01  -0.6227497798E-13  -0.6217411494E-13  -0.1231371761E-15  -0.3322143355E-16  -0.1336789106E-15   0.7500000010E-02  -0.3742500005E-02  -0.3742500005E-02  -0.1307546454E-17   0.5349982918E-17  -0.1446067867E-17   0.3750000005E+01
   0.2015000000E+01   0.0000000000E+00   0.9962575000E+00   0.2500000000E-02   0.0000000000E+00  -0.6237500000E-03   0.1250000000E-01   0.0000000000E+00  -0.3118750000E-02   0.3750000005E+01  -0.5330477773E-13  -0.5344083342E-13   0.2991453889E-15  -0.3305233045E-15   0.1420639677E-16   0.7500000010E-02  -0.3742500005E-02  -0.3742500005E-02   0.8295385175E-17   0.7558379989E-17   0.1264472386E-17   0.3750000005E+01
   0.2015000000E+01   0.9962575000E+00   0.9962575000E+00   0.2500000000E-02  -0.6237500000E-03  -0.6237500000E-03   0.1250000000E-01  -0.3118750000E-02  -0.3118750000E-02   0.3750000005E+01   0.7846266015E-14   0.7863862329E-14   0.2343775302E-15   0.6992535928E-15  -0.1991176639E-15   0.7500000010E-02  -0.3742500005E-02  -0.3742500005E-02   0.7758467759E-17  -0.3271860392E-17  -0.2836934632E-17   0.3750000005E+01
     1     2     3     4     5     6     7     8
     2     9    10     3     6    11    12     7
 VARIABLES = X,Y,Z,DU1,DU2,DU3,U1,U2,U3,S11,S22,S33,S12,S13,S23,E11,E22,E33,E12,E13,E23,SMISES
 ZONE, T="0.3500D+00" F=FEPOINT, I=   12 J=    2 ET=BRICK
   0.0000000000E+00   0.0000000000E+00   0.0000000000E+00   0.0000000000E+00   0.0000000000E+00   0.0000000000E+00   0.0000000000E+00   0.0000000000E+00   0.0000000000E+00   0.4375000007E+01  -0.3055219158E-13  -0.3003625830E-13   0.6375320692E-17   0.3275140578E-17   0.9213413105E-16   0.8750000014E-02  -0.4366250007E-02  -0.4366250007E-02   0.3021968303E-18  -0.2203753397E-18  -0.6088691055E-18   0.4375000007E+01
   0.1008750000E+01   0.0000000000E+00   0.3367692221E-18   0.1250000000E-02   0.0000000000E+00   0.1142409368E-17   0.7500000000E-02   0.0000000000E+00  -0.8056401458E-18   0.4375000007E+01  -0.1729388916E-14  -0.1344796407E-14   0.4605619071E-16  -0.4296353135E-16  -0.1146114173E-15   0.8750000013E-02  -0.4366250007E-02  -0.4366250007E-02   0.2399973040E-18  -0.4083508966E-18   0.5701157246E-18   0.4375000007E+01
   0.1008750000E+01   0.9956337500E+00  -0.1409216467E-18   0.1250000000E-02  -0.6237500000E-03  -0.9680058763E-19   0.7500000000E-02  -0.3742500000E-02  -0.4412105908E-19   0.4375000006E+01   0.1140098919E-13   0.1133060389E-13  -0.9871944744E-16   0.1956436983E-15   0.2524246583E-15   0.8750000012E-02  -0.4366250006E-02  -0.4366250006E-02  -0.1199776834E-17   0.4040865979E-18   0.1407587988E-17   0.4375000006E+01
   0.0000000000E+00   0.9956337500E+00   0.2629698897E-19   0.0000000000E+00  -0.6237500000E-03  -0.9899165244E-18   0.0000000000E+00  -0.3742500000E-02   0.1016213513E-17   0.4375000006E+01   0.3649977819E-13   0.3649977820E-13  -0.1694920939E-15  -0.7709713152E-16   0.1770069081E-15   0.8750000013E-02  -0.4366250006E-02  -0.4366250006E-02  -0.4431624026E-17   0.8218595169E-19  -0.1489564819E-17   0.4375000006E+01
   0.0000000000E+00   0.0000000000E+00   0.9956337500E+00   0.0000000000E+00   0.0000000000E+00  -0.6237500000E-03   0.0000000000E+00   0.0000000000E+00  -0.3742500000E-02   0.4375000006E+01   0.2563550560E-14   0.2134335573E-14  -0.3521997838E-17   0.1718446278E-16  -0.2916983483E-15   0.8750000013E-02  -0.4366250006E-02  -0.4366250006E-02  -0.4748742084E-18  -0.2384701827E-18   0.3965740036E-18   0.4375000006E+01
   0.1008750000E+01   0.0000000000E+00   0.9956337500E+00   0.1250000000E-02   0.0000000000E+00  -0.6237500000E-03   0.7500000000E-02   0.0000000000E+00  -0.3742500000E-02   0.4375000006E+01  -0.3302215271E-13  -0.3314406366E-13   0.2068772663E-15  -0.9255345861E-16  -0.1046014776E-15   0.8750000012E-02  -0.4366250006E-02  -0.4366250006E-02   0.2009538964E-17   0.1523177824E-17  -0.3508857272E-17   0.4375000006E+01
   0.1008750000E+01   0.9956337500E+00   0.9956337500E+00   0.1250000000E-02  -0.6237500000E-03  -0.6237500000E-03   0.7500000000E-02  -0.3742500000E-02  -0.3742500000E-02   0.4375000006E+01  -0.1864875221E-13  -0.1922564097E-13   0.1955101397E-15   0.1563289514E-15   0.6809402749E-16   0.8750000011E-02  -0.4366250006E-02  -0.4366250006E-02   0.2492726023E-17  -0.2537452764E-18   0.5129675182E-17   0.4375000006E+01
   0.0000000000E+00   0.9956337500E+00   0.9956337500E+00   0.0000000000E+00  -0.6237500000E-03  -0.6237500000E-03   0.0000000000E+00  -0.3742500000E-02  -0.3742500000E-02   0.4375000006E+01  -0.1151892432E-13  -0.1167602795E-13  -0.7750740555E-17   0.2734966096E-16   0.6972623105E-16   0.8750000012E-02  -0.4366250006E-02  -0.4366250006E-02  -0.4232161028E-18   0.1618262567E-17  -0.4833418296E-18   0.4375000006E+01
   0.2017500000E+01   0.0000000000E+00   0.2057468769E-17   0.2500000000E-02   0.0000000000E+00   0.4234096891E-17   0.1500000000E-01   0.0000000000E+00  -0.2176628122E-17   0.4375000007E+01   0.6940400403E-13   0.7004184829E-13  -0.4723610847E-16  -0.2315727732E-15  -0.2814661935E-15   0.8750000013E-02  -0.4366250007E-02  -0.4366250007E-02   0.1097979663E-17  -0.8329813886E-17  -0.2755594177E-17   0.4375000007E+01
   0.2017500000E+01   0.9956337500E+00   0.6790176827E-18   0.2500000000E-02  -0.6237500000E-03   0.3504039115E-17   0.1500000000E-01  -0.3742500000E-02  -0.2825021433E-17   0.4375000006E+01  -0.2485639687E-13  -0.2394644125E-13  -0.6230643008E-16  -0.3340725110E-15   0.1067529251E-15   0.8750000012E-02  -0.4366250006E-02  -0.4366250006E-02   0.3086969813E-17  -0.1308036930E-17   0.7654392886E-18   0.4375000006E+01
   0.2017500000E+01   0.0000000000E+00   0.9956337500E+00   0.2500000000E-02   0.0000000000E+00  -0.6237500000E-03   0.1500000000E-01   0.0000000000E+00  -0.3742500000E-02   0.4375000006E+01  -0.2514348833E-13  -0.2523963645E-13   0.1785001297E-15  -0.2239849500E-15  -0.1882447852E-15   0.8750000012E-02  -0.4366250006E-02  -0.4366250006E-02  -0.3871544209E-18  -0.6230192224E-17  -0.6332958324E-18   0.4375000006E+01
   0.2017500000E+01   0.9956337500E+00   0.9956337500E+00   0.2500000000E-02  -0.6237500000E-03  -0.6237500000E-03   0.1500000000E-01  -0.3742500000E-02  -0.3742500000E-02   0.4375000006E+01  -0.3809095450E-13  -0.3870303589E-13   0.1851237487E-15   0.3961608516E-15  -0.5410662343E-16   0.8750000011E-02  -0.4366250006E-02  -0.4366250006E-02   0.2141119765E-17  -0.5893133529E-18   0.3242935728E-17   0.4375000006E+01
     1     2     3     4     5     6     7     8
     2     9    10     3     6    11    12     7
 VARIABLES = X,Y,Z,DU1,DU2,DU3,U1,U2,U3,S11,S22,S33,S12,S13,S23,E11,E22,E33,E12,E13,E23,SMISES
 ZONE, T="0.4000D+00" F=FEPOINT, I=   12 J=    2 ET=BRICK
   0.0000000000E+00   0.0000000000E+00   0.0000000000E+00   0.0000000000E+00   0.0000000000E+00   0.0000000000E+00   0.0000000000E+00   0.0000000000E+00   0.0000000000E+00   0.5000000008E+01   0.4596506005E-14   0.4990528349E-14   0.2869364133E-17  -0.4977007086E-16   0.1591574835E-16   0.1000000002E-01  -0.4990000008E-02  -0.4990000008E-02  -0.5494991836E-18  -0.3359468213E-17  -0.1294687218E-17   0.5000000008E+01
   0.1010000000E+01   0.0000000000E+00  -0.1569833765E-18   0.1250000000E-02   0.0000000000E+00  -0.4937525986E-18   0.8750000000E-02   0.0000000000E+00   0.3367692221E-18   0.5000000008E+01  -0.9368074437E-14  -0.8983481928E-14  -0.3492382848E-15  -0.2962719785E-15  -0.9674445396E-16   0.1000000002E-01  -0.4990000008E-02  -0.4990000008E-02  -0.4665983589E-17  -0.1867003826E-18  -0.2758017340E-18   0.5000000008E+01
   0.1010000000E+01   0.9950100000E+00  -0.5687438610E-18   0.1250000000E-02  -0.6237500000E-03  -0.4278222143E-18   0.8750000000E-02  -0.4366250000E-02  -0.1409216467E-18   0.5000000007E+01  -0.3444103340E-13  -0.3431912244E-13  -0.4360061206E-15   0.3965025871E-15   0.2282784034E-15   0.1000000001E-01  -0.4990000007E-02  -0.4990000007E-02  -0.8637027641E-17   0.5157208810E-18   0.2694466241E-17   0.5000000007E+01
   0.0000000000E+00   0.9950100000E+00  -0.4071579897E-18   0.0000000000E+00  -0.6237500000E-03  -0.4334549786E-18   0.0000000000E+00  -0.4366250000E-02   0.2629698897E-19   0.5000000007E+01  -0.5102380827E-13  -0.5066497856E-13  -0.1699422182E-15  -0.5304574419E-16   0.3851908259E-16   0.1000000001E-01  -0.4990000007E-02  -0.4990000007E-02  -0.5947823357E-17   0.1208964270E-17  -0.1817762494E-18   0.5000000007E+01
   0.0000000000E+00   0.0000000000E+00   0.9950100000E+00   0.0000000000E+00   0.0000000000E+00  -0.6237500000E-03   0.0000000000E+00   0.0000000000E+00  -0.4366250000E-02   0.5000000007E+01  -0.1877497788E-13  -0.1932610379E-13  -0.1889624924E-16   0.1072861080E-15  -0.1130444600E-15   0.1000000001E-01  -0.4990000007E-02  -0.4990000007E-02  -0.5902211902E-18   0.1215254091E-17   0.3489818663E-17   0.5000000007E+01
   0.1010000000E+01   0.0000000000E+00   0.9950100000E+00   0.1250000000E-02   0.0000000000E+00  -0.6237500000E-03   0.8750000000E-02   0.0000000000E+00  -0.4366250000E-02   0.5000000007E+01   0.1657441391E-13   0.1645250296E-13   0.1619898136E-15  -0.2267795154E-15  -0.5354531807E-16   0.1000000001E-01  -0.4990000007E-02  -0.4990000007E-02   0.2776482383E-17  -0.7729843724E-18  -0.7321520631E-19   0.5000000007E+01
   0.1010000000E+01   0.9950100000E+00   0.9950100000E+00   0.1250000000E-02  -0.6237500000E-03  -0.6237500000E-03   0.8750000000E-02  -0.4366250000E-02  -0.4366250000E-02   0.5000000007E+01  -0.6678633980E-14  -0.7063226489E-14   0.1870227448E-15   0.2397111110E-15   0.3096550550E-16   0.1000000001E-01  -0.4990000007E-02  -0.4990000007E-02   0.6697650829E-17  -0.1222108118E-18   0.7898894982E-18   0.5000000007E+01
   0.0000000000E+00   0.9950100000E+00   0.9950100000E+00   0.0000000000E+00  -0.6237500000E-03  -0.6237500000E-03   0.0000000000E+00  -0.4366250000E-02  -0.4366250000E-02   0.5000000007E+01   0.8798675544E-13   0.8818848152E-13  -0.5835992924E-17  -0.4177654233E-16   0.2711443673E-15   0.1000000001E-01  -0.4990000007E-02  -0.4990000007E-02  -0.2586532897E-17   0.2377282818E-17   0.1929484455E-17   0.5000000007E+01
   0.2020000000E+01   0.0000000000E+00   0.9333208522E-18   0.2500000000E-02   0.0000000000E+00  -0.1124147917E-17   0.1750000000E-01   0.0000000000E+00   0.2057468769E-17   0.5000000008E+01  -0.5141332208E-13  -0.5103815940E-13  -0.2330947517E-15  -0.4444816048E-16  -0.2756267714E-15   0.1000000002E-01  -0.4990000008E-02  -0.4990000008E-02  -0.2743156742E-17   0.6764335153E-17  -0.1637319960E-17   0.5000000008E+01
   0.2020000000E+01   0.9950100000E+00  -0.3705506341E-18   0.2500000000E-02  -0.6237500000E-03  -0.1049568317E-17   0.1750000000E-01  -0.4366250000E-02   0.6790176827E-18   0.5000000007E+01   0.3763694233E-13   0.3818806824E-13  -0.1225008503E-15  -0.2385118526E-15   0.1193744538E-15   0.1000000001E-01  -0.4990000007E-02  -0.4990000007E-02   0.5579555661E-17   0.4169798638E-17  -0.2833283626E-17   0.5000000007E+01
   0.2020000000E+01   0.0000000000E+00   0.9950100000E+00   0.2500000000E-02   0.0000000000E+00  -0.6237500000E-03   0.1750000000E-01   0.0000000000E+00  -0.4366250000E-02   0.5000000007E+01  -0.4946554271E-15  -0.8534851360E-15   0.2431576007E-16  -0.2115967564E-15  -0.1750655085E-15   0.1000000001E-01  -0.4990000007E-02  -0.4990000007E-02  -0.3215820188E-17  -0.1109906523E-16  -0.9469073407E-18   0.5000000007E+01
   0.2020000000E+01   0.9950100000E+00   0.9950100000E+00   0.2500000000E-02  -0.6237500000E-03  -0.6237500000E-03   0.1750000000E-01  -0.4366250000E-02  -0.4366250000E-02   0.5000000006E+01  -0.7480172588E-13  -0.7577263698E-13   0.2636145938E-15   0.2416746386E-15  -0.4715683274E-16   0.1000000001E-01  -0.4990000006E-02  -0.4990000006E-02  -0.2475043393E-17   0.1115832682E-16  -0.4797977324E-18   0.5000000006E+01
     1     2     3     4     5     6     7     8
     2     9    10     3     6    11    12     7
 VARIABLES = X,Y,Z,DU1,DU2,DU3,U1,U2,U3,S11,S22,S33,S12,S13,S23,E11,E22,E33,E12,E13,E23,SMISES
 ZONE, T="0.4500D+00" F=FEPOINT, I=   12 J=    2 ET=BRICK
   0.0000000000E+00   0.0000000000E+00   0.0000000000E+00   0.0000000000E+00   0.0000000000E+00   0.0000000000E+00   0.0000000000E+00   0.0000000000E+00   0.0000000000E+00   0.5625000009E+01   0.4859153163E-13   0.4901603171E-13   0.3624495921E-17   0.3219577772E-16   0.1442032287E-15   0.1125000002E-01  -0.5613750009E-02  -0.5613750009E-02  -0.1025093187E-17   0.9785975665E-18  -0.9613533292E-18   0.5625000009E+01
   0.1011250000E+01   0.0000000000E+00  -0.1209488457E-18   0.1250000000E-02   0.0000000000E+00   0.3603453074E-19   0.1000000000E-01   0.0000000000E+00  -0.1569833765E-18   0.5625000009E+01   0.3564385228E-14   0.3695726023E-14  -0.1748823158E-15  -0.2165464465E-15  -0.1918741466E-16   0.1125000002E-01  -0.5613750009E-02  -0.5613750009E-02   0.6337397461E-18  -0.4884705285E-17  -0.9210950885E-18   0.5625000009E+01
   0.1011250000E+01   0.9943862500E+00  -0.3787863976E-19   0.1250000000E-02  -0.6237500000E-03   0.5308652213E-18   0.1000000000E-01  -0.4990000000E-02  -0.5687438610E-18   0.5625000008E+01   0.3169387127E-13   0.3165867862E-13  -0.2591150586E-15   0.2220635420E-15   0.1413438607E-15   0.1125000002E-01  -0.5613750008E-02  -0.5613750008E-02  -0.1801324545E-17   0.5904235190E-17   0.2977924555E-17   0.5625000008E+01
   0.0000000000E+00   0.9943862500E+00   0.3638676763E-18   0.0000000000E+00  -0.6237500000E-03   0.7710256659E-18   0.0000000000E+00  -0.4990000000E-02  -0.4071579897E-18   0.5625000008E+01   0.1066319430E-13   0.1100442769E-13  -0.8519630167E-16  -0.8913809677E-16  -0.5121715113E-16   0.1125000002E-01  -0.5613750008E-02  -0.5613750008E-02  -0.6869411144E-17  -0.1391841350E-17  -0.3372482287E-17   0.5625000008E+01
   0.0000000000E+00   0.0000000000E+00   0.9943862500E+00   0.0000000000E+00   0.0000000000E+00  -0.6237500000E-03   0.0000000000E+00   0.0000000000E+00  -0.4990000000E-02   0.5625000008E+01  -0.1190923753E-13  -0.1208393742E-13  -0.2731758357E-16   0.3793274627E-16  -0.7730843686E-16   0.1125000002E-01  -0.5613750008E-02  -0.5613750008E-02   0.5481839186E-18  -0.6381340733E-18   0.3292126461E-17   0.5625000008E+01
   0.1011250000E+01   0.0000000000E+00   0.9943862500E+00   0.1250000000E-02   0.0000000000E+00  -0.6237500000E-03   0.1000000000E-01   0.0000000000E+00  -0.4990000000E-02   0.5625000008E+01   0.3619971669E-14   0.3462868060E-14   0.4514475374E-16  -0.5973587876E-16   0.4784886814E-16   0.1125000002E-01  -0.5613750008E-02  -0.5613750008E-02   0.1633640251E-17   0.9804386689E-18   0.2712267916E-17   0.5625000008E+01
   0.1011250000E+01   0.9943862500E+00   0.9943862500E+00   0.1250000000E-02  -0.6237500000E-03  -0.6237500000E-03   0.1000000000E-01  -0.4990000000E-02  -0.4990000000E-02   0.5625000007E+01   0.6834775107E-14   0.6389227139E-14   0.5926883757E-16   0.9698872800E-17  -0.9803870551E-16   0.1125000001E-01  -0.5613750007E-02  -0.5613750007E-02   0.2683225869E-17  -0.4205287798E-18   0.2580292152E-17   0.5625000007E+01
   0.0000000000E+00   0.9943862500E+00   0.9943862500E+00   0.0000000000E+00  -0.6237500000E-03  -0.6237500000E-03   0.0000000000E+00  -0.4990000000E-02  -0.4990000000E-02   0.5625000008E+01  -0.3695792222E-13  -0.3636688871E-13   0.9546489555E-16   0.5391433449E-16   0.9723038326E-16   0.1125000002E-01  -0.5613750008E-02  -0.5613750008E-02   0.9444347455E-18   0.5387263732E-17   0.1786282064E-17   0.5625000008E+01
   0.2022500000E+01   0.0000000000E+00  -0.2331172283E-18   0.2500000000E-02   0.0000000000E+00  -0.1166438080E-17   0.2000000000E-01   0.0000000000E+00   0.9333208522E-18   0.5625000009E+01  -0.3761412871E-13  -0.3681446597E-13  -0.5241193695E-16  -0.1671030210E-15  -0.1397000432E-15   0.1125000002E-01  -0.5613750008E-02  -0.5613750008E-02  -0.6608428904E-17   0.8817916555E-18   0.7848362927E-18   0.5625000009E+01
   0.2022500000E+01   0.9943862500E+00  -0.6920499385E-18   0.2500000000E-02  -0.6237500000E-03  -0.3214993045E-18   0.2000000000E-01  -0.4990000000E-02  -0.3705506341E-18   0.5625000008E+01   0.6003451277E-13   0.6034055347E-13  -0.4193745336E-17  -0.1081238514E-15   0.1504216828E-15   0.1125000002E-01  -0.5613750008E-02  -0.5613750008E-02  -0.1787929870E-17   0.2660247320E-17  -0.4122075614E-17   0.5625000008E+01
   0.2022500000E+01   0.0000000000E+00   0.9943862500E+00   0.2500000000E-02   0.0000000000E+00  -0.6237500000E-03   0.2000000000E-01   0.0000000000E+00  -0.4990000000E-02   0.5625000008E+01  -0.8523369692E-15  -0.9403186040E-15   0.1457651257E-15   0.5620096685E-16  -0.1098313815E-15   0.1125000002E-01  -0.5613750008E-02  -0.5613750008E-02   0.1811477354E-17  -0.6883956036E-17  -0.5235602540E-18   0.5625000008E+01
   0.2022500000E+01   0.9943862500E+00   0.9943862500E+00   0.2500000000E-02  -0.6237500000E-03  -0.6237500000E-03   0.2000000000E-01  -0.4990000000E-02  -0.4990000000E-02   0.5625000007E+01   0.2716462253E-13   0.2664397432E-13   0.3522127342E-15   0.1290632323E-15  -0.6847104094E-16   0.1125000001E-01  -0.5613750007E-02  -0.5613750007E-02   0.3186093133E-18   0.7962905752E-17  -0.4896037694E-18   0.5625000007E+01
     1     2     3     4     5     6     7     8
     2     9    10     3     6    11    12     7
 VARIABLES = X,Y,Z,DU1,DU2,DU3,U1,U2,U3,S11,S22,S33,S12,S13,S23,E11,E22,E33,E12,E13,E23,SMISES
 ZONE, T="0.5000D+00" F=FEPOINT, I=   12 J=    2 ET=BRICK
   0.0000000000E+00   0.0000000000E+00   0.0000000000E+00   0.0000000000E+00   0.0000000000E+00   0.0000000000E+00   0.0000000000E+00   0.0000000000E+00   0.0000000000E+00   0.6250000010E+01  -0.5560829559E-14  -0.5610896381E-14   0.8021941900E-17  -0.2220877942E-16  -0.1068508994E-16   0.1250000002E-01  -0.6237500010E-02  -0.6237500010E-02  -0.5376036278E-18   0.2716421386E-18   0.1548120874E-17   0.6250000010E+01
   0.1012500000E+01   0.0000000000E+00  -0.1246685682E-18   0.1250000000E-02   0.0000000000E+00  -0.3719722463E-20   0.1125000000E-01   0.0000000000E+00  -0.1209488457E-18   0.6250000010E+01   0.4479991252E-15   0.1458088383E-14  -0.1448468625E-15  -0.9714252110E-16  -0.8370678189E-16   0.1250000002E-01  -0.6237500010E-02  -0.6237500010E-02   0.4958546993E-18   0.2207472295E-17  -0.1301459296E-17   0.6250000010E+01
   0.1012500000E+01   0.9937625000E+00  -0.4042028297E-18   0.1250000000E-02  -0.6237500000E-03  -0.3663241899E-18   0.1125000000E-01  -0.5613750000E-02  -0.3787863976E-19   0.6250000009E+01   0.8968681423E-14   0.9364162573E-14  -0.1897978406E-15   0.1821797146E-15   0.1484032199E-15   0.1250000002E-01  -0.6237500009E-02  -0.6237500009E-02  -0.7824260361E-18  -0.6142199622E-18  -0.5379637209E-18   0.6250000009E+01
   0.0000000000E+00   0.9937625000E+00  -0.5365311132E-18   0.0000000000E+00  -0.6237500000E-03  -0.9003987894E-18   0.0000000000E+00  -0.5613750000E-02   0.3638676763E-18   0.6250000009E+01  -0.1237083340E-13  -0.1244666300E-13  -0.2027902333E-16  -0.1979118899E-16   0.6745408116E-16   0.1250000002E-01  -0.6237500009E-02  -0.6237500009E-02  -0.3210150472E-17  -0.1515092087E-17  -0.3891297949E-17   0.6250000009E+01
   0.0000000000E+00   0.0000000000E+00   0.9937625000E+00   0.0000000000E+00   0.0000000000E+00  -0.6237500000E-03   0.0000000000E+00   0.0000000000E+00  -0.5613750000E-02   0.6250000009E+01   0.4842275652E-13   0.4757774190E-13  -0.4130897205E-16   0.4416851933E-16  -0.2003824248E-15   0.1250000002E-01  -0.6237500009E-02  -0.6237500009E-02  -0.6523032913E-18   0.2346799231E-17  -0.1190008259E-17   0.6250000009E+01
   0.1012500000E+01   0.0000000000E+00   0.9937625000E+00   0.1250000000E-02   0.0000000000E+00  -0.6237500000E-03   0.1125000000E-01   0.0000000000E+00  -0.5613750000E-02   0.6250000009E+01   0.9124251017E-14   0.8750547149E-14  -0.1659922035E-17  -0.4865108556E-16   0.4063665909E-16   0.1250000002E-01  -0.6237500009E-02  -0.6237500009E-02   0.1323131874E-17  -0.1290065407E-17   0.6020746831E-17   0.6250000009E+01
   0.1012500000E+01   0.9937625000E+00   0.9937625000E+00   0.1250000000E-02  -0.6237500000E-03  -0.6237500000E-03   0.1125000000E-01  -0.5613750000E-02  -0.5613750000E-02   0.6250000008E+01  -0.3424816478E-13  -0.3481416486E-13  -0.8277264572E-16  -0.2574933370E-16  -0.6825906479E-16   0.1250000002E-01  -0.6237500008E-02  -0.6237500008E-02  -0.2266278391E-17  -0.7887417981E-18   0.2655199471E-17   0.6250000008E+01
   0.0000000000E+00   0.9937625000E+00   0.9937625000E+00   0.0000000000E+00  -0.6237500000E-03  -0.6237500000E-03   0.0000000000E+00  -0.5613750000E-02  -0.5613750000E-02   0.6250000008E+01  -0.1195443230E-13  -0.1146027637E-13  -0.1088435757E-15   0.1755533486E-15   0.2575468505E-15   0.1250000002E-01  -0.6237500008E-02  -0.6237500008E-02  -0.2264852959E-17   0.6160063943E-17   0.2050106731E-17   0.6250000008E+01
   0.2025000000E+01   0.0000000000E+00   0.5524061861E-18   0.2500000000E-02   0.0000000000E+00   0.7855234143E-18   0.2250000000E-01   0.0000000000E+00  -0.2331172283E-18   0.6250000009E+01   0.2898210991E-13   0.2905395401E-13  -0.2756902660E-15  -0.2735273548E-15  -0.1641819518E-15   0.1250000002E-01  -0.6237500009E-02  -0.6237500009E-02  -0.3457408843E-17   0.5631804310E-17  -0.1833457566E-17   0.6250000009E+01
   0.2025000000E+01   0.9937625000E+00  -0.5398463176E-19   0.2500000000E-02  -0.6237500000E-03   0.6380653068E-18   0.2250000000E-01  -0.5613750000E-02  -0.6920499385E-18   0.6250000009E+01   0.1005711980E-14   0.7187264370E-15  -0.1869456513E-15   0.6882801975E-16   0.1026841489E-15   0.1250000002E-01  -0.6237500009E-02  -0.6237500009E-02  -0.2136368033E-17   0.7385479678E-17  -0.1482894282E-19   0.6250000009E+01
   0.2025000000E+01   0.0000000000E+00   0.9937625000E+00   0.2500000000E-02   0.0000000000E+00  -0.6237500000E-03   0.2250000000E-01   0.0000000000E+00  -0.5613750000E-02   0.6250000009E+01   0.1912703974E-13   0.1807086918E-13   0.1553843582E-16  -0.2465080382E-16  -0.8448535706E-16   0.1250000002E-01  -0.6237500009E-02  -0.6237500009E-02   0.3582658150E-17   0.7457382277E-17   0.1130749924E-17   0.6250000009E+01
   0.2025000000E+01   0.9937625000E+00   0.9937625000E+00   0.2500000000E-02  -0.6237500000E-03  -0.6237500000E-03   0.2250000000E-01  -0.5613750000E-02  -0.5613750000E-02   0.6250000008E+01  -0.6599103353E-13  -0.6561878856E-13   0.2501960374E-15   0.2072217985E-15  -0.7488866608E-16   0.1250000002E-01  -0.6237500008E-02  -0.6237500008E-02   0.7179013586E-17  -0.5517209323E-17  -0.2615252688E-17   0.6250000008E+01
     1     2     3     4     5     6     7     8
     2     9    10     3     6    11    12     7
 VARIABLES = X,Y,Z,DU1,DU2,DU3,U1,U2,U3,S11,S22,S33,S12,S13,S23,E11,E22,E33,E12,E13,E23,SMISES
 ZONE, T="0.5500D+00" F=FEPOINT, I=   12 J=    2 ET=BRICK
   0.0000000000E+00   0.0000000000E+00   0.0000000000E+00   0.0000000000E+00   0.0000000000E+00   0.0000000000E+00   0.0000000000E+00   0.0000000000E+00   0.0000000000E+00   0.6875000011E+01   0.8643719638E-14   0.8467756341E-14   0.2502690486E-16  -0.1249387061E-15   0.1131413319E-15   0.1375000002E-01  -0.6861250011E-02  -0.6861250011E-02  -0.1198850606E-17  -0.9230314908E-18  -0.2030060674E-17   0.6875000011E+01
   0.1013750000E+01   0.0000000000E+00  -0.1258640634E-17   0.1250000000E-02   0.0000000000E+00  -0.1133972066E-17   0.1250000000E-01   0.0000000000E+00  -0.1246685682E-18   0.6875000011E+01   0.2040533105E-13   0.2075725764E-13  -0.1445222917E-15  -0.1782448619E-15   0.1284756559E-15   0.1375000002E-01  -0.6861250011E-02  -0.6861250011E-02   0.4783440204E-17  -0.2031501598E-17   0.2240809612E-17   0.6875000011E+01
   0.1013750000E+01   0.9931387500E+00  -0.2270152706E-18   0.1250000000E-02  -0.6237500000E-03   0.1771875591E-18   0.1250000000E-01  -0.6237500000E-02  -0.4042028297E-18   0.6875000010E+01  -0.2784099130E-14  -0.2662188230E-14  -0.1631973180E-15   0.1371662514E-15   0.5300772194E-16   0.1375000002E-01  -0.6861250010E-02  -0.6861250010E-02   0.4503067291E-17  -0.3655365937E-17  -0.1821311766E-17   0.6875000010E+01
   0.0000000000E+00   0.9931387500E+00   0.2712396108E-18   0.0000000000E+00  -0.6237500000E-03   0.8077707240E-18   0.0000000000E+00  -0.6237500000E-02  -0.5365311132E-18   0.6875000010E+01  -0.3195809906E-14  -0.3500587195E-14   0.1572651686E-15   0.4936223775E-16  -0.9168655048E-16   0.1375000002E-01  -0.6861250010E-02  -0.6861250010E-02  -0.1292522398E-17   0.2029269113E-17  -0.1233946419E-17   0.6875000010E+01
   0.0000000000E+00   0.0000000000E+00   0.9931387500E+00   0.0000000000E+00   0.0000000000E+00  -0.6237500000E-03   0.0000000000E+00   0.0000000000E+00  -0.6237500000E-02   0.6875000010E+01  -0.4591183685E-13  -0.4623547380E-13  -0.5525545524E-16  -0.1154524833E-15  -0.2304700205E-16   0.1375000002E-01  -0.6861250010E-02  -0.6861250010E-02  -0.4224958111E-19  -0.6755666281E-18   0.8308569871E-17   0.6875000010E+01
   0.1013750000E+01   0.0000000000E+00   0.9931387500E+00   0.1250000000E-02   0.0000000000E+00  -0.6237500000E-03   0.1250000000E-01   0.0000000000E+00  -0.6237500000E-02   0.6875000010E+01  -0.2122703347E-13  -0.2057975945E-13   0.1564983821E-15  -0.6654751820E-16   0.2448501820E-15   0.1375000002E-01  -0.6861250010E-02  -0.6861250010E-02   0.2890577494E-17  -0.4236890185E-18   0.7530592706E-17   0.6875000010E+01
   0.1013750000E+01   0.9931387500E+00   0.9931387500E+00   0.1250000000E-02  -0.6237500000E-03  -0.6237500000E-03   0.1250000000E-01  -0.6237500000E-02  -0.6237500000E-02   0.6875000009E+01   0.3867176077E-13   0.3769141992E-13   0.3970086852E-17  -0.1839864848E-16  -0.2593760735E-15   0.1375000002E-01  -0.6861250009E-02  -0.6861250009E-02   0.7527574981E-18  -0.5309175649E-17  -0.1611450413E-17   0.6875000009E+01
   0.0000000000E+00   0.9931387500E+00   0.9931387500E+00   0.0000000000E+00  -0.6237500000E-03  -0.6237500000E-03   0.0000000000E+00  -0.6237500000E-02  -0.6237500000E-02   0.6875000009E+01  -0.1693871907E-13  -0.1553859305E-13   0.4610015487E-16   0.6970521434E-16   0.1379281578E-15   0.1375000002E-01  -0.6861250009E-02  -0.6861250009E-02  -0.1706355372E-17   0.6432070748E-17  -0.7012682236E-18   0.6875000009E+01
   0.2027500000E+01   0.0000000000E+00  -0.3826392393E-17   0.2500000000E-02   0.0000000000E+00  -0.4378798579E-17   0.2500000000E-01   0.0000000000E+00   0.5524061861E-18   0.6875000010E+01  -0.5667735588E-13  -0.5653911199E-13  -0.3281033149E-15  -0.3127278776E-15  -0.1012963137E-15   0.1375000002E-01  -0.6861250010E-02  -0.6861250010E-02  -0.8312381917E-17   0.1295824396E-16   0.2721564697E-17   0.6875000010E+01
   0.2027500000E+01   0.9931387500E+00  -0.4073283436E-17   0.2500000000E-02  -0.6237500000E-03  -0.4019298804E-17   0.2500000000E-01  -0.6237500000E-02  -0.5398463176E-19   0.6875000010E+01  -0.3695070214E-13  -0.3727433911E-13  -0.3969728618E-15   0.2457478847E-15  -0.2132959658E-15   0.1375000002E-01  -0.6861250010E-02  -0.6861250010E-02  -0.5590364258E-17  -0.1650147771E-17  -0.8064490407E-17   0.6875000010E+01
   0.2027500000E+01   0.0000000000E+00   0.9931387500E+00   0.2500000000E-02   0.0000000000E+00  -0.6237500000E-03   0.2500000000E-01   0.0000000000E+00  -0.6237500000E-02   0.6875000010E+01  -0.5807462665E-14  -0.6393781181E-14   0.3846216468E-15  -0.1164292102E-15   0.4764220006E-16   0.1375000002E-01  -0.6861250010E-02  -0.6861250010E-02  -0.5024077314E-17   0.1247826601E-16  -0.7995520384E-18   0.6875000010E+01
   0.2027500000E+01   0.9931387500E+00   0.9931387500E+00   0.2500000000E-02  -0.6237500000E-03  -0.6237500000E-03   0.2500000000E-01  -0.6237500000E-02  -0.6237500000E-02   0.6875000009E+01   0.1346678831E-12   0.1358945726E-12   0.3724414898E-15   0.7098969926E-15  -0.1660219688E-15   0.1375000002E-01  -0.6861250009E-02  -0.6861250009E-02  -0.3953572957E-17  -0.1013192743E-17   0.2179908434E-17   0.6875000009E+01
     1     2     3     4     5     6     7     8
     2     9    10     3     6    11    12     7
 VARIABLES = X,Y,Z,DU1,DU2,DU3,U1,U2,U3,S11,S22,S33,S12,S13,S23,E11,E22,E33,E12,E13,E23,SMISES
 ZONE, T="0.6000D+00" F=FEPOINT, I=   12 J=    2 ET=BRICK
   0.0000000000E+00   0.0000000000E+00   0.0000000000E+00   0.0000000000E+00   0.0000000000E+00   0.0000000000E+00   0.0000000000E+00   0.0000000000E+00   0.0000000000E+00   0.7500000012E+01   0.1209869283E-13   0.1227358815E-13   0.3126487024E-16  -0.8226186069E-16   0.9456393042E-16   0.1500000002E-01  -0.7485000012E-02  -0.7485000012E-02   0.2833579058E-17   0.2525676771E-17  -0.9183682006E-18   0.7500000012E+01
   0.1015000000E+01   0.0000000000E+00  -0.4541943933E-18   0.1250000000E-02   0.0000000000E+00   0.8044462404E-18   0.1375000000E-01   0.0000000000E+00  -0.1258640634E-17   0.7500000012E+01  -0.1939836953E-13  -0.1891364336E-13   0.2434266722E-15   0.2295285214E-16   0.7697281687E-17   0.1500000002E-01  -0.7485000012E-02  -0.7485000012E-02   0.5936098964E-17  -0.4840420921E-17   0.4091211671E-18   0.7500000012E+01
   0.1015000000E+01   0.9925150000E+00  -0.2009172950E-18   0.1250000000E-02  -0.6237500000E-03   0.2609797561E-19   0.1375000000E-01  -0.6861250000E-02  -0.2270152706E-18   0.7500000011E+01  -0.5232064183E-14  -0.4695812498E-14   0.1227091728E-15  -0.9682831732E-17   0.3266607010E-15   0.1500000002E-01  -0.7485000011E-02  -0.7485000011E-02   0.7778055227E-17   0.1935161571E-17   0.1927779747E-17   0.7500000011E+01
   0.0000000000E+00   0.9925150000E+00   0.1131233008E-18   0.0000000000E+00  -0.6237500000E-03  -0.1581163100E-18   0.0000000000E+00  -0.6861250000E-02   0.2712396108E-18   0.7500000011E+01  -0.1542579515E-13  -0.1634119506E-13  -0.3150429725E-16  -0.8101788090E-17   0.1174180856E-15   0.1500000002E-01  -0.7485000011E-02  -0.7485000011E-02  -0.2627631744E-17  -0.3350891930E-17   0.3095267341E-17   0.7500000011E+01
   0.0000000000E+00   0.0000000000E+00   0.9925150000E+00   0.0000000000E+00   0.0000000000E+00  -0.6237500000E-03   0.0000000000E+00   0.0000000000E+00  -0.6861250000E-02   0.7500000011E+01   0.8862458408E-14   0.8209740041E-14  -0.6550779089E-16  -0.8659122704E-16  -0.3663882281E-15   0.1500000002E-01  -0.7485000011E-02  -0.7485000011E-02  -0.1570391472E-17  -0.9105562324E-18   0.7414586473E-18   0.7500000011E+01
   0.1015000000E+01   0.0000000000E+00   0.9925150000E+00   0.1250000000E-02   0.0000000000E+00  -0.6237500000E-03   0.1375000000E-01   0.0000000000E+00  -0.6861250000E-02   0.7500000011E+01   0.4310874166E-13   0.4311963023E-13   0.3074977496E-15   0.9353662100E-16  -0.6746758249E-16   0.1500000002E-01  -0.7485000011E-02  -0.7485000011E-02   0.9152151294E-17   0.5868580974E-17   0.4201746324E-17   0.7500000011E+01
   0.1015000000E+01   0.9925150000E+00   0.9925150000E+00   0.1250000000E-02  -0.6237500000E-03  -0.6237500000E-03   0.1375000000E-01  -0.6861250000E-02  -0.6861250000E-02   0.7500000010E+01  -0.2241717709E-13  -0.2441849589E-13   0.3888049874E-16   0.1500243300E-17  -0.1861794247E-15   0.1500000002E-01  -0.7485000010E-02  -0.7485000010E-02   0.3719527042E-17  -0.8116224935E-17   0.1228758778E-17   0.7500000010E+01
   0.0000000000E+00   0.9925150000E+00   0.9925150000E+00   0.0000000000E+00  -0.6237500000E-03  -0.6237500000E-03   0.0000000000E+00  -0.6861250000E-02  -0.6861250000E-02   0.7500000010E+01   0.2318248189E-13   0.2320280024E-13   0.6833742750E-16  -0.8428829300E-18   0.9305297930E-16   0.1500000002E-01  -0.7485000010E-02  -0.7485000010E-02   0.6958329007E-18   0.2369869706E-17  -0.7975918837E-17   0.7500000010E+01
   0.2030000000E+01   0.0000000000E+00  -0.8053535408E-18   0.2500000000E-02   0.0000000000E+00   0.3021038852E-17   0.2750000000E-01   0.0000000000E+00  -0.3826392393E-17   0.7500000011E+01  -0.2655023871E-13  -0.2649725428E-13   0.2671051679E-15  -0.3797294409E-15  -0.1127062899E-15   0.1500000002E-01  -0.7485000011E-02  -0.7485000011E-02   0.5819113043E-17   0.1134195056E-16  -0.5703486949E-18   0.7500000011E+01
   0.2030000000E+01   0.9925150000E+00  -0.9821553544E-18   0.2500000000E-02  -0.6237500000E-03   0.3091128082E-17   0.2750000000E-01  -0.6861250000E-02  -0.4073283436E-17   0.7500000010E+01   0.5510758479E-13   0.5489098458E-13   0.1750952036E-15  -0.1013690711E-15   0.1694553415E-15   0.1500000002E-01  -0.7485000010E-02  -0.7485000010E-02   0.4946370066E-17  -0.5973688480E-17   0.8338330067E-18   0.7500000010E+01
   0.2030000000E+01   0.0000000000E+00   0.9925150000E+00   0.2500000000E-02   0.0000000000E+00  -0.6237500000E-03   0.2750000000E-01   0.0000000000E+00  -0.6861250000E-02   0.7500000010E+01   0.4490036214E-13   0.4470262160E-13   0.3706501663E-15   0.1861540018E-16  -0.1845860099E-15   0.1500000002E-01  -0.7485000010E-02  -0.7485000010E-02  -0.5478635552E-17   0.7990905469E-17  -0.1805316820E-17   0.7500000010E+01
   0.2030000000E+01   0.9925150000E+00   0.9925150000E+00   0.2500000000E-02  -0.6237500000E-03  -0.6237500000E-03   0.2750000000E-01  -0.6861250000E-02  -0.6861250000E-02   0.7500000010E+01  -0.7697832870E-13  -0.7641378750E-13   0.2265191636E-15   0.3015980879E-15  -0.1044829857E-15   0.1500000002E-01  -0.7485000010E-02  -0.7485000010E-02  -0.6234102744E-17   0.8341057140E-17  -0.2146250868E-17   0.7500000010E+01
     1     2     3     4     5     6     7     8
     2     9    10     3     6    11    12     7
 VARIABLES = X,Y,Z,DU1,DU2,DU3,U1,U2,U3,S11,S22,S33,S12,S13,S23,E11,E22,E33,E12,E13,E23,SMISES
 ZONE, T="0.6500D+00" F=FEPOINT, I=   12 J=    2 ET=BRICK
   0.0000000000E+00   0.0000000000E+00   0.0000000000E+00   0.0000000000E+00   0.0000000000E+00   0.0000000000E+00   0.0000000000E+00   0.0000000000E+00   0.0000000000E+00   0.8125000013E+01  -0.5621335636E-13  -0.5612517933E-13   0.3804848082E-16  -0.1838000627E-15   0.1015634734E-15   0.1625000003E-01  -0.8108750013E-02  -0.8108750013E-02  -0.9774583894E-18  -0.2804997265E-17  -0.1948458296E-17   0.8125000013E+01
   0.1016250000E+01   0.0000000000E+00  -0.1396564992E-17   0.1250000000E-02   0.0000000000E+00  -0.9423705982E-18   0.1500000000E-01   0.0000000000E+00  -0.4541943933E-18   0.8125000013E+01  -0.4917855987E-14  -0.4606566368E-14   0.1675935810E-15   0.2035757185E-15   0.9931736872E-16   0.1625000003E-01  -0.8108750012E-02  -0.8108750012E-02   0.1245811679E-16   0.1211729871E-17  -0.2636412736E-18   0.8125000013E+01
   0.1016250000E+01   0.9918912500E+00  -0.5580233467E-18   0.1250000000E-02  -0.6237500000E-03  -0.3571060517E-18   0.1500000000E-01  -0.7485000000E-02  -0.2009172950E-18   0.8125000012E+01   0.1085043688E-13   0.1126477763E-13   0.7126579952E-16  -0.9429905592E-16   0.5476383017E-16   0.1625000002E-01  -0.8108750012E-02  -0.8108750012E-02   0.1153267229E-16  -0.2824893679E-17  -0.9031859498E-18   0.8125000012E+01
   0.0000000000E+00   0.9918912500E+00   0.1455269776E-18   0.0000000000E+00  -0.6237500000E-03   0.3240367684E-19   0.0000000000E+00  -0.7485000000E-02   0.1131233008E-18   0.8125000012E+01   0.5644707135E-13   0.5508612352E-13  -0.2307587974E-16   0.4312555605E-16  -0.2037977800E-15   0.1625000002E-01  -0.8108750012E-02  -0.8108750012E-02  -0.3242318005E-17   0.4437214634E-18  -0.8362790036E-18   0.8125000012E+01
   0.0000000000E+00   0.0000000000E+00   0.9918912500E+00   0.0000000000E+00   0.0000000000E+00  -0.6237500000E-03   0.0000000000E+00   0.0000000000E+00  -0.7485000000E-02   0.8125000012E+01   0.2542438809E-13   0.2509530683E-13  -0.9091152501E-16  -0.1498761784E-15  -0.8668087133E-16   0.1625000002E-01  -0.8108750012E-02  -0.8108750012E-02  -0.1105983227E-17  -0.5574660477E-19   0.6505845275E-17   0.8125000012E+01
   0.1016250000E+01   0.0000000000E+00   0.9918912500E+00   0.1250000000E-02   0.0000000000E+00  -0.6237500000E-03   0.1500000000E-01   0.0000000000E+00  -0.7485000000E-02   0.8125000012E+01   0.9935272689E-16   0.7575153808E-15   0.2611192788E-16   0.1845419584E-15   0.2698607331E-15   0.1625000002E-01  -0.8108750012E-02  -0.8108750012E-02   0.4388328863E-17   0.2168178231E-17   0.7339896039E-17   0.8125000012E+01
   0.1016250000E+01   0.9918912500E+00   0.9918912500E+00   0.1250000000E-02  -0.6237500000E-03  -0.6237500000E-03   0.1500000000E-01  -0.7485000000E-02  -0.7485000000E-02   0.8125000011E+01   0.1719991303E-13   0.1565357210E-13  -0.2585813361E-15  -0.1229150748E-15  -0.2182523099E-15   0.1625000002E-01  -0.8108750011E-02  -0.8108750011E-02   0.2725173152E-17  -0.4728989100E-17   0.7572574655E-18   0.8125000011E+01
   0.0000000000E+00   0.9918912500E+00   0.9918912500E+00   0.0000000000E+00  -0.6237500000E-03  -0.6237500000E-03   0.0000000000E+00  -0.7485000000E-02  -0.7485000000E-02   0.8125000011E+01  -0.2245340745E-13  -0.2077028145E-13   0.6902864447E-16  -0.2809848690E-16   0.8950723406E-17   0.1625000002E-01  -0.8108750011E-02  -0.8108750011E-02   0.1912699800E-17   0.8745446755E-18   0.3875823195E-18   0.8125000011E+01
   0.2032500000E+01   0.0000000000E+00  -0.4498971855E-17   0.2500000000E-02   0.0000000000E+00  -0.3693618314E-17   0.3000000000E-01   0.0000000000E+00  -0.8053535408E-18   0.8125000012E+01   0.4446208133E-13   0.4435796218E-13  -0.1602687308E-15  -0.5266930654E-15   0.3711395993E-16   0.1625000002E-01  -0.8108750012E-02  -0.8108750012E-02  -0.3852342576E-17  -0.1881545989E-17   0.3897143830E-17   0.8125000012E+01
   0.2032500000E+01   0.9918912500E+00  -0.3810105736E-17   0.2500000000E-02  -0.6237500000E-03  -0.2827950382E-17   0.3000000000E-01  -0.7485000000E-02  -0.9821553544E-18   0.8125000011E+01  -0.3932629549E-13  -0.3972576209E-13  -0.2245179040E-15   0.2926904059E-15   0.5108173250E-16   0.1625000002E-01  -0.8108750011E-02  -0.8108750011E-02  -0.1018710971E-16   0.1258962733E-16   0.1044466089E-17   0.8125000011E+01
   0.2032500000E+01   0.0000000000E+00   0.9918912500E+00   0.2500000000E-02   0.0000000000E+00  -0.6237500000E-03   0.3000000000E-01   0.0000000000E+00  -0.7485000000E-02   0.8125000011E+01  -0.4492699344E-14  -0.4104121260E-14   0.2775009215E-15  -0.4395486086E-16  -0.3350383834E-16   0.1625000002E-01  -0.8108750011E-02  -0.8108750011E-02  -0.8316222403E-17  -0.1075360596E-17  -0.2226348399E-17   0.8125000011E+01
   0.2032500000E+01   0.9918912500E+00   0.9918912500E+00   0.2500000000E-02  -0.6237500000E-03  -0.6237500000E-03   0.3000000000E-01  -0.7485000000E-02  -0.7485000000E-02   0.8125000010E+01   0.7492168193E-13   0.7616868987E-13   0.2437038056E-15   0.4502973092E-15  -0.1742452268E-15   0.1625000002E-01  -0.8108750010E-02  -0.8108750010E-02  -0.5635654857E-17   0.6260840607E-17   0.3222688835E-17   0.8125000010E+01
     1     2     3     4     5     6     7     8
     2     9    10     3     6    11    12     7
 VARIABLES = X,Y,Z,DU1,DU2,DU3,U1,U2,U3,S11,S22,S33,S12,S13,S23,E11,E22,E33,E12,E13,E23,SMISES
 ZONE, T="0.7000D+00" F=FEPOINT, I=   12 J=    2 ET=BRICK
   0.0000000000E+00   0.0000000000E+00   0.0000000000E+00   0.0000000000E+00   0.0000000000E+00   0.0000000000E+00   0.0000000000E+00   0.0000000000E+00   0.0000000000E+00   0.8750000014E+01  -0.3881281615E-13  -0.3795545410E-13   0.3256210453E-16  -0.1558987844E-16  -0.6267316062E-16   0.1750000003E-01  -0.8732500014E-02  -0.8732500014E-02   0.4664472976E-18  -0.2591181610E-17  -0.1625470845E-17   0.8750000014E+01
   0.1017500000E+01   0.0000000000E+00   0.5691877728E-18   0.1250000000E-02   0.0000000000E+00   0.1965752764E-17   0.1625000000E-01   0.0000000000E+00  -0.1396564992E-17   0.8750000013E+01   0.1837531078E-15   0.1264227745E-14   0.2599243446E-15   0.8771951544E-16  -0.1068371335E-15   0.1750000003E-01  -0.8732500013E-02  -0.8732500013E-02   0.4704227600E-17   0.7394278144E-17  -0.3497549812E-17   0.8750000013E+01
   0.1017500000E+01   0.9912675000E+00   0.1820770229E-18   0.1250000000E-02  -0.6237500000E-03   0.7401003696E-18   0.1625000000E-01  -0.8108750000E-02  -0.5580233467E-18   0.8750000012E+01   0.2133904830E-13   0.2175338904E-13   0.1884961884E-15  -0.3682841157E-16   0.4871272792E-15   0.1750000002E-01  -0.8732500012E-02  -0.8732500012E-02   0.8761386184E-17  -0.1041342613E-16   0.7567715531E-17   0.8750000012E+01
   0.0000000000E+00   0.9912675000E+00  -0.8807077991E-18   0.0000000000E+00  -0.6237500000E-03  -0.1026234777E-17   0.0000000000E+00  -0.8108750000E-02   0.1455269776E-18   0.8750000013E+01   0.1777416825E-13   0.1641322042E-13   0.1736098826E-16   0.1599159506E-15   0.3280003086E-15   0.1750000003E-01  -0.8732500013E-02  -0.8732500013E-02   0.8200181190E-18   0.6086122754E-17   0.3675604994E-18   0.8750000013E+01
   0.0000000000E+00   0.0000000000E+00   0.9912675000E+00   0.0000000000E+00   0.0000000000E+00  -0.6237500000E-03   0.0000000000E+00   0.0000000000E+00  -0.8108750000E-02   0.8750000013E+01   0.1296946882E-13   0.1264038756E-13  -0.8344846088E-16   0.1624591083E-16  -0.5702178211E-15   0.1750000003E-01  -0.8732500013E-02  -0.8732500013E-02   0.9607004072E-18   0.3326628940E-17   0.1030426269E-17   0.8750000013E+01
   0.1017500000E+01   0.0000000000E+00   0.9912675000E+00   0.1250000000E-02   0.0000000000E+00  -0.6237500000E-03   0.1625000000E-01   0.0000000000E+00  -0.8108750000E-02   0.8750000012E+01  -0.2313561925E-13  -0.2247745660E-13   0.2812661637E-15  -0.3069517504E-16  -0.1042460614E-15   0.1750000002E-01  -0.8732500012E-02  -0.8732500012E-02   0.3279971740E-17  -0.3536997497E-17   0.8178834162E-17   0.8750000012E+01
   0.1017500000E+01   0.9912675000E+00   0.9912675000E+00   0.1250000000E-02  -0.6237500000E-03  -0.6237500000E-03   0.1625000000E-01  -0.8108750000E-02  -0.8108750000E-02   0.8750000011E+01   0.5057207217E-15  -0.1809805221E-14   0.1038963024E-16   0.9204450544E-17  -0.4446424544E-16   0.1750000002E-01  -0.8732500011E-02  -0.8732500011E-02   0.6311875188E-17  -0.2418278749E-17   0.2088481974E-17   0.8750000011E+01
   0.0000000000E+00   0.9912675000E+00   0.9912675000E+00   0.0000000000E+00  -0.6237500000E-03  -0.6237500000E-03   0.0000000000E+00  -0.8108750000E-02  -0.8108750000E-02   0.8750000012E+01  -0.1120030205E-13  -0.1028636106E-13   0.7774633255E-16   0.1791723283E-15   0.2484910019E-15   0.1750000002E-01  -0.8732500012E-02  -0.8732500012E-02  -0.1998838760E-17   0.3201390812E-17   0.1108112202E-16   0.8750000012E+01
   0.2035000000E+01   0.0000000000E+00   0.3350671727E-17   0.2500000000E-02   0.0000000000E+00   0.7849643582E-17   0.3250000000E-01   0.0000000000E+00  -0.4498971855E-17   0.8750000013E+01   0.5290040307E-13   0.5356546894E-13   0.2093384991E-15  -0.5684603800E-15  -0.1931049902E-15   0.1750000003E-01  -0.8732500013E-02  -0.8732500013E-02  -0.4750331342E-17  -0.6508062843E-17  -0.2544304991E-17   0.8750000013E+01
   0.2035000000E+01   0.9912675000E+00   0.2680774665E-17   0.2500000000E-02  -0.6237500000E-03   0.6490880402E-17   0.3250000000E-01  -0.8108750000E-02  -0.3810105736E-17   0.8750000012E+01  -0.1635593581E-13  -0.1675540240E-13   0.2533258760E-15   0.2303823889E-15   0.2793702171E-15   0.1750000002E-01  -0.8732500012E-02  -0.8732500012E-02  -0.1261647960E-16  -0.1549574819E-16   0.8042422730E-17   0.8750000012E+01
   0.2035000000E+01   0.0000000000E+00   0.9912675000E+00   0.2500000000E-02   0.0000000000E+00  -0.6237500000E-03   0.3250000000E-01   0.0000000000E+00  -0.8108750000E-02   0.8750000012E+01  -0.4720987421E-13  -0.4682129612E-13   0.6733176238E-15  -0.2016557792E-15  -0.4842166870E-15   0.1750000002E-01  -0.8732500012E-02  -0.8732500012E-02  -0.5728187717E-19  -0.6301760697E-17  -0.1732049213E-17   0.8750000012E+01
   0.2035000000E+01   0.9912675000E+00   0.9912675000E+00   0.2500000000E-02  -0.6237500000E-03  -0.6237500000E-03   0.3250000000E-01  -0.8108750000E-02  -0.8108750000E-02   0.8750000011E+01  -0.3535247766E-13  -0.3487465474E-13   0.5090042867E-15   0.2016324818E-15  -0.1105418291E-15   0.1750000002E-01  -0.8732500011E-02  -0.8732500011E-02  -0.1590519783E-17   0.7634071849E-17  -0.1402253576E-17   0.8750000011E+01
     1     2     3     4     5     6     7     8
     2     9    10     3     6    11    12     7
 VARIABLES = X,Y,Z,DU1,DU2,DU3,U1,U2,U3,S11,S22,S33,S12,S13,S23,E11,E22,E33,E12,E13,E23,SMISES
 ZONE, T="0.7500D+00" F=FEPOINT, I=   12 J=    2 ET=BRICK
   0.0000000000E+00   0.0000000000E+00   0.0000000000E+00   0.0000000000E+00   0.0000000000E+00   0.0000000000E+00   0.0000000000E+00   0.0000000000E+00   0.0000000000E+00   0.9375000015E+01   0.4302340657E-13   0.4403242789E-13   0.3626905567E-16   0.7827007269E-16  -0.2818351658E-15   0.1875000003E-01  -0.9356250015E-02  -0.9356250015E-02  -0.1108917065E-18  -0.3239016119E-17  -0.3135968349E-17   0.9375000015E+01
   0.1018750000E+01   0.0000000000E+00   0.1561718828E-17   0.1250000000E-02   0.0000000000E+00   0.9925310555E-18   0.1750000000E-01   0.0000000000E+00   0.5691877728E-18   0.9375000014E+01   0.1014444596E-13   0.1092160204E-13  -0.3695314931E-16  -0.1329495173E-16  -0.3173856778E-15   0.1875000003E-01  -0.9356250014E-02  -0.9356250014E-02   0.2827183628E-17   0.8388485015E-17  -0.5581858381E-17   0.9375000014E+01
   0.1018750000E+01   0.9906437500E+00  -0.5744756190E-19   0.1250000000E-02  -0.6237500000E-03  -0.2395245848E-18   0.1750000000E-01  -0.8732500000E-02   0.1820770229E-18   0.9375000013E+01  -0.3548399895E-13  -0.3460379174E-13  -0.6448934066E-16  -0.5823820470E-16   0.5665201171E-15   0.1875000003E-01  -0.9356250013E-02  -0.9356250013E-02   0.9233908766E-17  -0.6720813010E-17   0.6817228125E-17   0.9375000013E+01
   0.0000000000E+00   0.9906437500E+00  -0.2151603845E-17   0.0000000000E+00  -0.6237500000E-03  -0.1270896046E-17   0.0000000000E+00  -0.8732500000E-02  -0.8807077991E-18   0.9375000014E+01  -0.2773322242E-13  -0.2817332595E-13   0.3096627190E-16   0.2893044595E-15   0.4612390751E-15   0.1875000003E-01  -0.9356250014E-02  -0.9356250014E-02   0.4590629675E-17   0.3108421943E-17   0.5208691429E-17   0.9375000014E+01
   0.0000000000E+00   0.0000000000E+00   0.9906437500E+00   0.0000000000E+00   0.0000000000E+00  -0.6237500000E-03   0.0000000000E+00   0.0000000000E+00  -0.8732500000E-02   0.9375000014E+01   0.4695812877E-14   0.3556909625E-14  -0.8572350193E-16   0.1484142936E-15  -0.6034623204E-15   0.1875000003E-01  -0.9356250014E-02  -0.9356250014E-02  -0.6247628380E-19   0.2205848258E-17  -0.3753331300E-17   0.9375000014E+01
   0.1018750000E+01   0.0000000000E+00   0.9906437500E+00   0.1250000000E-02   0.0000000000E+00  -0.6237500000E-03   0.1750000000E-01   0.0000000000E+00  -0.8732500000E-02   0.9375000013E+01  -0.1117202148E-14  -0.1146950560E-14   0.9975231244E-16  -0.2118535871E-15  -0.2017091422E-15   0.1875000003E-01  -0.9356250013E-02  -0.9356250013E-02  -0.1264910453E-17   0.7037816253E-17   0.3041090639E-17   0.9375000013E+01
   0.1018750000E+01   0.9906437500E+00   0.9906437500E+00   0.1250000000E-02  -0.6237500000E-03  -0.6237500000E-03   0.1750000000E-01  -0.8732500000E-02  -0.8732500000E-02   0.9375000012E+01  -0.1646047627E-13  -0.1869472826E-13  -0.1396380433E-15   0.3858117765E-16   0.1313918280E-15   0.1875000002E-01  -0.9356250012E-02  -0.9356250012E-02  -0.8423766877E-17   0.2669573227E-17   0.6946526324E-17   0.9375000012E+01
   0.0000000000E+00   0.9906437500E+00   0.9906437500E+00   0.0000000000E+00  -0.6237500000E-03  -0.6237500000E-03   0.0000000000E+00  -0.8732500000E-02  -0.8732500000E-02   0.9375000013E+01  -0.4204961505E-18   0.8728835152E-15   0.4423113822E-16   0.1980359094E-15   0.4625025072E-15   0.1875000003E-01  -0.9356250013E-02  -0.9356250013E-02   0.4116832029E-17   0.7654727097E-17   0.1624848358E-16   0.9375000013E+01
   0.2037500000E+01   0.0000000000E+00   0.6576497658E-17   0.2500000000E-02   0.0000000000E+00   0.3225825931E-17   0.3500000000E-01   0.0000000000E+00   0.3350671727E-17   0.9375000014E+01  -0.3363918278E-13  -0.3373241330E-13  -0.6026746277E-16  -0.5976644172E-15  -0.3787842293E-15   0.1875000003E-01  -0.9356250014E-02  -0.9356250014E-02  -0.1733017290E-16  -0.9840673082E-17  -0.1636514735E-17   0.9375000014E+01
   0.2037500000E+01   0.9906437500E+00   0.4757807258E-17   0.2500000000E-02  -0.6237500000E-03   0.2077032592E-17   0.3500000000E-01  -0.8732500000E-02   0.2680774665E-17   0.9375000013E+01  -0.5218886905E-13  -0.5257744701E-13   0.3050896572E-16   0.2500639588E-15   0.3806113573E-15   0.1875000003E-01  -0.9356250013E-02  -0.9356250013E-02  -0.2376327695E-16   0.2901845644E-16   0.2078413493E-17   0.9375000013E+01
   0.2037500000E+01   0.0000000000E+00   0.9906437500E+00   0.2500000000E-02   0.0000000000E+00  -0.6237500000E-03   0.3500000000E-01   0.0000000000E+00  -0.8732500000E-02   0.9375000013E+01   0.3740638653E-13   0.3722896448E-13   0.1936041177E-15  -0.6818869574E-16  -0.5340421490E-15   0.1875000003E-01  -0.9356250013E-02  -0.9356250013E-02  -0.9614627852E-17  -0.2745472886E-16  -0.7149909245E-17   0.9375000013E+01
   0.2037500000E+01   0.9906437500E+00   0.9906437500E+00   0.2500000000E-02  -0.6237500000E-03  -0.6237500000E-03   0.3500000000E-01  -0.8732500000E-02  -0.8732500000E-02   0.9375000012E+01   0.4136427377E-14   0.4817435180E-14   0.1834049195E-15   0.2162262857E-15   0.1632222871E-15   0.1875000002E-01  -0.9356250012E-02  -0.9356250012E-02  -0.7305349448E-17  -0.1029846429E-16   0.6652101839E-17   0.9375000012E+01
     1     2     3     4     5     6     7     8
     2     9    10     3     6    11    12     7
 VARIABLES = X,Y,Z,DU1,DU2,DU3,U1,U2,U3,S11,S22,S33,S12,S13,S23,E11,E22,E33,E12,E13,E23,SMISES
 ZONE, T="0.8000D+00" F=FEPOINT, I=   12 J=    2 ET=BRICK
   0.0000000000E+00   0.0000000000E+00   0.0000000000E+00   0.0000000000E+00   0.0000000000E+00   0.0000000000E+00   0.0000000000E+00   0.0000000000E+00   0.0000000000E+00   0.1000000002E+02   0.4101447672E-13   0.4280901601E-13   0.2956325943E-16   0.3434253154E-15  -0.4672747228E-15   0.2000000003E-01  -0.9980000016E-02  -0.9980000016E-02  -0.2378271249E-17   0.6446696991E-17  -0.3721102787E-17   0.1000000002E+02
   0.1020000000E+01   0.0000000000E+00   0.4024088041E-17   0.1250000000E-02   0.0000000000E+00   0.2462369213E-17   0.1875000000E-01   0.0000000000E+00   0.1561718828E-17   0.1000000002E+02  -0.1057686366E-13  -0.8575544763E-14   0.3988493241E-15   0.3209871030E-16  -0.6107557870E-15   0.2000000003E-01  -0.9980000015E-02  -0.9980000015E-02   0.8173699876E-17  -0.8587302134E-17  -0.8789846188E-17   0.1000000002E+02
   0.1020000000E+01   0.9900200000E+00   0.6446330262E-18   0.1250000000E-02  -0.6237500000E-03   0.7020805881E-18   0.1875000000E-01  -0.9356250000E-02  -0.5744756190E-19   0.1000000001E+02   0.2900385994E-13   0.3000597814E-13   0.2442993969E-15  -0.2134844411E-15   0.1001520210E-14   0.2000000003E-01  -0.9980000014E-02  -0.9980000014E-02   0.1546695905E-17   0.8888045816E-17   0.1190987268E-16   0.1000000001E+02
   0.0000000000E+00   0.9900200000E+00  -0.3275437936E-17   0.0000000000E+00  -0.6237500000E-03  -0.1123834090E-17   0.0000000000E+00  -0.9356250000E-02  -0.2151603845E-17   0.1000000001E+02  -0.3597413899E-13  -0.3623137616E-13  -0.4462715800E-16   0.4319664287E-15   0.9010724300E-15   0.2000000003E-01  -0.9980000015E-02  -0.9980000015E-02   0.5958771126E-17   0.2458888437E-17   0.1110709688E-16   0.1000000001E+02
   0.0000000000E+00   0.0000000000E+00   0.9900200000E+00   0.0000000000E+00   0.0000000000E+00  -0.6237500000E-03   0.0000000000E+00   0.0000000000E+00  -0.9356250000E-02   0.1000000001E+02  -0.2932426186E-13  -0.3111986907E-13  -0.1017875934E-15   0.3583308130E-15  -0.1132937814E-14   0.2000000003E-01  -0.9980000015E-02  -0.9980000015E-02  -0.1204804854E-17   0.1108501344E-16  -0.1363620225E-16   0.1000000001E+02
   0.1020000000E+01   0.0000000000E+00   0.9900200000E+00   0.1250000000E-02   0.0000000000E+00  -0.6237500000E-03   0.1875000000E-01   0.0000000000E+00  -0.9356250000E-02   0.1000000001E+02   0.1748900498E-13   0.1695275314E-13   0.3801144951E-15  -0.1515728108E-15  -0.6570952154E-15   0.2000000003E-01  -0.9980000014E-02  -0.9980000014E-02   0.4264706051E-17  -0.8241448913E-20  -0.1883928113E-17   0.1000000001E+02
   0.1020000000E+01   0.9900200000E+00   0.9900200000E+00   0.1250000000E-02  -0.6237500000E-03  -0.6237500000E-03   0.1875000000E-01  -0.9356250000E-02  -0.9356250000E-02   0.1000000001E+02   0.8572630796E-14   0.5639579079E-14  -0.1650421625E-16   0.2584100758E-16   0.4345521387E-15   0.2000000003E-01  -0.9980000013E-02  -0.9980000013E-02   0.1904759174E-17   0.5888193163E-18   0.5532578332E-17   0.1000000001E+02
   0.0000000000E+00   0.9900200000E+00   0.9900200000E+00   0.0000000000E+00  -0.6237500000E-03  -0.6237500000E-03   0.0000000000E+00  -0.9356250000E-02  -0.9356250000E-02   0.1000000001E+02  -0.1672563936E-16  -0.8577549493E-15   0.1320233558E-15   0.4025928900E-15   0.6523672970E-15   0.2000000003E-01  -0.9980000013E-02  -0.9980000013E-02   0.9604889491E-18   0.5139994210E-17   0.1638682878E-16   0.1000000001E+02
   0.2040000000E+01   0.0000000000E+00   0.1481785687E-16   0.2500000000E-02   0.0000000000E+00   0.8241359216E-17   0.3750000000E-01   0.0000000000E+00   0.6576497658E-17   0.1000000002E+02  -0.1463899438E-13  -0.1345400966E-13   0.5867146254E-15  -0.9622584859E-15  -0.6787543005E-15   0.2000000003E-01  -0.9980000015E-02  -0.9980000015E-02  -0.4446954679E-17  -0.4745323424E-17  -0.1113579549E-16   0.1000000002E+02
   0.2040000000E+01   0.9900200000E+00   0.1120871500E-16   0.2500000000E-02  -0.6237500000E-03   0.6450907745E-17   0.3750000000E-01  -0.9356250000E-02   0.4757807258E-17   0.1000000001E+02   0.1471014652E-12   0.1482091615E-12   0.5019274365E-15  -0.2555173895E-15   0.7306358366E-15   0.2000000003E-01  -0.9980000014E-02  -0.9980000014E-02  -0.1651344805E-16  -0.2475373066E-17   0.1106805392E-16   0.1000000001E+02
   0.2040000000E+01   0.0000000000E+00   0.9900200000E+00   0.2500000000E-02   0.0000000000E+00  -0.6237500000E-03   0.3750000000E-01   0.0000000000E+00  -0.9356250000E-02   0.1000000001E+02   0.3348902996E-13   0.3305835621E-13   0.5962711684E-15  -0.1016568296E-15  -0.8870084893E-15   0.2000000003E-01  -0.9980000014E-02  -0.9980000014E-02   0.3241881499E-17   0.3575147235E-16  -0.2061781330E-17   0.1000000001E+02
   0.2040000000E+01   0.9900200000E+00   0.9900200000E+00   0.2500000000E-02  -0.6237500000E-03  -0.6237500000E-03   0.3750000000E-01  -0.9356250000E-02  -0.9356250000E-02   0.1000000001E+02  -0.2190618618E-13  -0.2129303693E-13   0.3887161108E-15   0.7412722448E-16   0.4617838061E-15   0.2000000003E-01  -0.9980000013E-02  -0.9980000013E-02  -0.1865057030E-17  -0.3997410458E-16   0.1056845451E-18   0.1000000001E+02
     1     2     3     4     5     6     7     8
     2     9    10     3     6    11    12     7
 VARIABLES = X,Y,Z,DU1,DU2,DU3,U1,U2,U3,S11,S22,S33,S12,S13,S23,E11,E22,E33,E12,E13,E23,SMISES
 ZONE, T="0.8500D+00" F=FEPOINT, I=   12 J=    2 ET=BRICK
   0.0000000000E+00   0.0000000000E+00   0.0000000000E+00   0.0000000000E+00   0.0000000000E+00   0.0000000000E+00   0.0000000000E+00   0.0000000000E+00   0.0000000000E+00   0.1062498878E+02   0.5620791440E-05   0.5620791445E-05   0.1051097430E-15  -0.4788562637E-14  -0.1255910241E-13   0.3423661530E-01  -0.1709705765E-01  -0.1709705765E-01   0.7487191151E-18  -0.9776839222E-16  -0.2484195282E-15   0.1062498315E+02
   0.1034236615E+01   0.0000000000E+00  -0.3481201476E-17   0.1423661525E-01   0.0000000000E+00  -0.7505289517E-17   0.2000000000E-01   0.0000000000E+00   0.4024088041E-17   0.1062498877E+02   0.5620791134E-05   0.5620791146E-05  -0.1695537405E-14  -0.2685803774E-14  -0.7368716693E-14   0.3423661530E-01  -0.1709705765E-01  -0.1709705765E-01  -0.2878306080E-16  -0.3855850557E-16  -0.1406606409E-15   0.1062498315E+02
   0.1034236615E+01   0.9829029424E+00  -0.7464030520E-16   0.1423661525E-01  -0.7117057623E-02  -0.7528493823E-16   0.2000000000E-01  -0.9980000000E-02   0.6446330262E-18   0.1062498877E+02   0.5620791025E-05   0.5620791040E-05  -0.1860673884E-14   0.9136880386E-15   0.3582406914E-14   0.3423661530E-01  -0.1709705765E-01  -0.1709705765E-01  -0.3936165564E-16   0.1681014022E-16   0.6030425905E-16   0.1062498315E+02
   0.0000000000E+00   0.9829029424E+00  -0.1215833521E-15   0.0000000000E+00  -0.7117057623E-02  -0.1183079141E-15   0.0000000000E+00  -0.9980000000E-02  -0.3275437936E-17   0.1062498877E+02   0.5620791144E-05   0.5620791152E-05  -0.2043718648E-14   0.1480884835E-14  -0.1063137272E-14   0.3423661530E-01  -0.1709705765E-01  -0.1709705765E-01  -0.3098429173E-16   0.2559062694E-16  -0.1681680647E-16   0.1062498315E+02
   0.0000000000E+00   0.0000000000E+00   0.9829029424E+00   0.0000000000E+00   0.0000000000E+00  -0.7117057623E-02   0.0000000000E+00   0.0000000000E+00  -0.9980000000E-02   0.1062498877E+02   0.5620791234E-05   0.5620791218E-05  -0.2245981847E-15  -0.2603236252E-14  -0.1108726979E-13   0.3423661530E-01  -0.1709705765E-01  -0.1709705765E-01  -0.2785316849E-17  -0.4621723806E-16  -0.1992322783E-15   0.1062498315E+02
   0.1034236615E+01   0.0000000000E+00   0.9829029424E+00   0.1423661525E-01   0.0000000000E+00  -0.7117057623E-02   0.2000000000E-01   0.0000000000E+00  -0.9980000000E-02   0.1062498877E+02   0.5620791106E-05   0.5620791096E-05  -0.1115297775E-14  -0.2398349973E-14  -0.5457713433E-14   0.3423661530E-01  -0.1709705765E-01  -0.1709705765E-01  -0.2066362112E-16  -0.4835636375E-16  -0.1072135526E-15   0.1062498315E+02
   0.1034236615E+01   0.9829029424E+00   0.9829029424E+00   0.1423661525E-01  -0.7117057623E-02  -0.7117057623E-02   0.2000000000E-01  -0.9980000000E-02  -0.9980000000E-02   0.1062498877E+02   0.5620791161E-05   0.5620791155E-05  -0.2398552753E-14   0.9701587469E-15   0.4813092200E-14   0.3423661529E-01  -0.1709705765E-01  -0.1709705765E-01  -0.3857414232E-16   0.4257686933E-16   0.1066173808E-15   0.1062498315E+02
   0.0000000000E+00   0.9829029424E+00   0.9829029424E+00   0.0000000000E+00  -0.7117057623E-02  -0.7117057623E-02   0.0000000000E+00  -0.9980000000E-02  -0.9980000000E-02   0.1062498877E+02   0.5620791596E-05   0.5620791582E-05  -0.2369970473E-14   0.3638321840E-14   0.6119231455E-15   0.3423661529E-01  -0.1709705765E-01  -0.1709705765E-01  -0.4609806110E-16   0.6916389243E-16   0.1662163308E-16   0.1062498315E+02
   0.2068473230E+01   0.0000000000E+00   0.1587538163E-15   0.2847323049E-01   0.0000000000E+00   0.1439359594E-15   0.4000000000E-01   0.0000000000E+00   0.1481785687E-16   0.1062498877E+02   0.5620791134E-05   0.5620791143E-05  -0.3274266176E-14  -0.6004669813E-15  -0.5222364857E-14   0.3423661530E-01  -0.1709705765E-01  -0.1709705765E-01  -0.6467271261E-16   0.1541663552E-16  -0.1050562547E-15   0.1062498315E+02
   0.2068473230E+01   0.9829029424E+00   0.1080656859E-15   0.2847323049E-01  -0.7117057623E-02   0.9685697090E-16   0.4000000000E-01  -0.9980000000E-02   0.1120871500E-16   0.1062498877E+02   0.5620790993E-05   0.5620791005E-05  -0.1972018969E-14   0.1166953055E-14   0.5157402561E-14   0.3423661529E-01  -0.1709705765E-01  -0.1709705765E-01  -0.4714965463E-16   0.4576807628E-16   0.9913440545E-16   0.1062498315E+02
   0.2068473230E+01   0.0000000000E+00   0.9829029424E+00   0.2847323049E-01   0.0000000000E+00  -0.7117057623E-02   0.4000000000E-01   0.0000000000E+00  -0.9980000000E-02   0.1062498877E+02   0.5620791415E-05   0.5620791403E-05  -0.3609736292E-14  -0.2188657245E-14  -0.3712285924E-14   0.3423661529E-01  -0.1709705765E-01  -0.1709705765E-01  -0.6917757840E-16  -0.3227270286E-16  -0.6508713108E-16   0.1062498315E+02
   0.2068473230E+01   0.9829029424E+00   0.9829029424E+00   0.2847323049E-01  -0.7117057623E-02  -0.7117057623E-02   0.4000000000E-01  -0.9980000000E-02  -0.9980000000E-02   0.1062498877E+02   0.5620790948E-05   0.5620790940E-05  -0.1566308395E-14   0.1090400264E-14   0.6962072051E-14   0.3423661529E-01  -0.1709705765E-01  -0.1709705765E-01  -0.3220392577E-16   0.6201452229E-17   0.1326981391E-15   0.1062498315E+02
     1     2     3     4     5     6     7     8
     2     9    10     3     6    11    12     7
 VARIABLES = X,Y,Z,DU1,DU2,DU3,U1,U2,U3,S11,S22,S33,S12,S13,S23,E11,E22,E33,E12,E13,E23,SMISES
 ZONE, T="0.9000D+00" F=FEPOINT, I=   12 J=    2 ET=BRICK
   0.0000000000E+00   0.0000000000E+00   0.0000000000E+00   0.0000000000E+00   0.0000000000E+00   0.0000000000E+00   0.0000000000E+00   0.0000000000E+00   0.0000000000E+00   0.1124997665E+02   0.1168142529E-04   0.1168142529E-04  -0.1753248149E-18   0.4503994846E-17  -0.7729885927E-15   0.4899966866E-01  -0.2447733433E-01  -0.2447733433E-01   0.1081112691E-17  -0.3828044756E-16  -0.1009098991E-15   0.1124996497E+02
   0.1048999669E+01   0.0000000000E+00   0.1654418194E-17   0.1476305333E-01   0.0000000000E+00   0.5135619670E-17   0.3423661525E-01   0.0000000000E+00  -0.3481201476E-17   0.1124997665E+02   0.1168142480E-04   0.1168142480E-04  -0.4049078780E-15  -0.6672151416E-15  -0.4195670538E-15   0.4899966866E-01  -0.2447733433E-01  -0.2447733433E-01  -0.2068038266E-16  -0.1800074813E-16  -0.5669128284E-16   0.1124996497E+02
   0.1048999669E+01   0.9755226657E+00  -0.2764729590E-16   0.1476305333E-01  -0.7380276667E-02   0.4699300930E-16   0.3423661525E-01  -0.1709705762E-01  -0.7464030520E-16   0.1124997665E+02   0.1168142469E-04   0.1168142469E-04  -0.1616783337E-15  -0.1855787666E-15   0.7545421877E-15   0.4899966865E-01  -0.2447733432E-01  -0.2447733432E-01  -0.2717723662E-16   0.1655585189E-16   0.3501304074E-16   0.1124996497E+02
   0.0000000000E+00   0.9755226657E+00  -0.5199432303E-16   0.0000000000E+00  -0.7380276667E-02   0.6958902903E-16   0.0000000000E+00  -0.1709705762E-01  -0.1215833521E-15   0.1124997665E+02   0.1168142505E-04   0.1168142505E-04   0.8783334317E-16   0.8124506203E-15   0.2401383764E-16   0.4899966865E-01  -0.2447733433E-01  -0.2447733433E-01  -0.8062321357E-17   0.1797020963E-16  -0.2172440688E-16   0.1124996497E+02
   0.0000000000E+00   0.0000000000E+00   0.9755226657E+00   0.0000000000E+00   0.0000000000E+00  -0.7380276667E-02   0.0000000000E+00   0.0000000000E+00  -0.1709705762E-01   0.1124997665E+02   0.1168142481E-04   0.1168142481E-04  -0.1997571106E-15   0.3019115899E-15  -0.8318522225E-15   0.4899966865E-01  -0.2447733433E-01  -0.2447733433E-01  -0.1064345340E-18   0.8367310788E-17  -0.8817978012E-16   0.1124996497E+02
   0.1048999669E+01   0.0000000000E+00   0.9755226657E+00   0.1476305333E-01   0.0000000000E+00  -0.7380276667E-02   0.3423661525E-01   0.0000000000E+00  -0.1709705762E-01   0.1124997665E+02   0.1168142495E-04   0.1168142495E-04   0.6334868452E-16  -0.1411569618E-15  -0.5411179445E-15   0.4899966865E-01  -0.2447733432E-01  -0.2447733432E-01  -0.1522252149E-16  -0.3222530765E-16  -0.5092244382E-16   0.1124996497E+02
   0.1048999669E+01   0.9755226657E+00   0.9755226657E+00   0.1476305333E-01  -0.7380276667E-02  -0.7380276667E-02   0.3423661525E-01  -0.1709705762E-01  -0.1709705762E-01   0.1124997665E+02   0.1168142479E-04   0.1168142479E-04  -0.8512194208E-15  -0.1639973926E-15  -0.1987364357E-15   0.4899966864E-01  -0.2447733432E-01  -0.2447733432E-01  -0.2867482783E-16   0.2547603285E-16   0.4632298642E-16   0.1124996497E+02
   0.0000000000E+00   0.9755226657E+00   0.9755226657E+00   0.0000000000E+00  -0.7380276667E-02  -0.7380276667E-02   0.0000000000E+00  -0.1709705762E-01  -0.1709705762E-01   0.1124997665E+02   0.1168142469E-04   0.1168142469E-04   0.4676684799E-15  -0.2014160047E-16   0.1047835875E-14   0.4899966865E-01  -0.2447733432E-01  -0.2447733432E-01  -0.1188832345E-16   0.1915916601E-16   0.3690634014E-16   0.1124996497E+02
   0.2097999337E+01   0.0000000000E+00   0.7172457783E-16   0.2952610667E-01   0.0000000000E+00  -0.8702923846E-16   0.6847323049E-01   0.0000000000E+00   0.1587538163E-15   0.1124997665E+02   0.1168142444E-04   0.1168142444E-04   0.9936650358E-15   0.2711627620E-16  -0.1423541292E-15   0.4899966865E-01  -0.2447733433E-01  -0.2447733433E-01  -0.2266910253E-16   0.3198914246E-16  -0.4280072492E-16   0.1124996497E+02
   0.2097999337E+01   0.9755226657E+00   0.5221991263E-16   0.2952610667E-01  -0.7380276667E-02  -0.5584577327E-16   0.6847323049E-01  -0.1709705762E-01   0.1080656859E-15   0.1124997665E+02   0.1168142468E-04   0.1168142468E-04   0.8349240608E-15  -0.1085684128E-15   0.6792547019E-15   0.4899966865E-01  -0.2447733432E-01  -0.2447733432E-01  -0.3477681354E-16   0.2762371024E-16   0.6567417068E-16   0.1124996497E+02
   0.2097999337E+01   0.0000000000E+00   0.9755226657E+00   0.2952610667E-01   0.0000000000E+00  -0.7380276667E-02   0.6847323049E-01   0.0000000000E+00  -0.1709705762E-01   0.1124997665E+02   0.1168142514E-04   0.1168142514E-04   0.6815076021E-16  -0.6122979252E-15  -0.6649360413E-15   0.4899966865E-01  -0.2447733432E-01  -0.2447733432E-01  -0.2532848218E-16  -0.2520756483E-16  -0.3041988195E-16   0.1124996497E+02
   0.2097999337E+01   0.9755226657E+00   0.9755226657E+00   0.2952610667E-01  -0.7380276667E-02  -0.7380276667E-02   0.6847323049E-01  -0.1709705762E-01  -0.1709705762E-01   0.1124997665E+02   0.1168142515E-04   0.1168142515E-04   0.5414334965E-15   0.1381810462E-14   0.2484282152E-16   0.4899966864E-01  -0.2447733432E-01  -0.2447733432E-01   0.2114897015E-16   0.3288015773E-16   0.4774354175E-16   0.1124996497E+02
     1     2     3     4     5     6     7     8
     2     9    10     3     6    11    12     7
 VARIABLES = X,Y,Z,DU1,DU2,DU3,U1,U2,U3,S11,S22,S33,S12,S13,S23,E11,E22,E33,E12,E13,E23,SMISES
 ZONE, T="0.9500D+00" F=FEPOINT, I=   12 J=    2 ET=BRICK
   0.0000000000E+00   0.0000000000E+00   0.0000000000E+00   0.0000000000E+00   0.0000000000E+00   0.0000000000E+00   0.0000000000E+00   0.0000000000E+00   0.0000000000E+00   0.1187490730E+02   0.4636165067E-04   0.4636165066E-04  -0.4081393591E-16  -0.2063054431E-15   0.6859447432E-15   0.6433149079E-01  -0.3214199540E-01  -0.3214199540E-01   0.1588491805E-17  -0.3614596499E-16  -0.7895249355E-16   0.1187486093E+02
   0.1064331491E+01   0.0000000000E+00  -0.5025627554E-17   0.1533182211E-01   0.0000000000E+00  -0.6680045748E-17   0.4899966858E-01   0.0000000000E+00   0.1654418194E-17   0.1187490729E+02   0.4636165118E-04   0.4636165118E-04  -0.3172395298E-15   0.5220833937E-15   0.5715678727E-15   0.6433149079E-01  -0.3214199539E-01  -0.3214199539E-01  -0.2691479170E-16  -0.3182839980E-16  -0.4214803177E-16   0.1187486093E+02
   0.1064331491E+01   0.9678580047E+00  -0.2520589100E-16   0.1533182211E-01  -0.7664661055E-02   0.2441404894E-17   0.4899966858E-01  -0.2447733429E-01  -0.2764729590E-16   0.1187490729E+02   0.4636165092E-04   0.4636165091E-04   0.3485525313E-15  -0.1061532283E-15  -0.9305033093E-15   0.6433149078E-01  -0.3214199539E-01  -0.3214199539E-01  -0.5177989683E-17   0.4465403273E-16   0.1204561840E-16   0.1187486093E+02
   0.0000000000E+00   0.9678580047E+00  -0.3733356498E-16   0.0000000000E+00  -0.7664661055E-02   0.1466075806E-16   0.0000000000E+00  -0.2447733429E-01  -0.5199432303E-16   0.1187490729E+02   0.4636165100E-04   0.4636165100E-04   0.5582214145E-15  -0.2199064094E-15  -0.1960113533E-15   0.6433149078E-01  -0.3214199539E-01  -0.3214199539E-01  -0.5444942255E-17   0.1247256297E-16   0.1706166773E-17   0.1187486093E+02
   0.0000000000E+00   0.0000000000E+00   0.9678580047E+00   0.0000000000E+00   0.0000000000E+00  -0.7664661055E-02   0.0000000000E+00   0.0000000000E+00  -0.2447733429E-01   0.1187490729E+02   0.4636165163E-04   0.4636165163E-04  -0.9661564202E-16  -0.2888645069E-15   0.1303830354E-14   0.6433149078E-01  -0.3214199539E-01  -0.3214199539E-01   0.4916691675E-17  -0.1403137337E-16  -0.3941643645E-16   0.1187486093E+02
   0.1064331491E+01   0.0000000000E+00   0.9678580047E+00   0.1533182211E-01   0.0000000000E+00  -0.7664661055E-02   0.4899966858E-01   0.0000000000E+00  -0.2447733429E-01   0.1187490729E+02   0.4636165101E-04   0.4636165101E-04  -0.6468601782E-15   0.6487524148E-15   0.1190940009E-14   0.6433149078E-01  -0.3214199539E-01  -0.3214199539E-01  -0.2412400127E-16  -0.3516011375E-18  -0.2044752410E-16   0.1187486093E+02
   0.1064331491E+01   0.9678580047E+00   0.9678580047E+00   0.1533182211E-01  -0.7664661055E-02  -0.7664661055E-02   0.4899966858E-01  -0.2447733429E-01  -0.2447733429E-01   0.1187490729E+02   0.4636165091E-04   0.4636165091E-04  -0.8956531161E-15  -0.4362002636E-15  -0.6440558985E-15   0.6433149077E-01  -0.3214199539E-01  -0.3214199539E-01  -0.4246490606E-16  -0.1085068708E-17   0.1163779197E-16   0.1187486093E+02
   0.0000000000E+00   0.9678580047E+00   0.9678580047E+00   0.0000000000E+00  -0.7664661055E-02  -0.7664661055E-02   0.0000000000E+00  -0.2447733429E-01  -0.2447733429E-01   0.1187490729E+02   0.4636165067E-04   0.4636165067E-04   0.8019859546E-16  -0.2993102621E-15   0.7868819836E-15   0.6433149078E-01  -0.3214199539E-01  -0.3214199539E-01  -0.1932118293E-16   0.1518987947E-16   0.3112369627E-16   0.1187486093E+02
   0.2128662981E+01   0.0000000000E+00   0.3561858636E-16   0.3066364422E-01   0.0000000000E+00  -0.3610599146E-16   0.9799933716E-01   0.0000000000E+00   0.7172457783E-16   0.1187490729E+02   0.4636165182E-04   0.4636165182E-04  -0.6908244463E-15   0.5883611236E-15   0.4869568849E-15   0.6433149079E-01  -0.3214199539E-01  -0.3214199539E-01  -0.5841006123E-16  -0.7481054754E-17  -0.2737048116E-16   0.1187486093E+02
   0.2128662981E+01   0.9678580047E+00   0.2347186398E-16   0.3066364422E-01  -0.7664661055E-02  -0.2874804866E-16   0.9799933716E-01  -0.2447733429E-01   0.5221991263E-16   0.1187490729E+02   0.4636165096E-04   0.4636165096E-04  -0.2406890984E-15  -0.3608925975E-15  -0.1177736256E-14   0.6433149078E-01  -0.3214199539E-01  -0.3214199539E-01  -0.4871842089E-16   0.2090800258E-16   0.3192721128E-16   0.1187486093E+02
   0.2128662981E+01   0.0000000000E+00   0.9678580047E+00   0.3066364422E-01   0.0000000000E+00  -0.7664661055E-02   0.9799933716E-01   0.0000000000E+00  -0.2447733429E-01   0.1187490729E+02   0.4636165065E-04   0.4636165065E-04  -0.5743592690E-15  -0.9360774088E-15   0.9440534838E-15   0.6433149078E-01  -0.3214199539E-01  -0.3214199539E-01  -0.5273663591E-16  -0.3609411675E-16  -0.2294867143E-16   0.1187486093E+02
   0.2128662981E+01   0.9678580047E+00   0.9678580047E+00   0.3066364422E-01  -0.7664661055E-02  -0.7664661055E-02   0.9799933716E-01  -0.2447733429E-01  -0.2447733429E-01   0.1187490729E+02   0.4636165142E-04   0.4636165142E-04   0.1415422206E-15   0.1239355193E-14  -0.1209849212E-14   0.6433149077E-01  -0.3214199539E-01  -0.3214199539E-01  -0.3444825187E-16   0.6739662307E-16   0.5295398679E-16   0.1187486093E+02
     1     2     3     4     5     6     7     8
     2     9    10     3     6    11    12     7
 VARIABLES = X,Y,Z,DU1,DU2,DU3,U1,U2,U3,S11,S22,S33,S12,S13,S23,E11,E22,E33,E12,E13,E23,SMISES
 ZONE, T="0.1000D+01" F=FEPOINT, I=   12 J=    2 ET=BRICK
   0.0000000000E+00   0.0000000000E+00   0.0000000000E+00   0.0000000000E+00   0.0000000000E+00   0.0000000000E+00   0.0000000000E+00   0.0000000000E+00   0.0000000000E+00   0.1249997596E+02   0.1203069140E-04   0.1203069139E-04  -0.1863681000E-16  -0.2465882907E-15   0.7224936301E-15   0.8028996490E-01  -0.4011998245E-01  -0.4011998245E-01  -0.1331583944E-16  -0.3407909280E-16  -0.6939580520E-16   0.1249996393E+02
   0.1080289965E+01   0.0000000000E+00  -0.8812119626E-17   0.1595847409E-01   0.0000000000E+00  -0.3786492072E-17   0.6433149069E-01   0.0000000000E+00  -0.5025627554E-17   0.1249997596E+02   0.1203069086E-04   0.1203069086E-04  -0.6233445546E-15  -0.4862102535E-15   0.4997470120E-15   0.8028996490E-01  -0.4011998245E-01  -0.4011998245E-01  -0.1102518162E-16  -0.2716930599E-16  -0.2854668277E-16   0.1249996393E+02
   0.1080289965E+01   0.9598800176E+00  -0.2487966026E-16   0.1595847409E-01  -0.7977987043E-02   0.3262307462E-18   0.6433149069E-01  -0.3214199534E-01  -0.2520589100E-16   0.1249997596E+02   0.1203069121E-04   0.1203069120E-04  -0.3238609673E-15   0.4129955239E-15  -0.7967919099E-15   0.8028996489E-01  -0.4011998244E-01  -0.4011998244E-01  -0.2276819125E-16   0.1711014676E-16  -0.2650765412E-16   0.1249996393E+02
   0.0000000000E+00   0.9598800176E+00  -0.3186390177E-16   0.0000000000E+00  -0.7977987043E-02   0.5469663208E-17   0.0000000000E+00  -0.3214199534E-01  -0.3733356498E-16   0.1249997596E+02   0.1203069078E-04   0.1203069078E-04   0.1178622843E-15  -0.5055249135E-15  -0.7668395543E-15   0.8028996489E-01  -0.4011998245E-01  -0.4011998245E-01   0.1755921668E-16   0.4393469417E-17  -0.8649182476E-17   0.1249996393E+02
   0.0000000000E+00   0.0000000000E+00   0.9598800176E+00   0.0000000000E+00   0.0000000000E+00  -0.7977987043E-02   0.0000000000E+00   0.0000000000E+00  -0.3214199534E-01   0.1249997596E+02   0.1203069139E-04   0.1203069139E-04  -0.8595882640E-16  -0.5224803040E-15   0.9244326282E-15   0.8028996489E-01  -0.4011998245E-01  -0.4011998245E-01   0.1376165985E-16  -0.2868212254E-16  -0.3949102236E-16   0.1249996393E+02
   0.1080289965E+01   0.0000000000E+00   0.9598800176E+00   0.1595847409E-01   0.0000000000E+00  -0.7977987043E-02   0.6433149069E-01   0.0000000000E+00  -0.3214199534E-01   0.1249997596E+02   0.1203069133E-04   0.1203069133E-04   0.1544936725E-15  -0.4279616083E-15   0.9495750938E-15   0.8028996489E-01  -0.4011998244E-01  -0.4011998244E-01  -0.3862603361E-16   0.2438167312E-16  -0.2342793836E-16   0.1249996393E+02
   0.1080289965E+01   0.9598800176E+00   0.9598800176E+00   0.1595847409E-01  -0.7977987043E-02  -0.7977987043E-02   0.6433149069E-01  -0.3214199534E-01  -0.3214199534E-01   0.1249997595E+02   0.1203069097E-04   0.1203069098E-04   0.1269533218E-15   0.2712187693E-15  -0.1132235592E-14   0.8028996488E-01  -0.4011998244E-01  -0.4011998244E-01  -0.2387442480E-16  -0.3637109560E-16   0.3247423089E-16   0.1249996392E+02
   0.0000000000E+00   0.9598800176E+00   0.9598800176E+00   0.0000000000E+00  -0.7977987043E-02  -0.7977987043E-02   0.0000000000E+00  -0.3214199534E-01  -0.3214199534E-01   0.1249997596E+02   0.1203069122E-04   0.1203069122E-04  -0.8773649216E-16  -0.6132012891E-15   0.1743769485E-15   0.8028996488E-01  -0.4011998244E-01  -0.4011998244E-01  -0.2761881146E-16   0.4563097086E-16   0.2909157976E-16   0.1249996392E+02
   0.2160579930E+01   0.0000000000E+00   0.1281335868E-16   0.3191694817E-01   0.0000000000E+00  -0.2280522768E-16   0.1286629814E+00   0.0000000000E+00   0.3561858636E-16   0.1249997596E+02   0.1203069045E-04   0.1203069045E-04   0.1910812410E-14  -0.6509792423E-16   0.1226722883E-14   0.8028996490E-01  -0.4011998245E-01  -0.4011998245E-01  -0.2918645848E-16  -0.8903685239E-16  -0.1875527189E-16   0.1249996393E+02
   0.2160579930E+01   0.9598800176E+00   0.1130813676E-16   0.3191694817E-01  -0.7977987043E-02  -0.1216372722E-16   0.1286629814E+00  -0.3214199534E-01   0.2347186398E-16   0.1249997596E+02   0.1203069133E-04   0.1203069133E-04   0.1940640191E-14  -0.6634625402E-15  -0.4200178547E-15   0.8028996489E-01  -0.4011998244E-01  -0.4011998244E-01  -0.2927281878E-16   0.4230419926E-16   0.6840637090E-16   0.1249996393E+02
   0.2160579930E+01   0.0000000000E+00   0.9598800176E+00   0.3191694817E-01   0.0000000000E+00  -0.7977987043E-02   0.1286629814E+00   0.0000000000E+00  -0.3214199534E-01   0.1249997596E+02   0.1203069196E-04   0.1203069197E-04  -0.8938235624E-15   0.7321586196E-15   0.6482349421E-15   0.8028996489E-01  -0.4011998244E-01  -0.4011998244E-01  -0.3507322565E-16  -0.5709494884E-16   0.6096114474E-17   0.1249996393E+02
   0.2160579930E+01   0.9598800176E+00   0.9598800176E+00   0.3191694817E-01  -0.7977987043E-02  -0.7977987043E-02   0.1286629814E+00  -0.3214199534E-01  -0.3214199534E-01   0.1249997595E+02   0.1203069100E-04   0.1203069100E-04  -0.1609582249E-15  -0.1090151940E-14  -0.8792794298E-15   0.8028996488E-01  -0.4011998244E-01  -0.4011998244E-01  -0.2822206988E-16  -0.4208426610E-16   0.1737729025E-16   0.1249996392E+02
     1     2     3     4     5     6     7     8
     2     9    10     3     6    11    12     7
 VARIABLES = X,Y,Z,DU1,DU2,DU3,U1,U2,U3,S11,S22,S33,S12,S13,S23,E11,E22,E33,E12,E13,E23,SMISES
 ZONE, T="0.1050D+01" F=FEPOINT, I=   12 J=    2 ET=BRICK
   0.0000000000E+00   0.0000000000E+00   0.0000000000E+00   0.0000000000E+00   0.0000000000E+00   0.0000000000E+00   0.0000000000E+00   0.0000000000E+00   0.0000000000E+00   0.1137500002E+02  -0.1603145206E-11  -0.1983528219E-11  -0.3381254207E-16  -0.3816619929E-12  -0.1068716823E-12   0.7804003703E-01  -0.3899726852E-01  -0.3899726852E-01   0.1336885133E-16  -0.4606263975E-14  -0.1358869685E-14   0.1137500002E+02
   0.1078040037E+01   0.0000000000E+00  -0.2362954951E-14  -0.2249927864E-02   0.0000000000E+00  -0.2354142831E-14   0.8028996478E-01   0.0000000000E+00  -0.8812119626E-17   0.1137500002E+02  -0.2311183893E-12  -0.3244911678E-12  -0.9493374474E-13  -0.2483033891E-12   0.1108643106E-12   0.7804003703E-01  -0.3899726852E-01  -0.3899726852E-01  -0.1189124288E-14  -0.2980710277E-14   0.1294078848E-14   0.1137500002E+02
   0.1078040037E+01   0.9610027315E+00  -0.1717288159E-14  -0.2249927864E-02   0.1122713932E-02  -0.1692408499E-14   0.8028996478E-01  -0.4011998239E-01  -0.2487966026E-16   0.1137500002E+02  -0.5336653549E-13   0.3185608086E-13  -0.8708391605E-13  -0.1508870920E-12  -0.5503201402E-13   0.7804003702E-01  -0.3899726851E-01  -0.3899726851E-01  -0.1082862097E-14  -0.1822952443E-14  -0.6517631607E-15   0.1137500002E+02
   0.0000000000E+00   0.9610027315E+00  -0.6770373030E-15   0.0000000000E+00   0.1122713932E-02  -0.6451734013E-15   0.0000000000E+00  -0.4011998239E-01  -0.3186390177E-16   0.1137500002E+02  -0.1595525931E-12  -0.3385881174E-12  -0.1034935001E-12  -0.1046689373E-12  -0.2712306182E-12   0.7804003702E-01  -0.3899726851E-01  -0.3899726851E-01  -0.1211385528E-14  -0.1236543920E-14  -0.3225491417E-14   0.1137500002E+02
   0.0000000000E+00   0.0000000000E+00   0.9610027315E+00   0.0000000000E+00   0.0000000000E+00   0.1122713932E-02   0.0000000000E+00   0.0000000000E+00  -0.4011998239E-01   0.1137500002E+02   0.7062251948E-12   0.6528369095E-12  -0.9151540632E-16  -0.2674465922E-12  -0.6849881999E-14   0.7804003702E-01  -0.3899726851E-01  -0.3899726851E-01  -0.1361827158E-17  -0.3218785277E-14  -0.1127248497E-15   0.1137500002E+02
   0.1078040037E+01   0.0000000000E+00   0.9610027315E+00  -0.2249927864E-02   0.0000000000E+00   0.1122713932E-02   0.8028996478E-01   0.0000000000E+00  -0.4011998239E-01   0.1137500002E+02   0.3428482096E-12   0.5816087823E-12  -0.9706229211E-13  -0.2471734185E-12   0.2023091350E-12   0.7804003702E-01  -0.3899726851E-01  -0.3899726851E-01  -0.1193698570E-14  -0.2976296473E-14   0.2395935900E-14   0.1137500002E+02
   0.1078040037E+01   0.9610027315E+00   0.9610027315E+00  -0.2249927864E-02   0.1122713932E-02   0.1122713932E-02   0.8028996478E-01  -0.4011998239E-01  -0.4011998239E-01   0.1137500001E+02  -0.7805550790E-12  -0.3594939576E-12  -0.9222133550E-13  -0.1546144274E-12   0.3556281283E-13   0.7804003701E-01  -0.3899726851E-01  -0.3899726851E-01  -0.1124434292E-14  -0.1869962832E-14   0.4431877316E-15   0.1137500001E+02
   0.0000000000E+00   0.9610027315E+00   0.9610027315E+00   0.0000000000E+00   0.1122713932E-02   0.1122713932E-02   0.0000000000E+00  -0.4011998239E-01  -0.4011998239E-01   0.1137500002E+02   0.6221381306E-12   0.7689762224E-12  -0.1049137415E-12  -0.1121318413E-14  -0.1705377687E-12   0.7804003702E-01  -0.3899726851E-01  -0.3899726851E-01  -0.1282726748E-14   0.4217530485E-16  -0.2065954381E-14   0.1137500002E+02
   0.2156080074E+01   0.0000000000E+00  -0.4963653090E-14  -0.4499855728E-02   0.0000000000E+00  -0.4976466449E-14   0.1605799296E+00   0.0000000000E+00   0.1281335868E-16   0.1137500002E+02  -0.1075714390E-12  -0.5153538288E-12  -0.1809051544E-12  -0.1174983731E-12   0.9240184804E-13   0.7804003703E-01  -0.3899726851E-01  -0.3899726851E-01  -0.2241273138E-14  -0.1392458672E-14   0.1102234721E-14   0.1137500002E+02
   0.2156080074E+01   0.9610027315E+00  -0.4418467000E-14  -0.4499855728E-02   0.1122713932E-02  -0.4429775137E-14   0.1605799296E+00  -0.4011998239E-01   0.1130813676E-16   0.1137500002E+02   0.2526302870E-11   0.2301758101E-11  -0.6236769499E-13  -0.1991362904E-12  -0.7732946268E-13   0.7804003702E-01  -0.3899726851E-01  -0.3899726851E-01  -0.8401504283E-15  -0.2355725170E-14  -0.8937867993E-15   0.1137500002E+02
   0.2156080074E+01   0.0000000000E+00   0.9610027315E+00  -0.4499855728E-02   0.0000000000E+00   0.1122713932E-02   0.1605799296E+00   0.0000000000E+00  -0.4011998239E-01   0.1137500002E+02  -0.1522531444E-11  -0.1588296086E-11  -0.1861178106E-12  -0.2292844753E-12   0.1823603280E-12   0.7804003702E-01  -0.3899726851E-01  -0.3899726851E-01  -0.2280791740E-14  -0.2832231204E-14   0.2157618751E-14   0.1137500002E+02
   0.2156080074E+01   0.9610027315E+00   0.9610027315E+00  -0.4499855728E-02   0.1122713932E-02   0.1122713932E-02   0.1605799296E+00  -0.4011998239E-01  -0.4011998239E-01   0.1137500001E+02   0.5748024922E-13   0.1673317640E-12  -0.7057041665E-13  -0.3106014475E-12   0.1272215106E-13   0.7804003701E-01  -0.3899726851E-01  -0.3899726851E-01  -0.8914206359E-15  -0.3627336674E-14   0.2208718825E-15   0.1137500001E+02
     1     2     3     4     5     6     7     8
     2     9    10     3     6    11    12     7
 VARIABLES = X,Y,Z,DU1,DU2,DU3,U1,U2,U3,S11,S22,S33,S12,S13,S23,E11,E22,E33,E12,E13,E23,SMISES
 ZONE, T="0.1100D+01" F=FEPOINT, I=   12 J=    2 ET=BRICK
   0.0000000000E+00   0.0000000000E+00   0.0000000000E+00   0.0000000000E+00   0.0000000000E+00   0.0000000000E+00   0.0000000000E+00   0.0000000000E+00   0.0000000000E+00   0.1025000002E+02   0.1243590688E-14  -0.7889352826E-15  -0.2805358120E-16  -0.4755340651E-15   0.1204130669E-15   0.7579003703E-01  -0.3787451852E-01  -0.3787451852E-01  -0.6323629642E-17  -0.5100409562E-16  -0.6035682562E-16   0.1025000002E+02
   0.1075790037E+01   0.0000000000E+00  -0.6862909884E-17  -0.2250000000E-02   0.0000000000E+00   0.2356092041E-14   0.7804003691E-01   0.0000000000E+00  -0.2362954951E-14   0.1025000002E+02   0.7145130198E-14   0.7044996407E-14  -0.6371322555E-15  -0.5093887898E-16   0.3410649206E-16   0.7579003703E-01  -0.3787451851E-01  -0.3787451851E-01  -0.1560574666E-16   0.4394315529E-16  -0.2916746903E-16   0.1025000002E+02
   0.1075790037E+01   0.9621254815E+00  -0.2585662299E-16  -0.2250000000E-02   0.1122750000E-02   0.1691431536E-14   0.7804003691E-01  -0.3899726846E-01  -0.1717288159E-14   0.1025000001E+02  -0.1134761576E-13  -0.1331918614E-13  -0.1549773109E-15   0.4764624730E-15  -0.2164993644E-15   0.7579003702E-01  -0.3787451851E-01  -0.3787451851E-01  -0.3076377809E-16  -0.1755542706E-16  -0.2481666237E-16   0.1025000001E+02
   0.0000000000E+00   0.9621254815E+00  -0.3539425795E-16   0.0000000000E+00   0.1122750000E-02   0.6416430451E-15   0.0000000000E+00  -0.3899726846E-01  -0.6770373030E-15   0.1025000001E+02  -0.2067655779E-13  -0.1986420921E-13  -0.2148386156E-15  -0.3322212515E-15  -0.9663433085E-15   0.7579003702E-01  -0.3787451851E-01  -0.3787451851E-01   0.1496956197E-16   0.8091705556E-17  -0.8345546192E-17   0.1025000001E+02
   0.0000000000E+00   0.0000000000E+00   0.9621254815E+00   0.0000000000E+00   0.0000000000E+00   0.1122750000E-02   0.0000000000E+00   0.0000000000E+00  -0.3899726846E-01   0.1025000001E+02  -0.6415166262E-13  -0.6507503363E-13  -0.8159268363E-16  -0.1379108359E-15   0.8444076646E-15   0.7579003702E-01  -0.3787451851E-01  -0.3787451851E-01  -0.3034693353E-17  -0.1124385091E-16  -0.6664898653E-16   0.1025000001E+02
   0.1075790037E+01   0.0000000000E+00   0.9621254815E+00  -0.2250000000E-02   0.0000000000E+00   0.1122750000E-02   0.7804003691E-01   0.0000000000E+00  -0.3899726846E-01   0.1025000001E+02  -0.4482883099E-14  -0.3827637919E-14   0.2960428577E-15  -0.8500670188E-16   0.7721633891E-15   0.7579003702E-01  -0.3787451851E-01  -0.3787451851E-01  -0.1671723016E-16  -0.1628707819E-16  -0.1566615626E-16   0.1025000001E+02
   0.1075790037E+01   0.9621254815E+00   0.9621254815E+00  -0.2250000000E-02   0.1122750000E-02   0.1122750000E-02   0.7804003691E-01  -0.3899726846E-01  -0.3899726846E-01   0.1025000001E+02  -0.2474771353E-13  -0.2292488477E-13   0.3321598478E-15   0.9826067120E-15  -0.2054367433E-15   0.7579003701E-01  -0.3787451851E-01  -0.3787451851E-01  -0.1176772837E-16   0.3113066565E-16   0.3234262510E-16   0.1025000001E+02
   0.0000000000E+00   0.9621254815E+00   0.9621254815E+00   0.0000000000E+00   0.1122750000E-02   0.1122750000E-02   0.0000000000E+00  -0.3899726846E-01  -0.3899726846E-01   0.1025000001E+02   0.1031517298E-13   0.1144863205E-13   0.7662309396E-15  -0.3223465717E-15   0.3159213575E-15   0.7579003701E-01  -0.3787451851E-01  -0.3787451851E-01  -0.6369375484E-17   0.5006195404E-16  -0.2809594641E-16   0.1025000001E+02
   0.2151580074E+01   0.0000000000E+00   0.2897358198E-16  -0.4500000000E-02   0.0000000000E+00   0.4992626672E-14   0.1560800738E+00   0.0000000000E+00  -0.4963653090E-14   0.1025000002E+02   0.1246351655E-12   0.1214677219E-12  -0.3584408862E-15  -0.1090662090E-14   0.8371370503E-16   0.7579003703E-01  -0.3787451851E-01  -0.3787451851E-01  -0.1189783530E-15  -0.8850413393E-16  -0.2281206317E-16   0.1025000002E+02
   0.2151580074E+01   0.9621254815E+00   0.2077602150E-16  -0.4500000000E-02   0.1122750000E-02   0.4439243021E-14   0.1560800738E+00  -0.3899726846E-01  -0.4418467000E-14   0.1025000001E+02  -0.1521068318E-13  -0.1355876449E-13   0.7120101638E-16  -0.4318938217E-16  -0.1108836490E-14   0.7579003702E-01  -0.3787451851E-01  -0.3787451851E-01  -0.1187663319E-15   0.1167602515E-15   0.5319173201E-16   0.1025000001E+02
   0.2151580074E+01   0.0000000000E+00   0.9621254815E+00  -0.4500000000E-02   0.0000000000E+00   0.1122750000E-02   0.1560800738E+00   0.0000000000E+00  -0.3899726846E-01   0.1025000001E+02   0.7530057276E-13   0.7728050501E-13  -0.4096953846E-15  -0.8010267716E-15   0.5802518669E-15   0.7579003702E-01  -0.3787451851E-01  -0.3787451851E-01  -0.9852719871E-16   0.7552482514E-17   0.7208433002E-17   0.1025000001E+02
   0.2151580074E+01   0.9621254815E+00   0.9621254815E+00  -0.4500000000E-02   0.1122750000E-02   0.1122750000E-02   0.1560800738E+00  -0.3899726846E-01  -0.3899726846E-01   0.1025000001E+02  -0.1414008818E-12  -0.1438883854E-12   0.4982622891E-17  -0.2289219123E-16  -0.6184549413E-15   0.7579003701E-01  -0.3787451850E-01  -0.3787451850E-01  -0.9072449503E-16   0.7091219548E-16   0.4053887842E-16   0.1025000001E+02
     1     2     3     4     5     6     7     8
     2     9    10     3     6    11    12     7
 VARIABLES = X,Y,Z,DU1,DU2,DU3,U1,U2,U3,S11,S22,S33,S12,S13,S23,E11,E22,E33,E12,E13,E23,SMISES
 ZONE, T="0.1150D+01" F=FEPOINT, I=   12 J=    2 ET=BRICK
   0.0000000000E+00   0.0000000000E+00   0.0000000000E+00   0.0000000000E+00   0.0000000000E+00   0.0000000000E+00   0.0000000000E+00   0.0000000000E+00   0.0000000000E+00   0.9125000014E+01   0.1720411036E-13   0.1517556991E-13  -0.1759632846E-16  -0.6946779964E-15   0.5731835350E-15   0.7354003703E-01  -0.3675176851E-01  -0.3675176851E-01   0.9696752408E-18  -0.1139765908E-16  -0.8299778258E-16   0.9125000014E+01
   0.1073540037E+01   0.0000000000E+00  -0.9349249953E-17  -0.2250000000E-02   0.0000000000E+00  -0.2486340069E-17   0.7579003691E-01   0.0000000000E+00  -0.6862909884E-17   0.9125000014E+01  -0.7813398741E-14  -0.7743013621E-14  -0.3705183447E-15   0.9033982613E-16   0.5344021984E-15   0.7354003702E-01  -0.3675176851E-01  -0.3675176851E-01  -0.1371636317E-16  -0.4552225973E-16  -0.1827464412E-16   0.9125000014E+01
   0.1073540037E+01   0.9632482315E+00  -0.2548851531E-16  -0.2250000000E-02   0.1122750000E-02   0.3681076857E-18   0.7579003691E-01  -0.3787451846E-01  -0.2585662299E-16   0.9125000013E+01  -0.1946874534E-14  -0.5183244653E-14  -0.6560220025E-16   0.3415170243E-15  -0.5486876336E-15   0.7354003702E-01  -0.3675176851E-01  -0.3675176851E-01  -0.2865277558E-16   0.3355741844E-16  -0.4937666902E-16   0.9125000013E+01
   0.0000000000E+00   0.9632482315E+00  -0.3248331682E-16   0.0000000000E+00   0.1122750000E-02   0.2910941134E-17   0.0000000000E+00  -0.3787451846E-01  -0.3539425795E-16   0.9125000013E+01   0.5504207601E-13   0.5499998009E-13  -0.7391057138E-16  -0.5158462061E-15  -0.1209386724E-14   0.7354003702E-01  -0.3675176851E-01  -0.3675176851E-01   0.2203441727E-16  -0.3240152928E-16   0.2426247157E-16   0.9125000013E+01
   0.0000000000E+00   0.0000000000E+00   0.9632482315E+00   0.0000000000E+00   0.0000000000E+00   0.1122750000E-02   0.0000000000E+00   0.0000000000E+00  -0.3787451846E-01   0.9125000013E+01   0.2405810481E-13   0.2374827404E-13  -0.5182484302E-16  -0.3266651063E-15   0.1127105505E-14   0.7354003702E-01  -0.3675176851E-01  -0.3675176851E-01   0.1818371616E-17   0.2318639533E-17  -0.3671142755E-16   0.9125000013E+01
   0.1073540037E+01   0.0000000000E+00   0.9632482315E+00  -0.2250000000E-02   0.0000000000E+00   0.1122750000E-02   0.7579003691E-01   0.0000000000E+00  -0.3787451846E-01   0.9125000013E+01   0.1530727008E-13   0.1637685616E-13   0.2252588606E-15   0.1430027354E-15   0.9790187571E-15   0.7354003702E-01  -0.3675176851E-01  -0.3675176851E-01  -0.3787681294E-16  -0.8067104569E-17  -0.3108290796E-16   0.9125000013E+01
   0.1073540037E+01   0.9632482315E+00   0.9632482315E+00  -0.2250000000E-02   0.1122750000E-02   0.1122750000E-02   0.7579003691E-01  -0.3787451846E-01  -0.3787451846E-01   0.9125000012E+01   0.1824793246E-13   0.2086969453E-13   0.4412891353E-15   0.9804060965E-15  -0.7084307567E-15   0.7354003701E-01  -0.3675176850E-01  -0.3675176850E-01  -0.2348411535E-16  -0.4375754468E-16   0.1538877657E-16   0.9125000012E+01
   0.0000000000E+00   0.9632482315E+00   0.9632482315E+00   0.0000000000E+00   0.1122750000E-02   0.1122750000E-02   0.0000000000E+00  -0.3787451846E-01  -0.3787451846E-01   0.9125000012E+01  -0.5008948607E-14  -0.3031933691E-14   0.8106625135E-15  -0.6746007585E-15  -0.1497443020E-15   0.7354003701E-01  -0.3675176850E-01  -0.3675176850E-01  -0.1724693654E-16   0.5415694962E-16  -0.1181351417E-16   0.9125000012E+01
   0.2147080074E+01   0.0000000000E+00   0.1925640501E-16  -0.4500000000E-02   0.0000000000E+00  -0.9717176966E-17   0.1515800738E+00   0.0000000000E+00   0.2897358198E-16   0.9125000014E+01  -0.8300985388E-13  -0.8689097126E-13   0.3570972464E-15  -0.7552527372E-15   0.3792471647E-15   0.7354003702E-01  -0.3675176851E-01  -0.3675176851E-01  -0.1015929903E-15  -0.7357005292E-16  -0.3732682692E-17   0.9125000014E+01
   0.2147080074E+01   0.9632482315E+00   0.1301634474E-16  -0.4500000000E-02   0.1122750000E-02  -0.7759676763E-17   0.1515800738E+00  -0.3787451846E-01   0.2077602150E-16   0.9125000013E+01  -0.1904323968E-13  -0.1647737986E-13   0.4255642082E-15   0.2681923607E-16  -0.1236548912E-14   0.7354003701E-01  -0.3675176851E-01  -0.3675176851E-01  -0.8559347806E-16   0.1863105378E-15   0.2260800767E-16   0.9125000013E+01
   0.2147080074E+01   0.0000000000E+00   0.9632482315E+00  -0.4500000000E-02   0.0000000000E+00   0.1122750000E-02   0.1515800738E+00   0.0000000000E+00  -0.3787451846E-01   0.9125000013E+01  -0.2949022287E-13  -0.2603832040E-13   0.1474158809E-15  -0.3304892666E-15   0.9641875215E-15   0.7354003701E-01  -0.3675176851E-01  -0.3675176851E-01  -0.9472173735E-16   0.7972544414E-16  -0.6489877085E-17   0.9125000013E+01
   0.2147080074E+01   0.9632482315E+00   0.9632482315E+00  -0.4500000000E-02   0.1122750000E-02   0.1122750000E-02   0.1515800738E+00  -0.3787451846E-01  -0.3787451846E-01   0.9125000012E+01   0.1232203432E-12   0.1217686918E-12   0.4614026980E-15   0.4146830688E-15  -0.7826967757E-15   0.7354003701E-01  -0.3675176850E-01  -0.3675176850E-01  -0.6831228619E-16  -0.5460534128E-16   0.3630911325E-16   0.9125000012E+01
     1     2     3     4     5     6     7     8
     2     9    10     3     6    11    12     7
 VARIABLES = X,Y,Z,DU1,DU2,DU3,U1,U2,U3,S11,S22,S33,S12,S13,S23,E11,E22,E33,E12,E13,E23,SMISES
 ZONE, T="0.1200D+01" F=FEPOINT, I=   12 J=    2 ET=BRICK
   0.0000000000E+00   0.0000000000E+00   0.0000000000E+00   0.0000000000E+00   0.0000000000E+00   0.0000000000E+00   0.0000000000E+00   0.0000000000E+00   0.0000000000E+00   0.8000000013E+01  -0.7509195623E-14  -0.9334551191E-14   0.1046231107E-16  -0.6236149435E-15   0.5176142315E-15   0.7129003702E-01  -0.3562901851E-01  -0.3562901851E-01   0.1173876960E-16  -0.1369214711E-16  -0.7228200114E-16   0.8000000013E+01
   0.1071290037E+01   0.0000000000E+00  -0.8962430375E-17  -0.2250000000E-02   0.0000000000E+00   0.3868195779E-18   0.7354003691E-01   0.0000000000E+00  -0.9349249953E-17   0.8000000012E+01  -0.7818033559E-14  -0.7666374487E-14  -0.2738191029E-15  -0.1191252772E-15   0.5364691199E-15   0.7129003702E-01  -0.3562901851E-01  -0.3562901851E-01  -0.4734417007E-16  -0.7573330922E-16  -0.2542637020E-16   0.8000000012E+01
   0.1071290037E+01   0.9643709815E+00  -0.2523674208E-16  -0.2250000000E-02   0.1122750000E-02   0.2517732252E-18   0.7354003691E-01  -0.3675176846E-01  -0.2548851531E-16   0.8000000011E+01   0.9258613319E-14   0.6244287755E-14   0.1049533949E-15   0.4157434224E-15  -0.4580888961E-15   0.7129003701E-01  -0.3562901851E-01  -0.3562901851E-01  -0.3965196221E-16   0.2048158346E-16  -0.5018440059E-16   0.8000000011E+01
   0.0000000000E+00   0.9643709815E+00  -0.3283403936E-16   0.0000000000E+00   0.1122750000E-02  -0.3507225476E-18   0.0000000000E+00  -0.3675176846E-01  -0.3248331682E-16   0.8000000012E+01  -0.8327919804E-13  -0.8318849437E-13   0.5265082195E-16  -0.4358744230E-15  -0.9373890931E-15   0.7129003702E-01  -0.3562901851E-01  -0.3562901851E-01   0.3116586129E-16  -0.9586024118E-17   0.2101419855E-17   0.8000000012E+01
   0.0000000000E+00   0.0000000000E+00   0.9643709815E+00   0.0000000000E+00   0.0000000000E+00   0.1122750000E-02   0.0000000000E+00   0.0000000000E+00  -0.3675176846E-01   0.8000000012E+01   0.2257876183E-13   0.2177331622E-13  -0.9643449036E-16  -0.3893327712E-15   0.8380832714E-15   0.7129003702E-01  -0.3562901851E-01  -0.3562901851E-01  -0.1280044246E-16   0.1579981031E-17  -0.3049712786E-16   0.8000000012E+01
   0.1071290037E+01   0.0000000000E+00   0.9643709815E+00  -0.2250000000E-02   0.0000000000E+00   0.1122750000E-02   0.7354003691E-01   0.0000000000E+00  -0.3675176846E-01   0.8000000011E+01  -0.4282777342E-13  -0.4258686901E-13   0.5244488920E-15   0.1484817198E-15   0.7911383255E-15   0.7129003701E-01  -0.3562901851E-01  -0.3562901851E-01  -0.1547448499E-16  -0.6795473464E-16  -0.1656107698E-16   0.8000000011E+01
   0.1071290037E+01   0.9643709815E+00   0.9643709815E+00  -0.2250000000E-02   0.1122750000E-02   0.1122750000E-02   0.7354003691E-01  -0.3675176846E-01  -0.3675176846E-01   0.8000000010E+01   0.2618979815E-13   0.2812364916E-13   0.4580218641E-15   0.1144618570E-14  -0.5931783969E-15   0.7129003700E-01  -0.3562901850E-01  -0.3562901850E-01  -0.2164976880E-16  -0.1536088531E-16   0.1784921720E-16   0.8000000010E+01
   0.0000000000E+00   0.9643709815E+00   0.9643709815E+00   0.0000000000E+00   0.1122750000E-02   0.1122750000E-02   0.0000000000E+00  -0.3675176846E-01  -0.3675176846E-01   0.8000000011E+01   0.1476315078E-13   0.1617416556E-13   0.8672790160E-15  -0.5588447055E-15  -0.1882267146E-15   0.7129003701E-01  -0.3562901850E-01  -0.3562901850E-01  -0.1716991843E-16   0.1256282193E-16  -0.1541360603E-16   0.8000000011E+01
   0.2142580074E+01   0.0000000000E+00   0.2030294460E-16  -0.4500000000E-02   0.0000000000E+00   0.1046539587E-17   0.1470800738E+00   0.0000000000E+00   0.1925640501E-16   0.8000000012E+01   0.1796820749E-13   0.1481563815E-13   0.6775396848E-15  -0.9433765457E-15   0.5003893809E-15   0.7129003702E-01  -0.3562901851E-01  -0.3562901851E-01  -0.1101976248E-15   0.1252849658E-15  -0.2089478475E-16   0.8000000012E+01
   0.2142580074E+01   0.9643709815E+00   0.1483461342E-16  -0.4500000000E-02   0.1122750000E-02   0.1818268681E-17   0.1470800738E+00  -0.3675176846E-01   0.1301634474E-16   0.8000000011E+01   0.2623354758E-14   0.4937421688E-14   0.6132286069E-15  -0.2438150771E-15  -0.1105648208E-14   0.7129003701E-01  -0.3562901851E-01  -0.3562901851E-01  -0.1332635052E-15  -0.3087951679E-16   0.4465248207E-16   0.8000000011E+01
   0.2142580074E+01   0.0000000000E+00   0.9643709815E+00  -0.4500000000E-02   0.0000000000E+00   0.1122750000E-02   0.1470800738E+00   0.0000000000E+00  -0.3675176846E-01   0.8000000011E+01  -0.6751929823E-13  -0.6312769180E-13   0.4430752167E-15  -0.3976278098E-15   0.8007555638E-15   0.7129003701E-01  -0.3562901851E-01  -0.3562901851E-01  -0.1022538708E-15  -0.7986656779E-17   0.5655531034E-17   0.8000000011E+01
   0.2142580074E+01   0.9643709815E+00   0.9643709815E+00  -0.4500000000E-02   0.1122750000E-02   0.1122750000E-02   0.1470800738E+00  -0.3675176846E-01  -0.3675176846E-01   0.8000000010E+01  -0.2155359114E-13  -0.2304587950E-13   0.4493023381E-15   0.3036676858E-15  -0.1017293893E-14   0.7129003700E-01  -0.3562901850E-01  -0.3562901850E-01  -0.9503357006E-16   0.3665312483E-16   0.2574567806E-16   0.8000000010E+01
     1     2     3     4     5     6     7     8
     2     9    10     3     6    11    12     7
 VARIABLES = X,Y,Z,DU1,DU2,DU3,U1,U2,U3,S11,S22,S33,S12,S13,S23,E11,E22,E33,E12,E13,E23,SMISES
 ZONE, T="0.1250D+01" F=FEPOINT, I=   12 J=    2 ET=BRICK
   0.0000000000E+00   0.0000000000E+00   0.0000000000E+00   0.0000000000E+00   0.0000000000E+00   0.0000000000E+00   0.0000000000E+00   0.0000000000E+00   0.0000000000E+00   0.6875000011E+01  -0.5102070982E-13  -0.5354486511E-13   0.3184960685E-16  -0.8598405719E-15   0.8631102864E-15   0.6904003702E-01  -0.3450626851E-01  -0.3450626851E-01   0.1297567269E-17  -0.4233485411E-16  -0.6365856963E-16   0.6875000011E+01
   0.1069040037E+01   0.0000000000E+00  -0.1138995161E-16  -0.2250000000E-02   0.0000000000E+00  -0.2427521237E-17   0.7129003691E-01   0.0000000000E+00  -0.8962430375E-17   0.6875000011E+01   0.1186558087E-13   0.1124805493E-13  -0.2382795669E-15   0.9281990761E-16   0.8505216738E-15   0.6904003702E-01  -0.3450626851E-01  -0.3450626851E-01  -0.2687555859E-16  -0.3370519235E-16  -0.2068128497E-16   0.6875000011E+01
   0.1069040037E+01   0.9654937315E+00  -0.2576640677E-16  -0.2250000000E-02   0.1122750000E-02  -0.5296646846E-18   0.7129003691E-01  -0.3562901846E-01  -0.2523674208E-16   0.6875000010E+01   0.7210043921E-14   0.3426533339E-14   0.3961317411E-16   0.3837834237E-15  -0.8707464616E-15   0.6904003701E-01  -0.3450626850E-01  -0.3450626850E-01  -0.2561399076E-16  -0.1563287642E-16  -0.4010904253E-16   0.6875000010E+01
   0.0000000000E+00   0.9654937315E+00  -0.3073030924E-16   0.0000000000E+00   0.1122750000E-02   0.2103730130E-17   0.0000000000E+00  -0.3562901846E-01  -0.3283403936E-16   0.6875000010E+01   0.7693516669E-13   0.7599400381E-13  -0.1775461750E-15  -0.7367264211E-15  -0.1524637888E-14   0.6904003701E-01  -0.3450626851E-01  -0.3450626851E-01   0.1739890060E-16   0.5888366826E-17  -0.4049454673E-16   0.6875000010E+01
   0.0000000000E+00   0.0000000000E+00   0.9654937315E+00   0.0000000000E+00   0.0000000000E+00   0.1122750000E-02   0.0000000000E+00   0.0000000000E+00  -0.3562901846E-01   0.6875000010E+01  -0.4602741446E-13  -0.4632635657E-13  -0.1186211697E-15  -0.4253730843E-15   0.1490390993E-14   0.6904003701E-01  -0.3450626851E-01  -0.3450626851E-01   0.3064213567E-17  -0.2987609989E-16  -0.3167803324E-16   0.6875000010E+01
   0.1069040037E+01   0.0000000000E+00   0.9654937315E+00  -0.2250000000E-02   0.0000000000E+00   0.1122750000E-02   0.7129003691E-01   0.0000000000E+00  -0.3562901846E-01   0.6875000010E+01   0.5639348811E-13   0.5740357754E-13   0.2812586771E-15   0.4838392405E-15   0.1160191872E-14   0.6904003701E-01  -0.3450626850E-01  -0.3450626850E-01  -0.4436207896E-16  -0.5850273881E-17  -0.1742249201E-16   0.6875000010E+01
   0.1069040037E+01   0.9654937315E+00   0.9654937315E+00  -0.2250000000E-02   0.1122750000E-02   0.1122750000E-02   0.7129003691E-01  -0.3562901846E-01  -0.3562901846E-01   0.6875000009E+01  -0.3990964313E-14  -0.1287928281E-14   0.3081728423E-15   0.9520540334E-15  -0.1028227943E-14   0.6904003700E-01  -0.3450626850E-01  -0.3450626850E-01  -0.3680260299E-16  -0.2718594572E-16  -0.7787581246E-17   0.6875000009E+01
   0.0000000000E+00   0.9654937315E+00   0.9654937315E+00   0.0000000000E+00   0.1122750000E-02   0.1122750000E-02   0.0000000000E+00  -0.3562901846E-01  -0.3562901846E-01   0.6875000009E+01   0.4027119126E-13   0.4343173197E-13   0.8627617555E-15  -0.9566728673E-15  -0.5627717107E-15   0.6904003700E-01  -0.3450626850E-01  -0.3450626850E-01  -0.1866855486E-16   0.1840910388E-16   0.8401677479E-17   0.6875000009E+01
   0.2138080074E+01   0.0000000000E+00   0.1125385561E-16  -0.4500000000E-02   0.0000000000E+00  -0.9049088991E-17   0.1425800738E+00   0.0000000000E+00   0.2030294460E-16   0.6875000010E+01   0.3457774513E-13   0.3058560548E-13   0.7094995671E-15  -0.2740475597E-15   0.8588704151E-15   0.6904003702E-01  -0.3450626851E-01  -0.3450626851E-01  -0.1039314636E-15   0.3594363915E-16  -0.9030181168E-17   0.6875000010E+01
   0.2138080074E+01   0.9654937315E+00   0.7873507815E-17  -0.4500000000E-02   0.1122750000E-02  -0.6961105607E-17   0.1425800738E+00  -0.3562901846E-01   0.1483461342E-16   0.6875000010E+01   0.4431284558E-13   0.4612040902E-13   0.8048371611E-15  -0.1384416603E-15  -0.1323194683E-14   0.6904003701E-01  -0.3450626850E-01  -0.3450626850E-01  -0.7867061092E-16   0.6919322904E-16   0.2801779593E-16   0.6875000010E+01
   0.2138080074E+01   0.0000000000E+00   0.9654937315E+00  -0.4500000000E-02   0.0000000000E+00   0.1122750000E-02   0.1425800738E+00   0.0000000000E+00  -0.3562901846E-01   0.6875000010E+01   0.2583417736E-13   0.3125765032E-13  -0.1860870815E-15  -0.2841070136E-15   0.1282295787E-14   0.6904003701E-01  -0.3450626850E-01  -0.3450626850E-01  -0.1465554333E-15  -0.6803137643E-16   0.3076882352E-17   0.6875000010E+01
   0.2138080074E+01   0.9654937315E+00   0.9654937315E+00  -0.4500000000E-02   0.1122750000E-02   0.1122750000E-02   0.1425800738E+00  -0.3562901846E-01  -0.3562901846E-01   0.6875000009E+01  -0.1115573526E-13  -0.1285917952E-13   0.2844012384E-16   0.3635296334E-15  -0.1113753162E-14   0.6904003700E-01  -0.3450626850E-01  -0.3450626850E-01  -0.1324830210E-15   0.1070396098E-15   0.2253298905E-16   0.6875000009E+01
     1     2     3     4     5     6     7     8
     2     9    10     3     6    11    12     7
 VARIABLES = X,Y,Z,DU1,DU2,DU3,U1,U2,U3,S11,S22,S33,S12,S13,S23,E11,E22,E33,E12,E13,E23,SMISES
 ZONE, T="0.1300D+01" F=FEPOINT, I=   12 J=    2 ET=BRICK
   0.0000000000E+00   0.0000000000E+00   0.0000000000E+00   0.0000000000E+00   0.0000000000E+00   0.0000000000E+00   0.0000000000E+00   0.0000000000E+00   0.0000000000E+00   0.5750000009E+01  -0.5365566403E-13  -0.5507484524E-13   0.4628280236E-16  -0.6010065522E-15   0.4213928778E-15   0.6679003702E-01  -0.3338351851E-01  -0.3338351851E-01  -0.4860776792E-17  -0.2448606312E-16  -0.6837093764E-16   0.5750000009E+01
   0.1066790037E+01   0.0000000000E+00  -0.8715441967E-17  -0.2250000000E-02   0.0000000000E+00   0.2674509645E-17   0.6904003691E-01   0.0000000000E+00  -0.1138995161E-16   0.5750000009E+01  -0.5371662585E-14  -0.4981625972E-14  -0.2756245709E-15   0.9235401885E-17   0.4301474219E-15   0.6679003701E-01  -0.3338351851E-01  -0.3338351851E-01  -0.3066218738E-16  -0.6041288885E-16  -0.2864840660E-16   0.5750000009E+01
   0.1066790037E+01   0.9666164815E+00  -0.2549282513E-16  -0.2250000000E-02   0.1122750000E-02   0.2735816368E-18   0.6904003691E-01  -0.3450626846E-01  -0.2576640677E-16   0.5750000008E+01   0.1349456542E-14  -0.1836846750E-14   0.1858414065E-15   0.1810248790E-15  -0.4512592820E-15   0.6679003701E-01  -0.3338351850E-01  -0.3338351850E-01  -0.5541803550E-17   0.6265190792E-17  -0.3538325848E-16   0.5750000008E+01
   0.0000000000E+00   0.9666164815E+00  -0.3333395164E-16   0.0000000000E+00   0.1122750000E-02  -0.2603642408E-17   0.0000000000E+00  -0.3450626846E-01  -0.3073030924E-16   0.5750000008E+01  -0.1559081867E-13  -0.1522182986E-13   0.3757126256E-16  -0.3792448069E-15  -0.8942427931E-15   0.6679003701E-01  -0.3338351850E-01  -0.3338351850E-01   0.1105441567E-16  -0.5294715553E-17  -0.5307463602E-16   0.5750000008E+01
   0.0000000000E+00   0.0000000000E+00   0.9666164815E+00   0.0000000000E+00   0.0000000000E+00   0.1122750000E-02   0.0000000000E+00   0.0000000000E+00  -0.3450626846E-01   0.5750000008E+01   0.3688182978E-13   0.3586449885E-13  -0.1189494512E-15  -0.3943903293E-15   0.8398748229E-15   0.6679003701E-01  -0.3338351850E-01  -0.3338351850E-01   0.1425036063E-17  -0.3882757612E-16  -0.2707397154E-16   0.5750000008E+01
   0.1066790037E+01   0.0000000000E+00   0.9666164815E+00  -0.2250000000E-02   0.0000000000E+00   0.1122750000E-02   0.6904003691E-01   0.0000000000E+00  -0.3450626846E-01   0.5750000008E+01   0.2076861599E-14   0.2216173586E-14   0.2129087908E-15   0.4560506637E-15   0.8250198641E-15   0.6679003701E-01  -0.3338351850E-01  -0.3338351850E-01  -0.1535060059E-16   0.1637007981E-16  -0.1405812175E-16   0.5750000008E+01
   0.1066790037E+01   0.9666164815E+00   0.9666164815E+00  -0.2250000000E-02   0.1122750000E-02   0.1122750000E-02   0.6904003691E-01  -0.3450626846E-01  -0.3450626846E-01   0.5750000008E+01  -0.4647595697E-13  -0.4435525407E-13   0.1614154839E-15   0.8403018450E-15  -0.6926697207E-15   0.6679003700E-01  -0.3338351850E-01  -0.3338351850E-01  -0.2619908337E-16  -0.8042605799E-16   0.1038689356E-16   0.5750000008E+01
   0.0000000000E+00   0.9666164815E+00   0.9666164815E+00   0.0000000000E+00   0.1122750000E-02   0.1122750000E-02   0.0000000000E+00  -0.3450626846E-01  -0.3450626846E-01   0.5750000008E+01   0.3327307141E-13   0.3499411243E-13   0.7249432719E-15  -0.5263039411E-15  -0.1551411196E-15   0.6679003700E-01  -0.3338351850E-01  -0.3338351850E-01  -0.2668877867E-16   0.4252024213E-16  -0.2481517312E-18   0.5750000008E+01
   0.2133580074E+01   0.0000000000E+00   0.2054352100E-16  -0.4500000000E-02   0.0000000000E+00   0.9289665388E-17   0.1380800738E+00   0.0000000000E+00   0.1125385561E-16   0.5750000009E+01  -0.2025892154E-13  -0.2363625759E-13   0.8698776734E-15  -0.3929991628E-15   0.5153337072E-15   0.6679003701E-01  -0.3338351851E-01  -0.3338351851E-01  -0.1155327579E-15   0.2257627219E-16  -0.1978436102E-16   0.5750000009E+01
   0.2133580074E+01   0.9666164815E+00   0.1517311238E-16  -0.4500000000E-02   0.1122750000E-02   0.7299604567E-17   0.1380800738E+00  -0.3450626846E-01   0.7873507815E-17   0.5750000008E+01  -0.6215451672E-14  -0.3421373596E-14   0.9394447041E-15  -0.3714137052E-15  -0.9430842100E-15   0.6679003700E-01  -0.3338351850E-01  -0.3338351850E-01  -0.1491006783E-15   0.2472293742E-17   0.4727055258E-16   0.5750000008E+01
   0.2133580074E+01   0.0000000000E+00   0.9666164815E+00  -0.4500000000E-02   0.0000000000E+00   0.1122750000E-02   0.1380800738E+00   0.0000000000E+00  -0.3450626846E-01   0.5750000008E+01   0.2869795936E-13   0.3353438428E-13  -0.7927475791E-16  -0.3927178495E-15   0.8282646437E-15   0.6679003700E-01  -0.3338351850E-01  -0.3338351850E-01  -0.1080229780E-15  -0.7762980598E-16  -0.1593232907E-16   0.5750000008E+01
   0.2133580074E+01   0.9666164815E+00   0.9666164815E+00  -0.4500000000E-02   0.1122750000E-02   0.1122750000E-02   0.1380800738E+00  -0.3450626846E-01  -0.3450626846E-01   0.5750000007E+01  -0.4211072718E-14  -0.7267298404E-14   0.2878711249E-15  -0.1364094755E-15  -0.8512706183E-15   0.6679003700E-01  -0.3338351850E-01  -0.3338351850E-01  -0.7640308743E-16   0.2962878532E-16  -0.1748118324E-16   0.5750000007E+01
     1     2     3     4     5     6     7     8
     2     9    10     3     6    11    12     7
 VARIABLES = X,Y,Z,DU1,DU2,DU3,U1,U2,U3,S11,S22,S33,S12,S13,S23,E11,E22,E33,E12,E13,E23,SMISES
 ZONE, T="0.1350D+01" F=FEPOINT, I=   12 J=    2 ET=BRICK
   0.0000000000E+00   0.0000000000E+00   0.0000000000E+00   0.0000000000E+00   0.0000000000E+00   0.0000000000E+00   0.0000000000E+00   0.0000000000E+00   0.0000000000E+00   0.4625000007E+01   0.6345541820E-13   0.6220004824E-13   0.7887030486E-16  -0.4454965749E-15   0.5157207950E-15   0.6454003701E-01  -0.3226076851E-01  -0.3226076851E-01  -0.3039856403E-17  -0.5176114867E-16  -0.7407126474E-16   0.4625000007E+01
   0.1064540037E+01   0.0000000000E+00  -0.8291968509E-17  -0.2250000000E-02   0.0000000000E+00   0.4234734573E-18   0.6679003691E-01   0.0000000000E+00  -0.8715441967E-17   0.4625000007E+01  -0.1302210208E-12  -0.1304024286E-12  -0.5435305517E-15  -0.3143441448E-16   0.3066324377E-15   0.6454003701E-01  -0.3226076851E-01  -0.3226076851E-01  -0.2748781000E-16   0.1311265686E-17  -0.2504471643E-16   0.4625000007E+01
   0.1064540037E+01   0.9677392315E+00  -0.2571206164E-16  -0.2250000000E-02   0.1122750000E-02  -0.2192365130E-18   0.6679003691E-01  -0.3338351846E-01  -0.2549282513E-16   0.4625000007E+01   0.7937160898E-13   0.7681226123E-13   0.1233828884E-16   0.2573902948E-15  -0.5332229553E-15   0.6454003700E-01  -0.3226076850E-01  -0.3226076850E-01  -0.3950140376E-16  -0.4622686488E-16  -0.3697063759E-16   0.4625000007E+01
   0.0000000000E+00   0.9677392315E+00  -0.3293830134E-16   0.0000000000E+00   0.1122750000E-02   0.3956503019E-18   0.0000000000E+00  -0.3338351846E-01  -0.3333395164E-16   0.4625000007E+01   0.1780964954E-13   0.1786516061E-13  -0.9106984277E-16  -0.5660456564E-15  -0.1098036873E-14   0.6454003701E-01  -0.3226076850E-01  -0.3226076850E-01   0.1919714424E-16   0.2262136084E-16  -0.8982558974E-17   0.4625000007E+01
   0.0000000000E+00   0.0000000000E+00   0.9677392315E+00   0.0000000000E+00   0.0000000000E+00   0.1122750000E-02   0.0000000000E+00   0.0000000000E+00  -0.3338351846E-01   0.4625000007E+01   0.8695671156E-13   0.8589801427E-13  -0.1516216601E-15  -0.4398277905E-15   0.8982556404E-15   0.6454003701E-01  -0.3226076850E-01  -0.3226076850E-01   0.8607768234E-17   0.1489661950E-16  -0.9398635941E-17   0.4625000007E+01
   0.1064540037E+01   0.0000000000E+00   0.9677392315E+00  -0.2250000000E-02   0.0000000000E+00   0.1122750000E-02   0.6679003691E-01   0.0000000000E+00  -0.3338351846E-01   0.4625000007E+01   0.6341083041E-14   0.6319305898E-14   0.1220721401E-15   0.2705184795E-15   0.1023917238E-14   0.6454003700E-01  -0.3226076850E-01  -0.3226076850E-01  -0.4778583365E-16  -0.3007870253E-16  -0.3122891943E-16   0.4625000007E+01
   0.1064540037E+01   0.9677392315E+00   0.9677392315E+00  -0.2250000000E-02   0.1122750000E-02   0.1122750000E-02   0.6679003691E-01  -0.3338351846E-01  -0.3338351846E-01   0.4625000006E+01  -0.8449851595E-15   0.1614228966E-14   0.4651866262E-16   0.7890689606E-15  -0.5797412313E-15   0.6454003700E-01  -0.3226076850E-01  -0.3226076850E-01  -0.3689575789E-16   0.1022823766E-16   0.5224182640E-17   0.4625000006E+01
   0.0000000000E+00   0.9677392315E+00   0.9677392315E+00   0.0000000000E+00   0.1122750000E-02   0.1122750000E-02   0.0000000000E+00  -0.3338351846E-01  -0.3338351846E-01   0.4625000006E+01  -0.8284570815E-13  -0.8071703398E-13   0.8776558034E-15  -0.3707199180E-15  -0.2757471986E-15   0.6454003700E-01  -0.3226076850E-01  -0.3226076850E-01  -0.1227171120E-16  -0.1625523790E-16  -0.1553907359E-16   0.4625000006E+01
   0.2129080074E+01   0.0000000000E+00   0.1975790112E-16  -0.4500000000E-02   0.0000000000E+00  -0.7856198805E-18   0.1335800738E+00   0.0000000000E+00   0.2054352100E-16   0.4625000007E+01  -0.1716775142E-12  -0.1751185279E-12   0.5913065150E-15  -0.5658471431E-15   0.5714877958E-15   0.6454003701E-01  -0.3226076850E-01  -0.3226076850E-01  -0.9927887570E-16  -0.2530330149E-16  -0.4783191103E-17   0.4625000007E+01
   0.2129080074E+01   0.9677392315E+00   0.1480843516E-16  -0.4500000000E-02   0.1122750000E-02  -0.3646772185E-18   0.1335800738E+00  -0.3338351846E-01   0.1517311238E-16   0.4625000006E+01   0.6409916886E-13   0.6630765777E-13   0.9090263390E-15  -0.1367823737E-15  -0.1113353237E-14   0.6454003700E-01  -0.3226076850E-01  -0.3226076850E-01  -0.1058840317E-15   0.8502269893E-16   0.2454216469E-16   0.4625000006E+01
   0.2129080074E+01   0.0000000000E+00   0.9677392315E+00  -0.4500000000E-02   0.0000000000E+00   0.1122750000E-02   0.1335800738E+00   0.0000000000E+00  -0.3338351846E-01   0.4625000006E+01   0.4140369888E-13   0.4580473508E-13  -0.2115703460E-15  -0.3265527447E-15   0.1057022995E-14   0.6454003700E-01  -0.3226076850E-01  -0.3226076850E-01  -0.1360954304E-15   0.9040351069E-16  -0.4422307079E-16   0.4625000006E+01
   0.2129080074E+01   0.9677392315E+00   0.9677392315E+00  -0.4500000000E-02   0.1122750000E-02   0.1122750000E-02   0.1335800738E+00  -0.3338351846E-01  -0.3338351846E-01   0.4625000006E+01  -0.1375992525E-13  -0.1663600672E-13  -0.5059688693E-16  -0.5413410461E-16  -0.8825960219E-15   0.6454003699E-01  -0.3226076850E-01  -0.3226076850E-01  -0.1042686106E-15  -0.8993476792E-16   0.1344466937E-16   0.4625000006E+01
     1     2     3     4     5     6     7     8
     2     9    10     3     6    11    12     7
 VARIABLES = X,Y,Z,DU1,DU2,DU3,U1,U2,U3,S11,S22,S33,S12,S13,S23,E11,E22,E33,E12,E13,E23,SMISES
 ZONE, T="0.1400D+01" F=FEPOINT, I=   12 J=    2 ET=BRICK
   0.0000000000E+00   0.0000000000E+00   0.0000000000E+00   0.0000000000E+00   0.0000000000E+00   0.0000000000E+00   0.0000000000E+00   0.0000000000E+00   0.0000000000E+00   0.3500000005E+01   0.1483931643E-13   0.1378367976E-13   0.5276131268E-16  -0.7062809143E-15   0.7094679426E-15   0.6229003701E-01  -0.3113801850E-01  -0.3113801850E-01   0.2548144576E-17  -0.5649242736E-16  -0.6994825563E-16   0.3500000005E+01
   0.1062290037E+01   0.0000000000E+00  -0.9335280800E-17  -0.2250000000E-02   0.0000000000E+00  -0.1043312291E-17   0.6454003691E-01   0.0000000000E+00  -0.8291968509E-17   0.3500000005E+01   0.8666808537E-13   0.8661257405E-13  -0.5695019220E-15  -0.1542066626E-15   0.5752604597E-15   0.6229003701E-01  -0.3113801850E-01  -0.3113801850E-01  -0.2843738177E-16  -0.2581223288E-16  -0.1539785768E-16   0.3500000005E+01
   0.1062290037E+01   0.9688619815E+00  -0.2511060165E-16  -0.2250000000E-02   0.1122750000E-02   0.6014599972E-18   0.6454003691E-01  -0.3226076846E-01  -0.2571206164E-16   0.3500000005E+01  -0.5870648447E-13  -0.6173568420E-13  -0.1995168797E-15   0.3599339622E-15  -0.3705137750E-15   0.6229003700E-01  -0.3113801850E-01  -0.3113801850E-01  -0.8441577131E-17  -0.5458399591E-17  -0.5425053376E-16   0.3500000005E+01
   0.0000000000E+00   0.9688619815E+00  -0.3194893730E-16   0.0000000000E+00   0.1122750000E-02   0.9893640422E-18   0.0000000000E+00  -0.3226076846E-01  -0.3293830134E-16   0.3500000005E+01  -0.6964977965E-13  -0.7046159446E-13  -0.1357332678E-15  -0.4850804159E-15  -0.1130262935E-14   0.6229003700E-01  -0.3113801850E-01  -0.3113801850E-01   0.6653643765E-17   0.9950479330E-17  -0.7510500110E-19   0.3500000005E+01
   0.0000000000E+00   0.0000000000E+00   0.9688619815E+00   0.0000000000E+00   0.0000000000E+00   0.1122750000E-02   0.0000000000E+00   0.0000000000E+00  -0.3226076846E-01   0.3500000005E+01  -0.7126376853E-13  -0.7249099197E-13  -0.1214832677E-15  -0.3979763212E-15   0.1006281704E-14   0.6229003700E-01  -0.3113801850E-01  -0.3113801850E-01  -0.1511809171E-17   0.7995732180E-17  -0.1704449393E-16   0.3500000005E+01
   0.1062290037E+01   0.0000000000E+00   0.9688619815E+00  -0.2250000000E-02   0.0000000000E+00   0.1122750000E-02   0.6454003691E-01   0.0000000000E+00  -0.3226076846E-01   0.3500000005E+01  -0.2508829857E-13  -0.2466997207E-13   0.5043867980E-15   0.2441368685E-15   0.9756297846E-15   0.6229003700E-01  -0.3113801850E-01  -0.3113801850E-01  -0.1264826477E-16  -0.2228301331E-16  -0.2156539405E-16   0.3500000005E+01
   0.1062290037E+01   0.9688619815E+00   0.9688619815E+00  -0.2250000000E-02   0.1122750000E-02   0.1122750000E-02   0.6454003691E-01  -0.3226076846E-01  -0.3226076846E-01   0.3500000005E+01   0.4644414861E-13   0.4883696296E-13   0.4837513066E-15   0.1156768108E-14  -0.7435321821E-15   0.6229003699E-01  -0.3113801850E-01  -0.3113801850E-01  -0.2947737188E-16  -0.3443051056E-16   0.1638500557E-16   0.3500000005E+01
   0.0000000000E+00   0.9688619815E+00   0.9688619815E+00   0.0000000000E+00   0.1122750000E-02   0.1122750000E-02   0.0000000000E+00  -0.3226076846E-01  -0.3226076846E-01   0.3500000005E+01  -0.9930535370E-14  -0.7505979791E-14   0.8869000059E-15  -0.5766134336E-15  -0.2971233912E-15   0.6229003699E-01  -0.3113801850E-01  -0.3113801850E-01  -0.1569467567E-16   0.1606459385E-16   0.1180036449E-16   0.3500000005E+01
   0.2124580074E+01   0.0000000000E+00   0.1948473408E-16  -0.4500000000E-02   0.0000000000E+00  -0.2731670356E-18   0.1290800738E+00   0.0000000000E+00   0.1975790112E-16   0.3500000005E+01   0.1270845251E-12   0.1244647560E-12  -0.1717292945E-15  -0.8234826517E-15   0.3629062401E-15   0.6229003701E-01  -0.3113801850E-01  -0.3113801850E-01  -0.1383396895E-15  -0.6605054770E-16  -0.2702921430E-16   0.3500000005E+01
   0.2124580074E+01   0.9688619815E+00   0.1333852756E-16  -0.4500000000E-02   0.1122750000E-02  -0.1469907599E-17   0.1290800738E+00  -0.3226076846E-01   0.1480843516E-16   0.3500000005E+01  -0.3571584197E-13  -0.3329818985E-13   0.8059059057E-16   0.3989214979E-15  -0.1286290500E-14   0.6229003700E-01  -0.3113801850E-01  -0.3113801850E-01  -0.1392365508E-15   0.2155010381E-15   0.4104189444E-16   0.3500000005E+01
   0.2124580074E+01   0.0000000000E+00   0.9688619815E+00  -0.4500000000E-02   0.0000000000E+00   0.1122750000E-02   0.1290800738E+00   0.0000000000E+00  -0.3226076846E-01   0.3500000005E+01  -0.4480312606E-13  -0.4040408257E-13   0.7566426626E-15  -0.1316555113E-14   0.8190955570E-15   0.6229003700E-01  -0.3113801850E-01  -0.3113801850E-01  -0.9833900679E-16   0.4913225921E-17  -0.9657111304E-17   0.3500000005E+01
   0.2124580074E+01   0.9688619815E+00   0.9688619815E+00  -0.4500000000E-02   0.1122750000E-02   0.1122750000E-02   0.1290800738E+00  -0.3226076846E-01  -0.3226076846E-01   0.3500000004E+01   0.9538731721E-13   0.9285173970E-13   0.6962017041E-15   0.6058394840E-15  -0.1141964948E-14   0.6229003699E-01  -0.3113801850E-01  -0.3113801850E-01  -0.6692320442E-16  -0.2874854348E-16  -0.5537401553E-17   0.3500000004E+01
     1     2     3     4     5     6     7     8
     2     9    10     3     6    11    12     7
 VARIABLES = X,Y,Z,DU1,DU2,DU3,U1,U2,U3,S11,S22,S33,S12,S13,S23,E11,E22,E33,E12,E13,E23,SMISES
 ZONE, T="0.1450D+01" F=FEPOINT, I=   12 J=    2 ET=BRICK
   0.0000000000E+00   0.0000000000E+00   0.0000000000E+00   0.0000000000E+00   0.0000000000E+00   0.0000000000E+00   0.0000000000E+00   0.0000000000E+00   0.0000000000E+00   0.2375000004E+01  -0.2667912654E-13  -0.2788097815E-13   0.5950788977E-16  -0.5188932295E-15   0.4380225549E-15   0.6004003701E-01  -0.3001526850E-01  -0.3001526850E-01  -0.7096024750E-17  -0.2417399636E-16  -0.6507914492E-16   0.2375000004E+01
   0.1060040037E+01   0.0000000000E+00  -0.8710188880E-17  -0.2250000000E-02   0.0000000000E+00   0.6250919199E-18   0.6229003691E-01   0.0000000000E+00  -0.9335280800E-17   0.2375000004E+01  -0.1300959072E-13  -0.1285248731E-13  -0.3721572908E-15  -0.1195741317E-15   0.4202197663E-15   0.6004003700E-01  -0.3001526850E-01  -0.3001526850E-01  -0.1745395677E-16  -0.5890824080E-16  -0.2991715620E-16   0.2375000004E+01
   0.1060040037E+01   0.9699847315E+00  -0.2540759547E-16  -0.2250000000E-02   0.1122750000E-02  -0.2969938250E-18   0.6229003691E-01  -0.3113801846E-01  -0.2511060165E-16   0.2375000003E+01  -0.2448147028E-13  -0.2752554417E-13  -0.1534589425E-16   0.3116164519E-15  -0.3144553751E-15   0.6004003700E-01  -0.3001526850E-01  -0.3001526850E-01  -0.2032300691E-16  -0.1570131644E-16  -0.2545060147E-16   0.2375000003E+01
   0.0000000000E+00   0.9699847315E+00  -0.3344162862E-16   0.0000000000E+00   0.1122750000E-02  -0.1492691322E-17   0.0000000000E+00  -0.3113801846E-01  -0.3194893730E-16   0.2375000003E+01  -0.2314484686E-13  -0.2322339873E-13  -0.7335238834E-17  -0.3754406047E-15  -0.1086858253E-14   0.6004003700E-01  -0.3001526850E-01  -0.3001526850E-01   0.1228799210E-16  -0.5216500128E-17  -0.1734260195E-16   0.2375000003E+01
   0.0000000000E+00   0.0000000000E+00   0.9699847315E+00   0.0000000000E+00   0.0000000000E+00   0.1122750000E-02   0.0000000000E+00   0.0000000000E+00  -0.3113801846E-01   0.2375000003E+01  -0.4845398073E-13  -0.5009826718E-13  -0.9054084469E-16  -0.3729435617E-15   0.9333388590E-15   0.6004003700E-01  -0.3001526850E-01  -0.3001526850E-01   0.2937542952E-17  -0.7886703504E-17  -0.2804810454E-16   0.2375000003E+01
   0.1060040037E+01   0.0000000000E+00   0.9699847315E+00  -0.2250000000E-02   0.0000000000E+00   0.1122750000E-02   0.6229003691E-01   0.0000000000E+00  -0.3113801846E-01   0.2375000003E+01  -0.1602562379E-13  -0.1584023053E-13   0.1645149279E-15   0.5884079957E-15   0.8335902623E-15   0.6004003700E-01  -0.3001526850E-01  -0.3001526850E-01  -0.4300004228E-16  -0.8272309765E-18  -0.1777678226E-16   0.2375000003E+01
   0.1060040037E+01   0.9699847315E+00   0.9699847315E+00  -0.2250000000E-02   0.1122750000E-02   0.1122750000E-02   0.6229003691E-01  -0.3113801846E-01  -0.3113801846E-01   0.2375000003E+01  -0.2743334381E-13  -0.2537904068E-13   0.2718075613E-15   0.7972132371E-15  -0.6621810878E-15   0.6004003699E-01  -0.3001526849E-01  -0.3001526849E-01  -0.4017305579E-16  -0.6225902899E-16   0.1253861303E-16   0.2375000003E+01
   0.0000000000E+00   0.9699847315E+00   0.9699847315E+00   0.0000000000E+00   0.1122750000E-02   0.1122750000E-02   0.0000000000E+00  -0.3113801846E-01  -0.3113801846E-01   0.2375000003E+01   0.4724240570E-13   0.4967439836E-13   0.8033200892E-15  -0.4523736567E-15  -0.1169727424E-15   0.6004003699E-01  -0.3001526850E-01  -0.3001526850E-01  -0.1203533127E-16   0.4329607182E-16  -0.1048512478E-16   0.2375000003E+01
   0.2120080074E+01   0.0000000000E+00   0.2083902808E-16  -0.4500000000E-02   0.0000000000E+00   0.1354294002E-17   0.1245800738E+00   0.0000000000E+00   0.1948473408E-16   0.2375000004E+01  -0.4174444767E-13  -0.4431813550E-13   0.4047280195E-15  -0.4629731509E-15   0.5179489267E-15   0.6004003700E-01  -0.3001526850E-01  -0.3001526850E-01  -0.8492659369E-16   0.7269075846E-16  -0.1829976967E-16   0.2375000004E+01
   0.2120080074E+01   0.9699847315E+00   0.1553575770E-16  -0.4500000000E-02   0.1122750000E-02   0.2197230134E-17   0.1245800738E+00  -0.3113801846E-01   0.1333852756E-16   0.2375000003E+01   0.2849522141E-13   0.3086752161E-13   0.6867266659E-15  -0.4493263545E-16  -0.1051245264E-14   0.6004003700E-01  -0.3001526850E-01  -0.3001526850E-01  -0.8295977604E-16   0.2141376904E-16   0.2598212619E-16   0.2375000003E+01
   0.2120080074E+01   0.0000000000E+00   0.9699847315E+00  -0.4500000000E-02   0.0000000000E+00   0.1122750000E-02   0.1245800738E+00   0.0000000000E+00  -0.3113801846E-01   0.2375000003E+01  -0.6117842750E-13  -0.5677666186E-13   0.3404206617E-15  -0.1130865945E-14   0.8195065255E-15   0.6004003700E-01  -0.3001526850E-01  -0.3001526850E-01  -0.1353890581E-15   0.3480439803E-16  -0.2234578183E-16   0.2375000003E+01
   0.2120080074E+01   0.9699847315E+00   0.9699847315E+00  -0.4500000000E-02   0.1122750000E-02   0.1122750000E-02   0.1245800738E+00  -0.3113801846E-01  -0.3113801846E-01   0.2375000003E+01  -0.6624277446E-13  -0.6932204084E-13   0.2760711874E-15   0.3829622983E-15  -0.9634270049E-15   0.6004003699E-01  -0.3001526849E-01  -0.3001526849E-01  -0.1385172245E-15  -0.4530204281E-17   0.1289387176E-16   0.2375000003E+01
     1     2     3     4     5     6     7     8
     2     9    10     3     6    11    12     7
 VARIABLES = X,Y,Z,DU1,DU2,DU3,U1,U2,U3,S11,S22,S33,S12,S13,S23,E11,E22,E33,E12,E13,E23,SMISES
 ZONE, T="0.1500D+01" F=FEPOINT, I=   12 J=    2 ET=BRICK
   0.0000000000E+00   0.0000000000E+00   0.0000000000E+00   0.0000000000E+00   0.0000000000E+00   0.0000000000E+00   0.0000000000E+00   0.0000000000E+00   0.0000000000E+00   0.1250000002E+01  -0.4746915534E-13  -0.4868153089E-13   0.3142530123E-16  -0.5691291536E-15   0.4890337662E-15   0.5779003700E-01  -0.2889251850E-01  -0.2889251850E-01   0.9128302793E-17  -0.3887641700E-16  -0.7349756512E-16   0.1250000002E+01
   0.1057790037E+01   0.0000000000E+00  -0.9038457274E-17  -0.2250000000E-02   0.0000000000E+00  -0.3282683937E-18   0.6004003691E-01   0.0000000000E+00  -0.8710188880E-17   0.1250000002E+01   0.9774466207E-14   0.9800228849E-14  -0.1813758691E-15   0.1705161936E-15   0.4206015123E-15   0.5779003700E-01  -0.2889251850E-01  -0.2889251850E-01  -0.3306039333E-16  -0.2443700030E-16  -0.2503489015E-16   0.1250000002E+01
   0.1057790037E+01   0.9711074815E+00  -0.2582701123E-16  -0.2250000000E-02   0.1122750000E-02  -0.4194157591E-18   0.6004003691E-01  -0.3001526846E-01  -0.2540759547E-16   0.1250000002E+01   0.1693212087E-13   0.1398891002E-13   0.1356434768E-15   0.7570178618E-16  -0.4926085541E-15   0.5779003699E-01  -0.2889251850E-01  -0.2889251850E-01  -0.1469945333E-16  -0.4401872261E-16  -0.3658008657E-16   0.1250000002E+01
   0.0000000000E+00   0.9711074815E+00  -0.3292375271E-16   0.0000000000E+00   0.1122750000E-02   0.5178759157E-18   0.0000000000E+00  -0.3001526846E-01  -0.3344162862E-16   0.1250000002E+01   0.4506134012E-13   0.4470078457E-13  -0.1164914362E-15  -0.4760279490E-15  -0.1079851145E-14   0.5779003700E-01  -0.2889251850E-01  -0.2889251850E-01   0.1974079274E-16   0.1085239487E-16  -0.5495488067E-17   0.1250000002E+01
   0.0000000000E+00   0.0000000000E+00   0.9711074815E+00   0.0000000000E+00   0.0000000000E+00   0.1122750000E-02   0.0000000000E+00   0.0000000000E+00  -0.3001526846E-01   0.1250000002E+01   0.5279581653E-13   0.5156079129E-13  -0.9254012380E-16  -0.5268504401E-15   0.8522605086E-15   0.5779003700E-01  -0.2889251850E-01  -0.2889251850E-01  -0.6600557089E-17  -0.1134680590E-16  -0.2805711580E-16   0.1250000002E+01
   0.1057790037E+01   0.0000000000E+00   0.9711074815E+00  -0.2250000000E-02   0.0000000000E+00   0.1122750000E-02   0.6004003691E-01   0.0000000000E+00  -0.3001526846E-01   0.1250000002E+01   0.1222571296E-13   0.1255532841E-13  -0.6128746543E-16   0.7205314961E-15   0.9751955023E-15   0.5779003699E-01  -0.2889251850E-01  -0.2889251850E-01  -0.2185822684E-16  -0.7089955881E-20  -0.1932934583E-16   0.1250000002E+01
   0.1057790037E+01   0.9711074815E+00   0.9711074815E+00  -0.2250000000E-02   0.1122750000E-02   0.1122750000E-02   0.6004003691E-01  -0.3001526846E-01  -0.3001526846E-01   0.1250000002E+01  -0.3462304827E-13  -0.3227558584E-13   0.1096155596E-15   0.6714273712E-15  -0.5634747195E-15   0.5779003699E-01  -0.2889251849E-01  -0.2889251849E-01  -0.3395474612E-16  -0.1092345426E-16  -0.3540879788E-17   0.1250000002E+01
   0.0000000000E+00   0.9711074815E+00   0.9711074815E+00   0.0000000000E+00   0.1122750000E-02   0.1122750000E-02   0.0000000000E+00  -0.3001526846E-01  -0.3001526846E-01   0.1250000002E+01  -0.6007225444E-13  -0.5765785808E-13   0.7862320501E-15  -0.3527254099E-15  -0.4274595284E-15   0.5779003699E-01  -0.2889251849E-01  -0.2889251849E-01  -0.1502090141E-16   0.4410094603E-16  -0.2616901115E-18   0.1250000002E+01
   0.2115580074E+01   0.0000000000E+00   0.1936072067E-16  -0.4500000000E-02   0.0000000000E+00  -0.1478307418E-17   0.1200800738E+00   0.0000000000E+00   0.2083902808E-16   0.1250000002E+01   0.1216279900E-12   0.1189781078E-12   0.2751983171E-15  -0.4606688465E-15   0.4944380557E-15   0.5779003700E-01  -0.2889251850E-01  -0.2889251850E-01  -0.1175557957E-15  -0.8319932525E-16  -0.1453396888E-16   0.1250000002E+01
   0.2115580074E+01   0.9711074815E+00   0.1396418117E-16  -0.4500000000E-02   0.1122750000E-02  -0.1571576526E-17   0.1200800738E+00  -0.3001526846E-01   0.1553575770E-16   0.1250000002E+01  -0.7642390143E-13  -0.7405804194E-13   0.5954138865E-15   0.3215364763E-16  -0.1035193623E-14   0.5779003699E-01  -0.2889251850E-01  -0.2889251850E-01  -0.1483380110E-15   0.5449583339E-16   0.2133005529E-16   0.1250000002E+01
   0.2115580074E+01   0.0000000000E+00   0.9711074815E+00  -0.4500000000E-02   0.0000000000E+00   0.1122750000E-02   0.1200800738E+00   0.0000000000E+00  -0.3001526846E-01   0.1250000002E+01   0.4515115267E-13   0.4944153131E-13  -0.8670459830E-16  -0.9656783412E-15   0.8896115059E-15   0.5779003699E-01  -0.2889251850E-01  -0.2889251850E-01  -0.1156601599E-15   0.2144100363E-16  -0.3040569342E-16   0.1250000002E+01
   0.2115580074E+01   0.9711074815E+00   0.9711074815E+00  -0.4500000000E-02   0.1122750000E-02   0.1122750000E-02   0.1200800738E+00  -0.3001526846E-01  -0.3001526846E-01   0.1250000002E+01  -0.3849678812E-13  -0.4162884347E-13  -0.1390233187E-17   0.1388152664E-15  -0.8785969267E-15   0.5779003699E-01  -0.2889251849E-01  -0.2889251849E-01  -0.8072120026E-16  -0.6706371494E-16   0.2869669192E-17   0.1250000002E+01
     1     2     3     4     5     6     7     8
     2     9    10     3     6    11    12     7
 VARIABLES = X,Y,Z,DU1,DU2,DU3,U1,U2,U3,S11,S22,S33,S12,S13,S23,E11,E22,E33,E12,E13,E23,SMISES
 ZONE, T="0.1550D+01" F=FEPOINT, I=   12 J=    2 ET=BRICK
   0.0000000000E+00   0.0000000000E+00   0.0000000000E+00   0.0000000000E+00   0.0000000000E+00   0.0000000000E+00   0.0000000000E+00   0.0000000000E+00   0.0000000000E+00   0.1250000002E+00  -0.4541015405E-14  -0.5814021191E-14   0.5564883679E-16  -0.6874638179E-15   0.3813863316E-15   0.5554003700E-01  -0.2776976850E-01  -0.2776976850E-01   0.3315140593E-17  -0.2349634522E-16  -0.7006530376E-16   0.1250000002E+00
   0.1055540037E+01   0.0000000000E+00  -0.9404231497E-17  -0.2250000000E-02   0.0000000000E+00  -0.3657742227E-18   0.5779003691E-01   0.0000000000E+00  -0.9038457274E-17   0.1250000002E+00  -0.7027007646E-14  -0.7006178933E-14  -0.5088604310E-15  -0.2084225780E-16   0.4016750652E-15   0.5554003700E-01  -0.2776976850E-01  -0.2776976850E-01  -0.3854069868E-16  -0.5972926784E-16  -0.3516305664E-16   0.1250000002E+00
   0.1055540037E+01   0.9722302315E+00  -0.2628555796E-16  -0.2250000000E-02   0.1122750000E-02  -0.4585467320E-18   0.5779003691E-01  -0.2889251846E-01  -0.2582701123E-16   0.1250000002E+00  -0.2997609047E-13  -0.3294750949E-13  -0.1539160129E-15   0.2755087155E-15  -0.5012743461E-15   0.5554003699E-01  -0.2776976850E-01  -0.2776976850E-01  -0.3716244701E-16   0.1491265712E-16  -0.3654144999E-16   0.1250000002E+00
   0.0000000000E+00   0.9722302315E+00  -0.3334826891E-16   0.0000000000E+00   0.1122750000E-02  -0.4245162048E-18   0.0000000000E+00  -0.2889251846E-01  -0.3292375271E-16   0.1250000002E+00  -0.4209592344E-13  -0.4205049428E-13  -0.2411290136E-16  -0.4365006210E-15  -0.1001958061E-14   0.5554003699E-01  -0.2776976850E-01  -0.2776976850E-01   0.3619615529E-16  -0.1055954063E-17  -0.1949573457E-16   0.1250000002E+00
   0.0000000000E+00   0.0000000000E+00   0.9722302315E+00   0.0000000000E+00   0.0000000000E+00   0.1122750000E-02   0.0000000000E+00   0.0000000000E+00  -0.2889251846E-01   0.1250000002E+00  -0.3648876178E-13  -0.3793542489E-13  -0.8171676061E-16  -0.4553697648E-15   0.1014320084E-14   0.5554003699E-01  -0.2776976850E-01  -0.2776976850E-01  -0.5540822695E-17  -0.3538765025E-17  -0.1859009918E-16   0.1250000002E+00
   0.1055540037E+01   0.0000000000E+00   0.9722302315E+00  -0.2250000000E-02   0.0000000000E+00   0.1122750000E-02   0.5779003691E-01   0.0000000000E+00  -0.2889251846E-01   0.1250000002E+00   0.9483127976E-14   0.9797027523E-14   0.4524584057E-17   0.4699620005E-15   0.9910751908E-15   0.5554003699E-01  -0.2776976850E-01  -0.2776976850E-01  -0.1396969607E-16  -0.1916330396E-16  -0.5044854437E-17   0.1250000002E+00
   0.1055540037E+01   0.9722302315E+00   0.9722302315E+00  -0.2250000000E-02   0.1122750000E-02   0.1122750000E-02   0.5779003691E-01  -0.2889251846E-01  -0.2889251846E-01   0.1250000002E+00   0.4073272473E-13   0.4302697896E-13   0.1580296485E-15   0.7488106723E-15  -0.5755258290E-15   0.5554003698E-01  -0.2776976849E-01  -0.2776976849E-01  -0.1052648301E-16  -0.2759950739E-16   0.1473782775E-16   0.1250000002E+00
   0.0000000000E+00   0.9722302315E+00   0.9722302315E+00   0.0000000000E+00   0.1122750000E-02   0.1122750000E-02   0.0000000000E+00  -0.2889251846E-01  -0.2889251846E-01   0.1250000002E+00  -0.8863513607E-14  -0.6187031161E-14   0.7304999703E-15  -0.4839973853E-15  -0.2469907731E-15   0.5554003699E-01  -0.2776976849E-01  -0.2776976849E-01  -0.2715505905E-16   0.3451246542E-16   0.4732925066E-18   0.1250000002E+00
   0.2111080074E+01   0.0000000000E+00   0.1859773838E-16  -0.4500000000E-02   0.0000000000E+00  -0.7629822851E-18   0.1155800738E+00   0.0000000000E+00   0.1936072067E-16   0.1250000002E+00  -0.5188196878E-13  -0.5494420187E-13   0.4191301889E-15  -0.2942721480E-15   0.4747386348E-15   0.5554003700E-01  -0.2776976850E-01  -0.2776976850E-01  -0.6724122845E-16  -0.4055075102E-16  -0.1514630500E-16   0.1250000002E+00
   0.2111080074E+01   0.9722302315E+00   0.1293017891E-16  -0.4500000000E-02   0.1122750000E-02  -0.1034002262E-17   0.1155800738E+00  -0.2889251846E-01   0.1396418117E-16   0.1250000002E+00   0.3655642609E-13   0.3886345233E-13   0.8426607636E-15   0.1971419262E-15  -0.1219448490E-14   0.5554003699E-01  -0.2776976849E-01  -0.2776976849E-01  -0.9157626135E-16   0.3019265633E-16   0.3227442610E-16   0.1250000002E+00
   0.2111080074E+01   0.0000000000E+00   0.9722302315E+00  -0.4500000000E-02   0.0000000000E+00   0.1122750000E-02   0.1155800738E+00   0.0000000000E+00  -0.2889251846E-01   0.1250000002E+00  -0.2198514106E-13  -0.1779793898E-13   0.5837312764E-16  -0.8660652346E-15   0.9460550267E-15   0.5554003699E-01  -0.2776976849E-01  -0.2776976849E-01  -0.1345338047E-15   0.1510156896E-16  -0.3636459047E-16   0.1250000002E+00
   0.2111080074E+01   0.9722302315E+00   0.9722302315E+00  -0.4500000000E-02   0.1122750000E-02   0.1122750000E-02   0.1155800738E+00  -0.2889251846E-01  -0.2889251846E-01   0.1250000002E+00   0.1266886727E-12   0.1238074689E-12  -0.4932634154E-17   0.3714027571E-15  -0.9194784139E-15   0.5554003698E-01  -0.2776976849E-01  -0.2776976849E-01  -0.1226375357E-15  -0.9057012517E-16   0.8900230600E-17   0.1250000002E+00
     1     2     3     4     5     6     7     8
     2     9    10     3     6    11    12     7
 VARIABLES = X,Y,Z,DU1,DU2,DU3,U1,U2,U3,S11,S22,S33,S12,S13,S23,E11,E22,E33,E12,E13,E23,SMISES
 ZONE, T="0.1600D+01" F=FEPOINT, I=   12 J=    2 ET=BRICK
   0.0000000000E+00   0.0000000000E+00   0.0000000000E+00   0.0000000000E+00   0.0000000000E+00   0.0000000000E+00   0.0000000000E+00   0.0000000000E+00   0.0000000000E+00  -0.1000000002E+01  -0.4854987589E-13  -0.4973177371E-13   0.5431842707E-16  -0.5552729878E-15   0.5780954504E-15   0.5329003700E-01  -0.2664701850E-01  -0.2664701850E-01   0.2324087525E-17  -0.4770172654E-16  -0.6441655087E-16   0.1000000002E+01
   0.1053290037E+01   0.0000000000E+00  -0.9019045493E-17  -0.2250000000E-02   0.0000000000E+00   0.3851860037E-18   0.5554003691E-01   0.0000000000E+00  -0.9404231497E-17  -0.1000000002E+01  -0.5967062471E-13  -0.5972341386E-13  -0.2348273018E-15   0.1012039753E-15   0.3010588124E-15   0.5329003699E-01  -0.2664701850E-01  -0.2664701850E-01  -0.3163644811E-16  -0.2092093683E-16  -0.2605208146E-16   0.1000000002E+01
   0.1053290037E+01   0.9733529815E+00  -0.2641603519E-16  -0.2250000000E-02   0.1122750000E-02  -0.1304772266E-18   0.5554003691E-01  -0.2776976846E-01  -0.2628555796E-16  -0.1000000001E+01   0.3290660981E-13   0.3001147302E-13   0.2359873951E-16   0.2071981183E-15  -0.5913725683E-15   0.5329003699E-01  -0.2664701849E-01  -0.2664701849E-01  -0.1720797135E-16  -0.1047131038E-16  -0.4712339420E-16   0.1000000001E+01
   0.0000000000E+00   0.9733529815E+00  -0.3231572395E-16   0.0000000000E+00   0.1122750000E-02   0.1032544958E-17   0.0000000000E+00  -0.2776976846E-01  -0.3334826891E-16  -0.1000000001E+01  -0.4288631117E-13  -0.4329902402E-13  -0.1423048761E-16  -0.7065157012E-15  -0.9655691485E-15   0.5329003699E-01  -0.2664701849E-01  -0.2664701849E-01   0.4306438602E-16  -0.1551111480E-17  -0.1128219181E-16   0.1000000001E+01
   0.0000000000E+00   0.0000000000E+00   0.9733529815E+00   0.0000000000E+00   0.0000000000E+00   0.1122750000E-02   0.0000000000E+00   0.0000000000E+00  -0.2776976846E-01  -0.1000000001E+01   0.5081810309E-13   0.4961355559E-13  -0.6634036715E-16  -0.4900044628E-15   0.8776509493E-15   0.5329003699E-01  -0.2664701849E-01  -0.2664701849E-01  -0.3676568929E-17   0.2261579085E-17  -0.3041005806E-16   0.1000000001E+01
   0.1053290037E+01   0.0000000000E+00   0.9733529815E+00  -0.2250000000E-02   0.0000000000E+00   0.1122750000E-02   0.5554003691E-01   0.0000000000E+00  -0.2776976846E-01  -0.1000000001E+01   0.4362726141E-13   0.4402254725E-13   0.5457843113E-16   0.6273290454E-15   0.9705414596E-15   0.5329003699E-01  -0.2664701849E-01  -0.2664701849E-01  -0.2618041862E-16  -0.3745084467E-16   0.8078284284E-17   0.1000000001E+01
   0.1053290037E+01   0.9733529815E+00   0.9733529815E+00  -0.2250000000E-02   0.1122750000E-02   0.1122750000E-02   0.5554003691E-01  -0.2776976846E-01  -0.2776976846E-01  -0.1000000001E+01  -0.2604864883E-13  -0.2365311233E-13   0.3342759528E-15   0.7986245233E-15  -0.6924847632E-15   0.5329003698E-01  -0.2664701849E-01  -0.2664701849E-01  -0.1914847553E-16  -0.1992296587E-16   0.1364664105E-16   0.1000000001E+01
   0.0000000000E+00   0.9733529815E+00   0.9733529815E+00   0.0000000000E+00   0.1122750000E-02   0.1122750000E-02   0.0000000000E+00  -0.2776976846E-01  -0.2776976846E-01  -0.1000000001E+01   0.6768213241E-13   0.7006369356E-13   0.6770152023E-15  -0.4242611118E-15  -0.3343430600E-15   0.5329003698E-01  -0.2664701849E-01  -0.2664701849E-01  -0.2499759353E-16   0.2309897591E-16   0.4314943740E-18   0.1000000001E+01
   0.2106580074E+01   0.0000000000E+00   0.1824555939E-16  -0.4500000000E-02   0.0000000000E+00  -0.3521789955E-18   0.1110800738E+00   0.0000000000E+00   0.1859773838E-16  -0.1000000002E+01  -0.1628704927E-13  -0.1906355731E-13   0.7426338755E-15  -0.1966863228E-15   0.5311805686E-15   0.5329003699E-01  -0.2664701850E-01  -0.2664701850E-01  -0.1063239620E-15  -0.1516189514E-16  -0.1707696771E-16   0.1000000002E+01
   0.2106580074E+01   0.9733529815E+00   0.1284787392E-16  -0.4500000000E-02   0.1122750000E-02  -0.8230498645E-19   0.1110800738E+00  -0.2776976846E-01   0.1293017891E-16  -0.1000000001E+01   0.4336714976E-13   0.4582035923E-13   0.1051911598E-14  -0.4346677394E-15  -0.1053166798E-14   0.5329003699E-01  -0.2664701849E-01  -0.2664701849E-01  -0.1394500792E-15   0.4462804274E-16   0.1707702557E-16   0.1000000001E+01
   0.2106580074E+01   0.0000000000E+00   0.9733529815E+00  -0.4500000000E-02   0.0000000000E+00   0.1122750000E-02   0.1110800738E+00   0.0000000000E+00  -0.2776976846E-01  -0.1000000001E+01   0.1103259853E-12   0.1144897381E-12  -0.3086147477E-15  -0.4506978333E-15   0.1049322623E-14   0.5329003699E-01  -0.2664701849E-01  -0.2664701849E-01  -0.1150450370E-15   0.1195626098E-15  -0.2691254584E-16   0.1000000001E+01
   0.2106580074E+01   0.9733529815E+00   0.9733529815E+00  -0.4500000000E-02   0.1122750000E-02   0.1122750000E-02   0.1110800738E+00  -0.2776976846E-01  -0.2776976846E-01  -0.1000000001E+01  -0.1487083537E-12  -0.1514839369E-12  -0.4186965086E-15   0.2608329643E-15  -0.6953077535E-15   0.5329003698E-01  -0.2664701849E-01  -0.2664701849E-01  -0.8407228399E-16  -0.1566624005E-15  -0.7888630566E-17   0.1000000001E+01
     1     2     3     4     5     6     7     8
     2     9    10     3     6    11    12     7
 VARIABLES = X,Y,Z,DU1,DU2,DU3,U1,U2,U3,S11,S22,S33,S12,S13,S23,E11,E22,E33,E12,E13,E23,SMISES
 ZONE, T="0.1650D+01" F=FEPOINT, I=   12 J=    2 ET=BRICK
   0.0000000000E+00   0.0000000000E+00   0.0000000000E+00   0.0000000000E+00   0.0000000000E+00   0.0000000000E+00   0.0000000000E+00   0.0000000000E+00   0.0000000000E+00  -0.2125000003E+01   0.3042872216E-13   0.2911820570E-13   0.5662561291E-16  -0.5430628892E-15   0.6808964483E-15   0.5104003699E-01  -0.2552426850E-01  -0.2552426850E-01  -0.3043711491E-17  -0.3310235237E-16  -0.5758661682E-16   0.2125000003E+01
   0.1051040037E+01   0.0000000000E+00  -0.8641984506E-17  -0.2250000000E-02   0.0000000000E+00   0.3770609867E-18   0.5329003691E-01   0.0000000000E+00  -0.9019045493E-17  -0.2125000003E+01   0.1296143855E-13   0.1281993836E-13  -0.2344617648E-15   0.6056521851E-16   0.3902244897E-15   0.5104003699E-01  -0.2552426850E-01  -0.2552426850E-01  -0.2969870580E-16  -0.5627341385E-16  -0.3316361670E-16   0.2125000003E+01
   0.1051040037E+01   0.9744757315E+00  -0.2536204982E-16  -0.2250000000E-02   0.1122750000E-02   0.1053985369E-17   0.5329003691E-01  -0.2664701846E-01  -0.2641603519E-16  -0.2125000003E+01   0.2413729317E-13   0.2113113408E-13  -0.4375973038E-16   0.1191837502E-15  -0.4721503103E-15   0.5104003698E-01  -0.2552426849E-01  -0.2552426849E-01  -0.3223839205E-16  -0.2598060537E-16  -0.4536600559E-16   0.2125000003E+01
   0.0000000000E+00   0.9744757315E+00  -0.3163830356E-16   0.0000000000E+00   0.1122750000E-02   0.6774203904E-18   0.0000000000E+00  -0.2664701846E-01  -0.3231572395E-16  -0.2125000003E+01  -0.4144228449E-13  -0.4229138245E-13  -0.1466189849E-15  -0.6159721182E-15  -0.1004301257E-14   0.5104003699E-01  -0.2552426849E-01  -0.2552426849E-01   0.4626134353E-16   0.9966962421E-17  -0.2211382444E-16   0.2125000003E+01
   0.0000000000E+00   0.0000000000E+00   0.9744757315E+00   0.0000000000E+00   0.0000000000E+00   0.1122750000E-02   0.0000000000E+00   0.0000000000E+00  -0.2664701846E-01  -0.2125000003E+01  -0.3369602030E-13  -0.3487852352E-13  -0.4550691701E-16  -0.5475072692E-15   0.8013209762E-15   0.5104003699E-01  -0.2552426849E-01  -0.2552426849E-01  -0.9212001952E-17  -0.1176401033E-16  -0.3991483342E-16   0.2125000003E+01
   0.1051040037E+01   0.0000000000E+00   0.9744757315E+00  -0.2250000000E-02   0.0000000000E+00   0.1122750000E-02   0.5329003691E-01   0.0000000000E+00  -0.2664701846E-01  -0.2125000003E+01  -0.7079965178E-15  -0.6490329424E-16   0.1654541704E-15   0.3877802431E-15   0.1042627767E-14   0.5104003698E-01  -0.2552426849E-01  -0.2552426849E-01  -0.1361138438E-16  -0.4644611535E-16   0.9315813080E-17   0.2125000003E+01
   0.1051040037E+01   0.9744757315E+00   0.9744757315E+00  -0.2250000000E-02   0.1122750000E-02   0.1122750000E-02   0.5329003691E-01  -0.2664701846E-01  -0.2664701846E-01  -0.2125000003E+01  -0.4313636902E-13  -0.4080378073E-13   0.4692110835E-15   0.7352416350E-15  -0.7422902916E-15   0.5104003698E-01  -0.2552426849E-01  -0.2552426849E-01  -0.2666651500E-16   0.3358601271E-18   0.1983642032E-16   0.2125000003E+01
   0.0000000000E+00   0.9744757315E+00   0.9744757315E+00   0.0000000000E+00   0.1122750000E-02   0.1122750000E-02   0.0000000000E+00  -0.2664701846E-01  -0.2664701846E-01  -0.2125000003E+01   0.1353484995E-13   0.1591913325E-13   0.6714606976E-15  -0.3174885415E-15  -0.5192851456E-15   0.5104003698E-01  -0.2552426849E-01  -0.2552426849E-01  -0.1705764732E-16   0.2777712018E-16   0.2368079463E-16   0.2125000003E+01
   0.2102080074E+01   0.0000000000E+00   0.2015031834E-16  -0.4500000000E-02   0.0000000000E+00   0.1904758952E-17   0.1065800738E+00   0.0000000000E+00   0.1824555939E-16  -0.2125000003E+01  -0.4496596269E-14  -0.7462678399E-14   0.4676620160E-15  -0.1855287797E-15   0.2962929030E-15   0.5104003699E-01  -0.2552426849E-01  -0.2552426849E-01  -0.1291162197E-15   0.2727696145E-16  -0.1725790000E-16   0.2125000003E+01
   0.2102080074E+01   0.9744757315E+00   0.1330736475E-16  -0.4500000000E-02   0.1122750000E-02   0.4594908273E-18   0.1065800738E+00  -0.2664701846E-01   0.1284787392E-16  -0.2125000003E+01   0.7877398732E-13   0.8139001169E-13   0.6958168575E-15  -0.5394217799E-15  -0.1247855610E-14   0.5104003698E-01  -0.2552426849E-01  -0.2552426849E-01  -0.1410413173E-15   0.3995457322E-16   0.2380811259E-16   0.2125000003E+01
   0.2102080074E+01   0.0000000000E+00   0.9744757315E+00  -0.4500000000E-02   0.0000000000E+00   0.1122750000E-02   0.1065800738E+00   0.0000000000E+00  -0.2664701846E-01  -0.2125000003E+01   0.5264542840E-13   0.5656509236E-13   0.7707949047E-16  -0.7607607460E-15   0.1078216693E-14   0.5104003698E-01  -0.2552426849E-01  -0.2552426849E-01  -0.1250754589E-15   0.6515259837E-16  -0.3404124542E-16   0.2125000003E+01
   0.2102080074E+01   0.9744757315E+00   0.9744757315E+00  -0.4500000000E-02   0.1122750000E-02   0.1122750000E-02   0.1065800738E+00  -0.2664701846E-01  -0.2664701846E-01  -0.2125000003E+01  -0.7481832485E-13  -0.7719716348E-13  -0.9178586866E-16   0.7891393621E-15  -0.5519810282E-15   0.5104003698E-01  -0.2552426849E-01  -0.2552426849E-01  -0.1101763143E-15  -0.1129430183E-16   0.6883520451E-17   0.2125000003E+01
     1     2     3     4     5     6     7     8
     2     9    10     3     6    11    12     7
 VARIABLES = X,Y,Z,DU1,DU2,DU3,U1,U2,U3,S11,S22,S33,S12,S13,S23,E11,E22,E33,E12,E13,E23,SMISES
 ZONE, T="0.1700D+01" F=FEPOINT, I=   12 J=    2 ET=BRICK
   0.0000000000E+00   0.0000000000E+00   0.0000000000E+00   0.0000000000E+00   0.0000000000E+00   0.0000000000E+00   0.0000000000E+00   0.0000000000E+00   0.0000000000E+00  -0.3250000005E+01  -0.1072981288E-12  -0.1086191692E-12   0.6736777373E-16  -0.5300829915E-15   0.4986242431E-15   0.4879003699E-01  -0.2440151849E-01  -0.2440151849E-01   0.5128889296E-17  -0.3176869979E-16  -0.5864940590E-16   0.3250000005E+01
   0.1048790037E+01   0.0000000000E+00  -0.8259520204E-17  -0.2250000000E-02   0.0000000000E+00   0.3824643025E-18   0.5104003691E-01   0.0000000000E+00  -0.8641984506E-17  -0.3250000005E+01  -0.3005935301E-13  -0.3003903470E-13  -0.2949370502E-15   0.2916709919E-15   0.2365892631E-15   0.4879003699E-01  -0.2440151849E-01  -0.2440151849E-01  -0.3187808060E-16  -0.4672544303E-16  -0.2801783686E-16   0.3250000005E+01
   0.1048790037E+01   0.9755984815E+00  -0.2587728601E-16  -0.2250000000E-02   0.1122750000E-02  -0.5152361914E-18   0.5104003691E-01  -0.2552426846E-01  -0.2536204982E-16  -0.3250000005E+01  -0.1883542434E-13  -0.2176303160E-13  -0.9666857829E-16  -0.6526704090E-16  -0.4430540591E-15   0.4879003698E-01  -0.2440151849E-01  -0.2440151849E-01  -0.5378831524E-16   0.1862692961E-17  -0.4882985495E-16   0.3250000005E+01
   0.0000000000E+00   0.9755984815E+00  -0.3269391775E-16   0.0000000000E+00   0.1122750000E-02  -0.1055614190E-17   0.0000000000E+00  -0.2552426846E-01  -0.3163830356E-16  -0.3250000005E+01   0.9150691400E-13   0.9137139220E-13  -0.1451996934E-15  -0.5296345159E-15  -0.1167582933E-14   0.4879003698E-01  -0.2440151849E-01  -0.2440151849E-01   0.4273810878E-16  -0.6109385541E-17  -0.1671752125E-16   0.3250000005E+01
   0.0000000000E+00   0.0000000000E+00   0.9755984815E+00   0.0000000000E+00   0.0000000000E+00   0.1122750000E-02   0.0000000000E+00   0.0000000000E+00  -0.2552426846E-01  -0.3250000005E+01   0.8333315061E-13   0.8198474566E-13  -0.6078454721E-16  -0.3913928310E-15   0.8680825595E-15   0.4879003698E-01  -0.2440151849E-01  -0.2440151849E-01  -0.1191722984E-17  -0.7353688720E-17  -0.3409365492E-16   0.3250000005E+01
   0.1048790037E+01   0.0000000000E+00   0.9755984815E+00  -0.2250000000E-02   0.0000000000E+00   0.1122750000E-02   0.5104003691E-01   0.0000000000E+00  -0.2552426846E-01  -0.3250000005E+01   0.2881226682E-13   0.2935104544E-13  -0.1845978306E-15   0.4958940824E-15   0.1059435770E-14   0.4879003698E-01  -0.2440151849E-01  -0.2440151849E-01  -0.3870423358E-16  -0.4572464736E-16   0.7897392178E-17   0.3250000005E+01
   0.1048790037E+01   0.9755984815E+00   0.9755984815E+00  -0.2250000000E-02   0.1122750000E-02   0.1122750000E-02   0.5104003691E-01  -0.2552426846E-01  -0.2552426846E-01  -0.3250000004E+01  -0.1362898708E-13  -0.1130111371E-13   0.2871943615E-15   0.5195710479E-15  -0.6169543600E-15   0.4879003698E-01  -0.2440151849E-01  -0.2440151849E-01  -0.7861226834E-17  -0.3848144290E-17   0.9938184451E-17   0.3250000004E+01
   0.0000000000E+00   0.9755984815E+00   0.9755984815E+00   0.0000000000E+00   0.1122750000E-02   0.1122750000E-02   0.0000000000E+00  -0.2552426846E-01  -0.2552426846E-01  -0.3250000004E+01  -0.8623374712E-13  -0.8309425431E-13   0.7398048761E-15  -0.2947780985E-15  -0.3259476304E-15   0.4879003698E-01  -0.2440151849E-01  -0.2440151849E-01  -0.1639357899E-16   0.2041320934E-16   0.1246784371E-17   0.3250000004E+01
   0.2097580074E+01   0.0000000000E+00   0.2138382029E-16  -0.4500000000E-02   0.0000000000E+00   0.1233501951E-17   0.1020800738E+00   0.0000000000E+00   0.2015031834E-16  -0.3250000005E+01   0.4660022293E-14   0.1214293654E-14   0.4625758851E-16  -0.5198344138E-15   0.1408588457E-15   0.4879003699E-01  -0.2440151849E-01  -0.2440151849E-01  -0.1180151595E-15   0.2339706016E-16  -0.1454320857E-16   0.3250000005E+01
   0.2097580074E+01   0.9755984815E+00   0.1364646168E-16  -0.4500000000E-02   0.1122750000E-02   0.3390969279E-18   0.1020800738E+00  -0.2552426846E-01   0.1330736475E-16  -0.3250000005E+01  -0.1831042732E-12  -0.1801605286E-12   0.3389297967E-15  -0.1198319930E-15  -0.1171300557E-14   0.4879003698E-01  -0.2440151849E-01  -0.2440151849E-01  -0.1235502624E-15   0.1328469142E-16   0.2237577257E-16   0.3250000005E+01
   0.2097580074E+01   0.0000000000E+00   0.9755984815E+00  -0.4500000000E-02   0.0000000000E+00   0.1122750000E-02   0.1020800738E+00   0.0000000000E+00  -0.2552426846E-01  -0.3250000005E+01   0.6296121822E-14   0.1005805045E-13   0.8343669946E-16  -0.8344732632E-15   0.9679465760E-15   0.4879003698E-01  -0.2440151849E-01  -0.2440151849E-01  -0.1006808123E-15  -0.1282885022E-16  -0.3370981457E-16   0.3250000005E+01
   0.2097580074E+01   0.9755984815E+00   0.9755984815E+00  -0.4500000000E-02   0.1122750000E-02   0.1122750000E-02   0.1020800738E+00  -0.2552426846E-01  -0.2552426846E-01  -0.3250000004E+01   0.9572628463E-13   0.9243513292E-13   0.1527223793E-17   0.9670455547E-15  -0.3690913690E-15   0.4879003697E-01  -0.2440151849E-01  -0.2440151849E-01  -0.8578263792E-16   0.9766303433E-17  -0.1263424180E-18   0.3250000004E+01
     1     2     3     4     5     6     7     8
     2     9    10     3     6    11    12     7
 VARIABLES = X,Y,Z,DU1,DU2,DU3,U1,U2,U3,S11,S22,S33,S12,S13,S23,E11,E22,E33,E12,E13,E23,SMISES
 ZONE, T="0.1750D+01" F=FEPOINT, I=   12 J=    2 ET=BRICK
   0.0000000000E+00   0.0000000000E+00   0.0000000000E+00   0.0000000000E+00   0.0000000000E+00   0.0000000000E+00   0.0000000000E+00   0.0000000000E+00   0.0000000000E+00  -0.4375000007E+01   0.1862924735E-12   0.1846579553E-12   0.9724677382E-16  -0.5585804340E-15   0.8671632581E-15   0.4654003698E-01  -0.2327876849E-01  -0.2327876849E-01  -0.2606652799E-17  -0.3396253262E-16  -0.5624438805E-16   0.4375000007E+01
   0.1046540037E+01   0.0000000000E+00  -0.8622801897E-17  -0.2250000000E-02   0.0000000000E+00  -0.3632816929E-18   0.4879003691E-01   0.0000000000E+00  -0.8259520204E-17  -0.4375000007E+01   0.7400487823E-14   0.7663169163E-14  -0.5624233458E-15  -0.2556691781E-16   0.4478394828E-15   0.4654003698E-01  -0.2327876849E-01  -0.2327876849E-01  -0.2602931946E-16  -0.2536353918E-16  -0.3696854639E-16   0.4375000007E+01
   0.1046540037E+01   0.9767212315E+00  -0.2483625041E-16  -0.2250000000E-02   0.1122750000E-02   0.1041035604E-17   0.4879003691E-01  -0.2440151846E-01  -0.2587728601E-16  -0.4375000006E+01  -0.4103362393E-13  -0.4472497185E-13  -0.4975601710E-15   0.3355692349E-15  -0.3085762123E-15   0.4654003698E-01  -0.2327876849E-01  -0.2327876849E-01  -0.3059635868E-16  -0.2564168169E-16  -0.2265636411E-16   0.4375000006E+01
   0.0000000000E+00   0.9767212315E+00  -0.3049784766E-16   0.0000000000E+00   0.1122750000E-02   0.2196070097E-17   0.0000000000E+00  -0.2440151846E-01  -0.3269391775E-16  -0.4375000006E+01  -0.6553178685E-13  -0.6626577931E-13  -0.2869104772E-15  -0.6729718620E-15  -0.1121478162E-14   0.4654003698E-01  -0.2327876849E-01  -0.2327876849E-01   0.3821643874E-16   0.7939399083E-17  -0.1249584447E-16   0.4375000006E+01
   0.0000000000E+00   0.0000000000E+00   0.9767212315E+00   0.0000000000E+00   0.0000000000E+00   0.1122750000E-02   0.0000000000E+00   0.0000000000E+00  -0.2440151846E-01  -0.4375000006E+01  -0.4922030994E-13  -0.5043319318E-13  -0.4163533565E-16  -0.5251461153E-15   0.8921112750E-15   0.4654003698E-01  -0.2327876849E-01  -0.2327876849E-01  -0.1703704725E-18  -0.2229604538E-16  -0.2924967437E-16   0.4375000006E+01
   0.1046540037E+01   0.0000000000E+00   0.9767212315E+00  -0.2250000000E-02   0.0000000000E+00   0.1122750000E-02   0.4879003691E-01   0.0000000000E+00  -0.2440151846E-01  -0.4375000006E+01  -0.2351679776E-13  -0.2290218948E-13   0.3871026438E-15   0.2138281024E-15   0.1180956822E-14   0.4654003698E-01  -0.2327876849E-01  -0.2327876849E-01  -0.1561661420E-16  -0.2416606839E-16   0.1041433710E-16   0.4375000006E+01
   0.1046540037E+01   0.9767212315E+00   0.9767212315E+00  -0.2250000000E-02   0.1122750000E-02   0.1122750000E-02   0.4879003691E-01  -0.2440151846E-01  -0.2440151846E-01  -0.4375000006E+01   0.3692053459E-13   0.3935000038E-13   0.8181456834E-15   0.1024073689E-14  -0.7117898088E-15   0.4654003697E-01  -0.2327876849E-01  -0.2327876849E-01  -0.2987006397E-16   0.1026465112E-16   0.1181940861E-16   0.4375000006E+01
   0.0000000000E+00   0.9767212315E+00   0.9767212315E+00   0.0000000000E+00   0.1122750000E-02   0.1122750000E-02   0.0000000000E+00  -0.2440151846E-01  -0.2440151846E-01  -0.4375000006E+01   0.6145407841E-13   0.6435047873E-13   0.8296936525E-15  -0.3493519191E-15  -0.5654980646E-15   0.4654003697E-01  -0.2327876849E-01  -0.2327876849E-01  -0.1374005748E-16   0.2488688828E-16   0.1575025860E-16   0.4375000006E+01
   0.2093080074E+01   0.0000000000E+00   0.2033496937E-16  -0.4500000000E-02   0.0000000000E+00  -0.1048850920E-17   0.9758007382E-01   0.0000000000E+00   0.2138382029E-16  -0.4375000007E+01  -0.6206978623E-13  -0.6596033337E-13   0.2580617050E-15  -0.7160736061E-15   0.7051306596E-16   0.4654003698E-01  -0.2327876849E-01  -0.2327876849E-01  -0.1238306476E-15  -0.2775500338E-16  -0.2268858013E-16   0.4375000007E+01
   0.2093080074E+01   0.9767212315E+00   0.1212229575E-16  -0.4500000000E-02   0.1122750000E-02  -0.1524165931E-17   0.9758007382E-01  -0.2440151846E-01   0.1364646168E-16  -0.4375000006E+01   0.2619004211E-13   0.2969162029E-13   0.4899380691E-15  -0.9042222686E-16  -0.1577968855E-14   0.4654003698E-01  -0.2327876849E-01  -0.2327876849E-01  -0.1381922916E-15   0.6999329340E-16   0.1549266111E-16   0.4375000006E+01
   0.2093080074E+01   0.0000000000E+00   0.9767212315E+00  -0.4500000000E-02   0.0000000000E+00   0.1122750000E-02   0.9758007382E-01   0.0000000000E+00  -0.2440151846E-01  -0.4375000006E+01  -0.3169315979E-13  -0.2709438301E-13   0.6180473842E-15  -0.7796906129E-15   0.9913976176E-15   0.4654003698E-01  -0.2327876849E-01  -0.2327876849E-01  -0.1183098233E-15   0.1812431665E-16  -0.2752867725E-16   0.4375000006E+01
   0.2093080074E+01   0.9767212315E+00   0.9767212315E+00  -0.4500000000E-02   0.1122750000E-02   0.1122750000E-02   0.9758007382E-01  -0.2440151846E-01  -0.2440151846E-01  -0.4375000006E+01  -0.7203620895E-13  -0.7479183823E-13   0.2714364701E-15   0.1026067305E-14  -0.5972587249E-15   0.4654003697E-01  -0.2327876849E-01  -0.2327876849E-01  -0.9082067462E-16  -0.5364747974E-16  -0.7537933403E-19   0.4375000006E+01
     1     2     3     4     5     6     7     8
     2     9    10     3     6    11    12     7
 VARIABLES = X,Y,Z,DU1,DU2,DU3,U1,U2,U3,S11,S22,S33,S12,S13,S23,E11,E22,E33,E12,E13,E23,SMISES
 ZONE, T="0.1800D+01" F=FEPOINT, I=   12 J=    2 ET=BRICK
   0.0000000000E+00   0.0000000000E+00   0.0000000000E+00   0.0000000000E+00   0.0000000000E+00   0.0000000000E+00   0.0000000000E+00   0.0000000000E+00   0.0000000000E+00  -0.5500000009E+01  -0.7685453039E-13  -0.7831979290E-13   0.1025790099E-15  -0.5588682552E-15   0.2856743972E-15   0.4429003698E-01  -0.2215601849E-01  -0.2215601849E-01  -0.3020729868E-17  -0.5079420024E-16  -0.7115846607E-16   0.5500000009E+01
   0.1044290037E+01   0.0000000000E+00  -0.7972643639E-17  -0.2250000000E-02   0.0000000000E+00   0.6501582575E-18   0.4654003691E-01   0.0000000000E+00  -0.8622801897E-17  -0.5500000008E+01   0.2677630021E-13   0.2741812970E-13  -0.3520150675E-15   0.1361083977E-15   0.5905899458E-16   0.4429003698E-01  -0.2215601849E-01  -0.2215601849E-01  -0.2539932589E-16  -0.7859365792E-17  -0.3930581441E-16   0.5500000008E+01
   0.1044290037E+01   0.9778439815E+00  -0.2647190298E-16  -0.2250000000E-02   0.1122750000E-02  -0.1635652573E-17   0.4654003691E-01  -0.2327876846E-01  -0.2483625041E-16  -0.5500000008E+01   0.1533616176E-13   0.1210125050E-13  -0.4063497930E-17   0.4694365645E-16  -0.2681521147E-15   0.4429003697E-01  -0.2215601849E-01  -0.2215601849E-01  -0.1332226110E-16  -0.4466689273E-16  -0.2089747228E-16   0.5500000008E+01
   0.0000000000E+00   0.9778439815E+00  -0.3407697270E-16   0.0000000000E+00   0.1122750000E-02  -0.3579125046E-17   0.0000000000E+00  -0.2327876846E-01  -0.3049784766E-16  -0.5500000008E+01   0.7643746543E-14   0.8649120790E-14   0.2130813176E-16  -0.5076161289E-15  -0.9707011637E-15   0.4429003698E-01  -0.2215601849E-01  -0.2215601849E-01   0.3713535830E-16   0.1554420403E-16  -0.8345055055E-17   0.5500000008E+01
   0.0000000000E+00   0.0000000000E+00   0.9778439815E+00   0.0000000000E+00   0.0000000000E+00   0.1122750000E-02   0.0000000000E+00   0.0000000000E+00  -0.2327876846E-01  -0.5500000008E+01   0.1008413145E-13   0.7960563185E-14  -0.3226182904E-16  -0.3691209431E-15   0.6096254286E-15   0.4429003698E-01  -0.2215601849E-01  -0.2215601849E-01   0.2847330362E-17  -0.1513079631E-16  -0.3543176903E-16   0.5500000008E+01
   0.1044290037E+01   0.0000000000E+00   0.9778439815E+00  -0.2250000000E-02   0.0000000000E+00   0.1122750000E-02   0.4654003691E-01   0.0000000000E+00  -0.2327876846E-01  -0.5500000008E+01   0.4521688809E-13   0.4515301514E-13  -0.2004493990E-15   0.5705468866E-15   0.9689708179E-15   0.4429003697E-01  -0.2215601849E-01  -0.2215601849E-01  -0.3603630795E-16  -0.1918614801E-16  -0.4811034375E-17   0.5500000008E+01
   0.1044290037E+01   0.9778439815E+00   0.9778439815E+00  -0.2250000000E-02   0.1122750000E-02   0.1122750000E-02   0.4654003691E-01  -0.2327876846E-01  -0.2327876846E-01  -0.5500000007E+01  -0.1964461111E-13  -0.1736136028E-13   0.2855224540E-15   0.5798275874E-15  -0.5752284526E-15   0.4429003697E-01  -0.2215601848E-01  -0.2215601848E-01  -0.3942536851E-16  -0.3157577039E-16  -0.4671155896E-17   0.5500000007E+01
   0.0000000000E+00   0.9778439815E+00   0.9778439815E+00   0.0000000000E+00   0.1122750000E-02   0.1122750000E-02   0.0000000000E+00  -0.2327876846E-01  -0.2327876846E-01  -0.5500000007E+01   0.5061758289E-13   0.5336903165E-13   0.5725238691E-15  -0.1567726693E-15   0.1106843499E-15   0.4429003697E-01  -0.2215601849E-01  -0.2215601849E-01  -0.2131091640E-16   0.3853205214E-16   0.1885187265E-16   0.5500000007E+01
   0.2088580074E+01   0.0000000000E+00   0.2488465233E-16  -0.4500000000E-02   0.0000000000E+00   0.4549682962E-17   0.9308007382E-01   0.0000000000E+00   0.2033496937E-16  -0.5500000008E+01  -0.8201200934E-14  -0.1274572985E-13   0.1517065417E-15  -0.5641662710E-15  -0.1184069158E-15   0.4429003698E-01  -0.2215601849E-01  -0.2215601849E-01  -0.1080517257E-15   0.1020234484E-16  -0.1349806536E-16   0.5500000008E+01
   0.2088580074E+01   0.9778439815E+00   0.1568731478E-16  -0.4500000000E-02   0.1122750000E-02   0.3565019027E-17   0.9308007382E-01  -0.2327876846E-01   0.1212229575E-16  -0.5500000008E+01   0.8932810280E-13   0.9300238813E-13   0.5086169220E-15  -0.4075285235E-15  -0.1392908584E-14   0.4429003697E-01  -0.2215601849E-01  -0.2215601849E-01  -0.1312732181E-15   0.2277195549E-16   0.1177016356E-17   0.5500000008E+01
   0.2088580074E+01   0.0000000000E+00   0.9778439815E+00  -0.4500000000E-02   0.0000000000E+00   0.1122750000E-02   0.9308007382E-01   0.0000000000E+00  -0.2327876846E-01  -0.5500000008E+01  -0.3786986877E-13  -0.3471657002E-13  -0.1816762847E-15  -0.7195733349E-15   0.1186250063E-14   0.4429003697E-01  -0.2215601849E-01  -0.2215601849E-01  -0.1051709448E-15   0.1610019143E-16  -0.2594942583E-16   0.5500000008E+01
   0.2088580074E+01   0.9778439815E+00   0.9778439815E+00  -0.4500000000E-02   0.1122750000E-02   0.1122750000E-02   0.9308007382E-01  -0.2327876846E-01  -0.2327876846E-01  -0.5500000007E+01   0.1062686718E-13   0.7813004534E-14  -0.1492985184E-15   0.1007983092E-14  -0.1342251631E-15   0.4429003697E-01  -0.2215601848E-01  -0.2215601848E-01  -0.9163014585E-16  -0.2629513570E-16  -0.2280299251E-16   0.5500000007E+01
     1     2     3     4     5     6     7     8
     2     9    10     3     6    11    12     7
 VARIABLES = X,Y,Z,DU1,DU2,DU3,U1,U2,U3,S11,S22,S33,S12,S13,S23,E11,E22,E33,E12,E13,E23,SMISES
 ZONE, T="0.1850D+01" F=FEPOINT, I=   12 J=    2 ET=BRICK
   0.0000000000E+00   0.0000000000E+00   0.0000000000E+00   0.0000000000E+00   0.0000000000E+00   0.0000000000E+00   0.0000000000E+00   0.0000000000E+00   0.0000000000E+00  -0.6625000010E+01   0.6191733749E-13   0.5923063433E-13   0.1112531480E-15  -0.5635548353E-15   0.8482548334E-15   0.4204003698E-01  -0.2103326849E-01  -0.2103326849E-01   0.9547244080E-18  -0.4311954416E-16  -0.5850856118E-16   0.6625000010E+01
   0.1042040037E+01   0.0000000000E+00  -0.9771423815E-17  -0.2250000000E-02   0.0000000000E+00  -0.1798780176E-17   0.4429003691E-01   0.0000000000E+00  -0.7972643639E-17  -0.6625000010E+01   0.4428649450E-14   0.4136219275E-14  -0.2132620934E-15  -0.4919144739E-16   0.4358442262E-15   0.4204003698E-01  -0.2103326849E-01  -0.2103326849E-01  -0.2281049850E-16  -0.3091414268E-16  -0.2460045722E-16   0.6625000010E+01
   0.1042040037E+01   0.9789667315E+00  -0.2604117228E-16  -0.2250000000E-02   0.1122750000E-02   0.4307307017E-18   0.4429003691E-01  -0.2215601846E-01  -0.2647190298E-16  -0.6625000009E+01  -0.5502717024E-14  -0.9730316681E-14  -0.6883190596E-17  -0.2002551831E-15  -0.6008680165E-15   0.4204003697E-01  -0.2103326849E-01  -0.2103326849E-01  -0.1806437660E-16  -0.2562730386E-16  -0.4221251845E-16   0.6625000009E+01
   0.0000000000E+00   0.9789667315E+00  -0.3067494726E-16   0.0000000000E+00   0.1122750000E-02   0.3402025439E-17   0.0000000000E+00  -0.2215601846E-01  -0.3407697270E-16  -0.6625000010E+01   0.7125602298E-13   0.7144686022E-13  -0.7467255056E-16  -0.7905929250E-15  -0.1202865575E-14   0.4204003697E-01  -0.2103326849E-01  -0.2103326849E-01   0.3630069432E-16   0.1446449639E-16  -0.1080356056E-16   0.6625000010E+01
   0.0000000000E+00   0.0000000000E+00   0.9789667315E+00   0.0000000000E+00   0.0000000000E+00   0.1122750000E-02   0.0000000000E+00   0.0000000000E+00  -0.2215601846E-01  -0.6625000010E+01   0.2134725055E-13   0.2084804107E-13  -0.2367101519E-16  -0.7146168027E-15   0.8470528267E-15   0.4204003697E-01  -0.2103326849E-01  -0.2103326849E-01   0.1942608988E-17   0.6774795065E-17  -0.5274422487E-16   0.6625000010E+01
   0.1042040037E+01   0.0000000000E+00   0.9789667315E+00  -0.2250000000E-02   0.0000000000E+00   0.1122750000E-02   0.4429003691E-01   0.0000000000E+00  -0.2215601846E-01  -0.6625000009E+01   0.1010188493E-13   0.1018024148E-13  -0.1603234740E-15   0.6823057453E-15   0.1299989106E-14   0.4204003697E-01  -0.2103326849E-01  -0.2103326849E-01  -0.3386194311E-16  -0.4441996007E-16  -0.8820659778E-17   0.6625000009E+01
   0.1042040037E+01   0.9789667315E+00   0.9789667315E+00  -0.2250000000E-02   0.1122750000E-02   0.1122750000E-02   0.4429003691E-01  -0.2215601846E-01  -0.2215601846E-01  -0.6625000009E+01   0.2183450558E-15   0.3528018065E-14   0.4076880470E-15   0.5006404616E-15  -0.9103806452E-15   0.4204003697E-01  -0.2103326848E-01  -0.2103326848E-01  -0.3200806003E-16   0.1820608147E-16   0.2687765021E-16   0.6625000009E+01
   0.0000000000E+00   0.9789667315E+00   0.9789667315E+00   0.0000000000E+00   0.1122750000E-02   0.1122750000E-02   0.0000000000E+00  -0.2215601846E-01  -0.2215601846E-01  -0.6625000009E+01  -0.3885970457E-13  -0.3691243795E-13   0.6041929876E-15  -0.2380661860E-15  -0.5410722314E-15   0.4204003697E-01  -0.2103326848E-01  -0.2103326848E-01  -0.1794697757E-16   0.5183461026E-17   0.3871859215E-17   0.6625000009E+01
   0.2084080074E+01   0.0000000000E+00   0.1579497960E-16  -0.4500000000E-02   0.0000000000E+00  -0.9089672731E-17   0.8858007382E-01   0.0000000000E+00   0.2488465233E-16  -0.6625000010E+01  -0.4148183760E-13  -0.4563652511E-13   0.1456049709E-15  -0.5881542138E-15   0.2831173042E-15   0.4204003697E-01  -0.2103326849E-01  -0.2103326849E-01  -0.1002693201E-15   0.2078973900E-18  -0.1551473643E-16   0.6625000010E+01
   0.2084080074E+01   0.9789667315E+00   0.9008753078E-17  -0.4500000000E-02   0.1122750000E-02  -0.6678561698E-17   0.8858007382E-01  -0.2215601846E-01   0.1568731478E-16  -0.6625000009E+01  -0.1372009744E-12  -0.1337737671E-12   0.3220342159E-15  -0.3170041335E-15  -0.1483736630E-14   0.4204003697E-01  -0.2103326849E-01  -0.2103326849E-01  -0.1118178376E-15   0.1189442171E-15   0.1638971319E-16   0.6625000009E+01
   0.2084080074E+01   0.0000000000E+00   0.9789667315E+00  -0.4500000000E-02   0.0000000000E+00   0.1122750000E-02   0.8858007382E-01   0.0000000000E+00  -0.2215601846E-01  -0.6625000009E+01   0.2918211754E-13   0.3391767938E-13   0.9280115240E-16  -0.4639705509E-15   0.1302336788E-14   0.4204003697E-01  -0.2103326849E-01  -0.2103326849E-01  -0.1248300245E-15   0.6562984256E-16  -0.3430415919E-16   0.6625000009E+01
   0.2084080074E+01   0.9789667315E+00   0.9789667315E+00  -0.4500000000E-02   0.1122750000E-02   0.1122750000E-02   0.8858007382E-01  -0.2215601846E-01  -0.2215601846E-01  -0.6625000008E+01   0.2156471217E-13   0.1864799381E-13   0.1292174935E-15   0.1288143882E-14  -0.6112219608E-15   0.4204003697E-01  -0.2103326848E-01  -0.2103326848E-01  -0.1038284987E-15  -0.6824951917E-16  -0.3194076344E-16   0.6625000008E+01
     1     2     3     4     5     6     7     8
     2     9    10     3     6    11    12     7
 VARIABLES = X,Y,Z,DU1,DU2,DU3,U1,U2,U3,S11,S22,S33,S12,S13,S23,E11,E22,E33,E12,E13,E23,SMISES
 ZONE, T="0.1900D+01" F=FEPOINT, I=   12 J=    2 ET=BRICK
   0.0000000000E+00   0.0000000000E+00   0.0000000000E+00   0.0000000000E+00   0.0000000000E+00   0.0000000000E+00   0.0000000000E+00   0.0000000000E+00   0.0000000000E+00  -0.7749966911E+01  -0.1655048544E-04  -0.1655048544E-04   0.4154964447E-16  -0.8667906802E-15   0.8126766020E-15   0.3538637234E-01  -0.1770868617E-01  -0.1770868617E-01   0.3293374065E-17  -0.4532384036E-16  -0.6051552244E-16   0.7749950361E+01
   0.1035386372E+01   0.0000000000E+00  -0.1275752012E-16  -0.6653664632E-02   0.0000000000E+00  -0.2986096306E-17   0.4204003691E-01   0.0000000000E+00  -0.9771423815E-17  -0.7749966911E+01  -0.1655048524E-04  -0.1655048524E-04  -0.1818519955E-15   0.9638502565E-16   0.4725809283E-15   0.3538637233E-01  -0.1770868617E-01  -0.1770868617E-01  -0.3467746368E-16  -0.3037128946E-16  -0.3058940163E-16   0.7749950360E+01
   0.1035386372E+01   0.9822913139E+00  -0.2780433782E-16  -0.6653664632E-02   0.3324582316E-02  -0.1763165540E-17   0.4204003691E-01  -0.2103326846E-01  -0.2604117228E-16  -0.7749966910E+01  -0.1655048522E-04  -0.1655048522E-04   0.9521923025E-16  -0.2375152848E-16  -0.8115400631E-15   0.3538637233E-01  -0.1770868617E-01  -0.1770868617E-01  -0.9094368553E-17  -0.4559765911E-17  -0.2819132108E-16   0.7749950360E+01
   0.0000000000E+00   0.9822913139E+00  -0.2987026657E-16   0.0000000000E+00   0.3324582316E-02   0.8046806933E-18   0.0000000000E+00  -0.2103326846E-01  -0.3067494726E-16  -0.7749966910E+01  -0.1655048519E-04  -0.1655048519E-04  -0.4166984711E-15  -0.9057262676E-15  -0.1744465617E-14   0.3538637233E-01  -0.1770868617E-01  -0.1770868617E-01   0.3183923357E-16  -0.4535432591E-17  -0.7328705662E-17   0.7749950360E+01
   0.0000000000E+00   0.0000000000E+00   0.9822913139E+00   0.0000000000E+00   0.0000000000E+00   0.3324582316E-02   0.0000000000E+00   0.0000000000E+00  -0.2103326846E-01  -0.7749966910E+01  -0.1655048526E-04  -0.1655048526E-04  -0.1230957015E-16  -0.7012463651E-15   0.9153311582E-15   0.3538637233E-01  -0.1770868617E-01  -0.1770868617E-01  -0.4095453674E-17  -0.1102042083E-16  -0.2732329094E-16   0.7749950360E+01
   0.1035386372E+01   0.0000000000E+00   0.9822913139E+00  -0.6653664632E-02   0.0000000000E+00   0.3324582316E-02   0.4204003691E-01   0.0000000000E+00  -0.2103326846E-01  -0.7749966910E+01  -0.1655048516E-04  -0.1655048516E-04  -0.5859915069E-15   0.6500101411E-15   0.1581241644E-14   0.3538637233E-01  -0.1770868617E-01  -0.1770868617E-01  -0.1477836590E-16  -0.2639100035E-16  -0.6467782533E-17   0.7749950360E+01
   0.1035386372E+01   0.9822913139E+00   0.9822913139E+00  -0.6653664632E-02   0.3324582316E-02   0.3324582316E-02   0.4204003691E-01  -0.2103326846E-01  -0.2103326846E-01  -0.7749966909E+01  -0.1655048524E-04  -0.1655048523E-04  -0.1150362427E-15   0.4299846073E-15  -0.8663570399E-15   0.3538637233E-01  -0.1770868616E-01  -0.1770868616E-01  -0.3279592316E-16  -0.3121321472E-16  -0.2851119459E-17   0.7749950359E+01
   0.0000000000E+00   0.9822913139E+00   0.9822913139E+00   0.0000000000E+00   0.3324582316E-02   0.3324582316E-02   0.0000000000E+00  -0.2103326846E-01  -0.2103326846E-01  -0.7749966909E+01  -0.1655048535E-04  -0.1655048535E-04   0.5746588402E-15  -0.2934810427E-15  -0.3390719381E-15   0.3538637233E-01  -0.1770868616E-01  -0.1770868616E-01  -0.1565285097E-16   0.2717214653E-16   0.1777579703E-16   0.7749950359E+01
   0.2070772745E+01   0.0000000000E+00   0.7456000941E-17  -0.1330732926E-01   0.0000000000E+00  -0.8338978658E-17   0.8408007382E-01   0.0000000000E+00   0.1579497960E-16  -0.7749966911E+01  -0.1655048496E-04  -0.1655048497E-04  -0.5115222350E-15  -0.1204424014E-15   0.4730195149E-15   0.3538637233E-01  -0.1770868617E-01  -0.1770868617E-01  -0.1051529507E-15   0.2152692943E-17  -0.1075948046E-16   0.7749950360E+01
   0.2070772745E+01   0.9822913139E+00   0.1929902067E-17  -0.1330732926E-01   0.3324582316E-02  -0.7078851011E-17   0.8408007382E-01  -0.2103326846E-01   0.9008753078E-17  -0.7749966910E+01  -0.1655048534E-04  -0.1655048533E-04   0.1969713357E-15  -0.3400838821E-16  -0.1930619137E-14   0.3538637233E-01  -0.1770868616E-01  -0.1770868616E-01  -0.1235542247E-15   0.7466153535E-16  -0.2207271681E-16   0.7749950359E+01
   0.2070772745E+01   0.0000000000E+00   0.9822913139E+00  -0.1330732926E-01   0.0000000000E+00   0.3324582316E-02   0.8408007382E-01   0.0000000000E+00  -0.2103326846E-01  -0.7749966910E+01  -0.1655048517E-04  -0.1655048517E-04  -0.6699007185E-15  -0.3634962008E-15   0.1534318378E-14   0.3538637233E-01  -0.1770868616E-01  -0.1770868616E-01  -0.1002885745E-15  -0.1715972668E-16  -0.3105855462E-16   0.7749950359E+01
   0.2070772745E+01   0.9822913139E+00   0.9822913139E+00  -0.1330732926E-01   0.3324582316E-02   0.3324582316E-02   0.8408007382E-01  -0.2103326846E-01  -0.2103326846E-01  -0.7749966909E+01  -0.1655048540E-04  -0.1655048540E-04  -0.5957290432E-15   0.6210350964E-15  -0.6436422376E-15   0.3538637233E-01  -0.1770868616E-01  -0.1770868616E-01  -0.9480354754E-16  -0.1966018731E-16  -0.8748815316E-17   0.7749950358E+01
     1     2     3     4     5     6     7     8
     2     9    10     3     6    11    12     7
 VARIABLES = X,Y,Z,DU1,DU2,DU3,U1,U2,U3,S11,S22,S33,S12,S13,S23,E11,E22,E33,E12,E13,E23,SMISES
 ZONE, T="0.1950D+01" F=FEPOINT, I=   12 J=    2 ET=BRICK
   0.0000000000E+00   0.0000000000E+00   0.0000000000E+00   0.0000000000E+00   0.0000000000E+00   0.0000000000E+00   0.0000000000E+00   0.0000000000E+00   0.0000000000E+00  -0.8875012697E+01   0.6341758968E-05   0.6341758968E-05  -0.1010850921E-16   0.3174209077E-15  -0.6334569289E-15   0.1205764244E-01  -0.6046571219E-02  -0.6046571219E-02   0.2650248758E-17  -0.1801485494E-16  -0.8848427941E-16   0.8875019039E+01
   0.1012057642E+01   0.0000000000E+00   0.3032812931E-17  -0.2332872986E-01   0.0000000000E+00   0.1579033305E-16   0.3538637228E-01   0.0000000000E+00  -0.1275752012E-16  -0.8875012697E+01   0.6341758736E-05   0.6341758739E-05   0.2350149255E-15   0.1721340546E-15  -0.7575815972E-15   0.1205764244E-01  -0.6046571219E-02  -0.6046571219E-02  -0.2705369445E-16  -0.3231497166E-16  -0.4297142363E-16   0.8875019039E+01
   0.1012057642E+01   0.9939534288E+00  -0.2314099426E-16  -0.2332872986E-01   0.1166211493E-01   0.4663343560E-17   0.3538637228E-01  -0.1770868614E-01  -0.2780433782E-16  -0.8875012696E+01   0.6341758153E-05   0.6341758153E-05  -0.1738759984E-16   0.2932188325E-15   0.8682198189E-15   0.1205764244E-01  -0.6046571218E-02  -0.6046571218E-02  -0.1183258241E-16   0.7650925122E-17  -0.9610045582E-17   0.8875019038E+01
   0.0000000000E+00   0.9939534288E+00  -0.3930940351E-16   0.0000000000E+00   0.1166211493E-01  -0.9439136937E-17   0.0000000000E+00  -0.1770868614E-01  -0.2987026657E-16  -0.8875012696E+01   0.6341758766E-05   0.6341758768E-05  -0.2736193030E-15   0.1251425844E-15   0.7063491579E-15   0.1205764244E-01  -0.6046571218E-02  -0.6046571218E-02   0.1948486756E-16   0.2265140904E-17   0.1335163113E-16   0.8875019038E+01
   0.0000000000E+00   0.0000000000E+00   0.9939534288E+00   0.0000000000E+00   0.0000000000E+00   0.1166211493E-01   0.0000000000E+00   0.0000000000E+00  -0.1770868614E-01  -0.8875012696E+01   0.6341759255E-05   0.6341759254E-05  -0.7290856882E-16   0.2540813546E-15  -0.8411187631E-15   0.1205764244E-01  -0.6046571218E-02  -0.6046571218E-02   0.3008404138E-17  -0.5224048280E-17  -0.4004874341E-16   0.8875019038E+01
   0.1012057642E+01   0.0000000000E+00   0.9939534288E+00  -0.2332872986E-01   0.0000000000E+00   0.1166211493E-01   0.3538637228E-01   0.0000000000E+00  -0.1770868614E-01  -0.8875012696E+01   0.6341758603E-05   0.6341758602E-05  -0.2977416463E-15   0.2571861693E-15  -0.7540542004E-15   0.1205764244E-01  -0.6046571218E-02  -0.6046571218E-02  -0.2261385668E-16  -0.3412448583E-16  -0.4895109599E-16   0.8875019038E+01
   0.1012057642E+01   0.9939534288E+00   0.9939534288E+00  -0.2332872986E-01   0.1166211493E-01   0.1166211493E-01   0.3538637228E-01  -0.1770868614E-01  -0.1770868614E-01  -0.8875012695E+01   0.6341758781E-05   0.6341758781E-05   0.1061135788E-15  -0.1758894236E-15   0.3745625071E-15   0.1205764243E-01  -0.6046571217E-02  -0.6046571217E-02  -0.2134039573E-16  -0.1294577758E-17   0.2997927727E-16   0.8875019037E+01
   0.0000000000E+00   0.9939534288E+00   0.9939534288E+00   0.0000000000E+00   0.1166211493E-01   0.1166211493E-01   0.0000000000E+00  -0.1770868614E-01  -0.1770868614E-01  -0.8875012695E+01   0.6341758284E-05   0.6341758281E-05   0.2305396852E-15   0.4522455957E-15   0.2279211578E-16   0.1205764243E-01  -0.6046571217E-02  -0.6046571217E-02  -0.1133690935E-16   0.3088074894E-16   0.1986296789E-16   0.8875019037E+01
   0.2024115285E+01   0.0000000000E+00   0.5948956498E-16  -0.4665745972E-01   0.0000000000E+00   0.5203356404E-16   0.7077274456E-01   0.0000000000E+00   0.7456000941E-17  -0.8875012697E+01   0.6341758926E-05   0.6341758925E-05   0.1402340129E-14   0.4488956614E-15  -0.6269167274E-15   0.1205764244E-01  -0.6046571219E-02  -0.6046571219E-02  -0.7396780993E-16   0.6316507937E-16  -0.3544103969E-16   0.8875019039E+01
   0.2024115285E+01   0.9939534288E+00   0.4478221193E-16  -0.4665745972E-01   0.1166211493E-01   0.4285230986E-16   0.7077274456E-01  -0.1770868614E-01   0.1929902067E-17  -0.8875012696E+01   0.6341758222E-05   0.6341758226E-05   0.1833507745E-14  -0.7971473590E-15   0.3604775331E-15   0.1205764244E-01  -0.6046571218E-02  -0.6046571218E-02  -0.6734163118E-16   0.2450727942E-16   0.3424474166E-16   0.8875019038E+01
   0.2024115285E+01   0.0000000000E+00   0.9939534288E+00  -0.4665745972E-01   0.0000000000E+00   0.1166211493E-01   0.7077274456E-01   0.0000000000E+00  -0.1770868614E-01  -0.8875012696E+01   0.6341757309E-05   0.6341757309E-05  -0.1017395750E-14   0.9167026294E-15   0.1650635780E-15   0.1205764244E-01  -0.6046571218E-02  -0.6046571218E-02  -0.8413709804E-16   0.2390610671E-16  -0.3419087165E-16   0.8875019038E+01
   0.2024115285E+01   0.9939534288E+00   0.9939534288E+00  -0.4665745972E-01   0.1166211493E-01   0.1166211493E-01   0.7077274456E-01  -0.1770868614E-01  -0.1770868614E-01  -0.8875012695E+01   0.6341758918E-05   0.6341758915E-05  -0.8634070663E-15  -0.4779610736E-15   0.4182571091E-15   0.1205764243E-01  -0.6046571217E-02  -0.6046571217E-02  -0.7197281782E-16  -0.2907417225E-16  -0.7213669452E-17   0.8875019037E+01
     1     2     3     4     5     6     7     8
     2     9    10     3     6    11    12     7
 VARIABLES = X,Y,Z,DU1,DU2,DU3,U1,U2,U3,S11,S22,S33,S12,S13,S23,E11,E22,E33,E12,E13,E23,SMISES
 ZONE, T="0.2000D+01" F=FEPOINT, I=   12 J=    2 ET=BRICK
   0.0000000000E+00   0.0000000000E+00   0.0000000000E+00   0.0000000000E+00   0.0000000000E+00   0.0000000000E+00   0.0000000000E+00   0.0000000000E+00   0.0000000000E+00  -0.1000000668E+02   0.3330850674E-05   0.3330850674E-05   0.8393737260E-16   0.5961618096E-15   0.1811383356E-15  -0.1269217240E-01   0.6326086202E-02   0.6326086202E-02  -0.1499288430E-17  -0.7109098783E-17  -0.6755381927E-16   0.1000001001E+02
   0.9873078276E+00   0.0000000000E+00   0.5812241905E-17  -0.2474981480E-01   0.0000000000E+00   0.2779428975E-17   0.1205764242E-01   0.0000000000E+00   0.3032812931E-17  -0.1000000668E+02   0.3330849997E-05   0.3330849997E-05   0.4779886756E-15   0.6974848921E-15  -0.5218907400E-15  -0.1269217240E-01   0.6326086202E-02   0.6326086202E-02  -0.4518340201E-17  -0.2229550836E-16  -0.5029149800E-16   0.1000001001E+02
   0.9873078276E+00   0.1006326086E+01  -0.1913755012E-16  -0.2474981480E-01   0.1237265740E-01   0.4003444135E-17   0.1205764242E-01  -0.6046571209E-02  -0.2314099426E-16  -0.1000000668E+02   0.3330849970E-05   0.3330849970E-05   0.2027151802E-16  -0.2362546538E-15   0.5539747638E-16  -0.1269217240E-01   0.6326086201E-02   0.6326086201E-02  -0.3473520647E-17  -0.3214024225E-17  -0.1056954194E-16   0.1000001001E+02
   0.0000000000E+00   0.1006326086E+01  -0.3263043791E-16   0.0000000000E+00   0.1237265740E-01   0.6678965593E-17   0.0000000000E+00  -0.6046571209E-02  -0.3930940351E-16  -0.1000000668E+02   0.3330851219E-05   0.3330851221E-05  -0.7863509627E-16   0.1029857008E-15   0.8926325979E-16  -0.1269217240E-01   0.6326086201E-02   0.6326086201E-02   0.2033344816E-16   0.1028630478E-16   0.5309479319E-17   0.1000001001E+02
   0.0000000000E+00   0.0000000000E+00   0.1006326086E+01   0.0000000000E+00   0.0000000000E+00   0.1237265740E-01   0.0000000000E+00   0.0000000000E+00  -0.6046571209E-02  -0.1000000668E+02   0.3330850502E-05   0.3330850503E-05  -0.1322340704E-15   0.5349849220E-15   0.4157306055E-16  -0.1269217240E-01   0.6326086201E-02   0.6326086201E-02  -0.3332455491E-18   0.6304924938E-17  -0.3139203507E-16   0.1000001001E+02
   0.9873078276E+00   0.0000000000E+00   0.1006326086E+01  -0.2474981480E-01   0.0000000000E+00   0.1237265740E-01   0.1205764242E-01   0.0000000000E+00  -0.6046571209E-02  -0.1000000668E+02   0.3330850579E-05   0.3330850579E-05  -0.3582083530E-15   0.3594560242E-15   0.2881044324E-16  -0.1269217240E-01   0.6326086201E-02   0.6326086201E-02  -0.2098560093E-16  -0.1201218694E-16  -0.2725072292E-16   0.1000001001E+02
   0.9873078276E+00   0.1006326086E+01   0.1006326086E+01  -0.2474981480E-01   0.1237265740E-01   0.1237265740E-01   0.1205764242E-01  -0.6046571209E-02  -0.6046571209E-02  -0.1000000667E+02   0.3330850449E-05   0.3330850449E-05  -0.5426641078E-16  -0.4664352393E-15  -0.3975180557E-16  -0.1269217240E-01   0.6326086200E-02   0.6326086200E-02  -0.1615950655E-16  -0.3494802841E-16   0.1303574572E-16   0.1000001001E+02
   0.0000000000E+00   0.1006326086E+01   0.1006326086E+01   0.0000000000E+00   0.1237265740E-01   0.1237265740E-01   0.0000000000E+00  -0.6046571209E-02  -0.6046571209E-02  -0.1000000668E+02   0.3330849411E-05   0.3330849409E-05  -0.9505211632E-16  -0.2274153631E-15   0.2353221017E-15  -0.1269217240E-01   0.6326086201E-02   0.6326086201E-02  -0.2538913165E-16   0.2337621971E-16   0.1623849699E-16   0.1000001001E+02
   0.1974615655E+01   0.0000000000E+00   0.5170869703E-16  -0.4949962961E-01   0.0000000000E+00  -0.7780867951E-17   0.2411528484E-01   0.0000000000E+00   0.5948956498E-16  -0.1000000668E+02   0.3330849300E-05   0.3330849298E-05   0.2159273766E-14   0.1973559589E-14  -0.2120170916E-15  -0.1269217240E-01   0.6326086202E-02   0.6326086202E-02  -0.5116928132E-16   0.9881170135E-16  -0.2470863727E-16   0.1000001001E+02
   0.1974615655E+01   0.1006326086E+01   0.3866980219E-16  -0.4949962961E-01   0.1237265740E-01  -0.6112409741E-17   0.2411528484E-01  -0.6046571209E-02   0.4478221193E-16  -0.1000000668E+02   0.3330848971E-05   0.3330848975E-05   0.1610849645E-14  -0.1724832520E-14   0.7313969708E-15  -0.1269217240E-01   0.6326086201E-02   0.6326086201E-02  -0.5047392440E-16   0.1751917405E-16   0.3048904954E-16   0.1000001001E+02
   0.1974615655E+01   0.0000000000E+00   0.1006326086E+01  -0.4949962961E-01   0.0000000000E+00   0.1237265740E-01   0.2411528484E-01   0.0000000000E+00  -0.6046571209E-02  -0.1000000668E+02   0.3330850449E-05   0.3330850448E-05  -0.2270711129E-14   0.2516372680E-14   0.5390814061E-15  -0.1269217240E-01   0.6326086201E-02   0.6326086201E-02  -0.1194751726E-15   0.8717094295E-16  -0.3436773399E-16   0.1000001001E+02
   0.1974615655E+01   0.1006326086E+01   0.1006326086E+01  -0.4949962961E-01   0.1237265740E-01   0.1237265740E-01   0.2411528484E-01  -0.6046571209E-02  -0.6046571209E-02  -0.1000000667E+02   0.3330851558E-05   0.3330851555E-05  -0.1301097238E-14  -0.1071138909E-14   0.9091240432E-15  -0.1269217240E-01   0.6326086200E-02   0.6326086200E-02  -0.9024356441E-16  -0.1214099339E-17   0.2184019132E-16   0.1000001001E+02
     1     2     3     4     5     6     7     8
     2     9    10     3     6    11    12     7
 VARIABLES = X,Y,Z,DU1,DU2,DU3,U1,U2,U3,S11,S22,S33,S12,S13,S23,E11,E22,E33,E12,E13,E23,SMISES
 ZONE, T="0.2050D+01" F=FEPOINT, I=   12 J=    2 ET=BRICK
   0.0000000000E+00   0.0000000000E+00   0.0000000000E+00   0.0000000000E+00   0.0000000000E+00   0.0000000000E+00   0.0000000000E+00   0.0000000000E+00   0.0000000000E+00  -0.8875000014E+01   0.1878409675E-11   0.2334449021E-11   0.7193420251E-16   0.4649951926E-12   0.1317227152E-12  -0.1044215243E-01   0.5203326214E-02   0.5203326214E-02   0.2743288624E-17   0.5562685953E-14   0.1509513819E-14   0.8875000014E+01
   0.9895578476E+00   0.0000000000E+00   0.2875941346E-14   0.2250019972E-02   0.0000000000E+00   0.2870129104E-14  -0.1269217238E-01   0.0000000000E+00   0.5812241905E-17  -0.8875000014E+01   0.4122718006E-12   0.5230521568E-12   0.1098425955E-12   0.3059903842E-12  -0.1351404151E-12  -0.1044215243E-01   0.5203326214E-02   0.5203326214E-02   0.1297550188E-14   0.3636343854E-14  -0.1664392633E-14   0.8875000014E+01
   0.9895578476E+00   0.1005203326E+01   0.2043782496E-14   0.2250019972E-02  -0.1122759986E-02   0.2062920046E-14  -0.1269217238E-01   0.6326086192E-02  -0.1913755012E-16  -0.8875000013E+01   0.1477402840E-12   0.3625008324E-13   0.1002657763E-12   0.1921964857E-12   0.6561948175E-13  -0.1044215243E-01   0.5203326214E-02   0.5203326214E-02   0.1199694982E-14   0.2307886123E-14   0.7778765475E-15   0.8875000013E+01
   0.0000000000E+00   0.1005203326E+01   0.7561881633E-15   0.0000000000E+00  -0.1122759986E-02   0.7888186012E-15   0.0000000000E+00   0.6326086192E-02  -0.3263043791E-16  -0.8875000013E+01  -0.1076313722E-11  -0.8491050693E-12   0.1259974766E-12   0.1259854418E-12   0.3261148848E-12  -0.1044215243E-01   0.5203326214E-02   0.5203326214E-02   0.1531924193E-14   0.1509896590E-14   0.3911063397E-14   0.8875000013E+01
   0.0000000000E+00   0.0000000000E+00   0.1005203326E+01   0.0000000000E+00   0.0000000000E+00  -0.1122759986E-02   0.0000000000E+00   0.0000000000E+00   0.6326086192E-02  -0.8875000013E+01  -0.1069307606E-11  -0.1000625152E-11  -0.1121518946E-15   0.3265189373E-12   0.1596337293E-13  -0.1044215243E-01   0.5203326214E-02   0.5203326214E-02  -0.6882839296E-18   0.3910585964E-14   0.1518453441E-15   0.8875000013E+01
   0.9895578476E+00   0.0000000000E+00   0.1005203326E+01   0.2250019972E-02   0.0000000000E+00  -0.1122759986E-02  -0.1269217238E-01   0.0000000000E+00   0.6326086192E-02  -0.8875000013E+01  -0.6091177407E-12  -0.8995842288E-12   0.1176770225E-12   0.3051204151E-12  -0.2456013452E-12  -0.1044215243E-01   0.5203326214E-02   0.5203326214E-02   0.1397161083E-14   0.3645165664E-14  -0.2973830462E-14   0.8875000013E+01
   0.9895578476E+00   0.1005203326E+01   0.1005203326E+01   0.2250019972E-02  -0.1122759986E-02  -0.1122759986E-02  -0.1269217238E-01   0.6326086192E-02   0.6326086192E-02  -0.8875000012E+01   0.1594588043E-12  -0.3515714879E-12   0.1145202547E-12   0.1948774580E-12  -0.4548669216E-13  -0.1044215243E-01   0.5203326213E-02   0.5203326213E-02   0.1358964235E-14   0.2311537561E-14  -0.5401339444E-15   0.8875000012E+01
   0.0000000000E+00   0.1005203326E+01   0.1005203326E+01   0.0000000000E+00  -0.1122759986E-02  -0.1122759986E-02   0.0000000000E+00   0.6326086192E-02   0.6326086192E-02  -0.8875000012E+01   0.2682995470E-12   0.1034142875E-12   0.1318073060E-12  -0.7466202420E-14   0.2106044419E-12  -0.1044215243E-01   0.5203326213E-02   0.5203326213E-02   0.1557675313E-14  -0.6007063925E-16   0.2543601484E-14   0.8875000012E+01
   0.1979115695E+01   0.0000000000E+00   0.6134470314E-14   0.4500039944E-02   0.0000000000E+00   0.6082761617E-14  -0.2538434477E-01   0.0000000000E+00   0.5170869703E-16  -0.8875000013E+01   0.3861614370E-12   0.8760213754E-12   0.2231067883E-12   0.1435866915E-12  -0.1116906376E-12  -0.1044215243E-01   0.5203326214E-02   0.5203326214E-02   0.2601063701E-14   0.1788061745E-14  -0.1364472901E-14   0.8875000013E+01
   0.1979115695E+01   0.1005203326E+01   0.5452916043E-14   0.4500039944E-02  -0.1122759986E-02   0.5414246241E-14  -0.2538434477E-01   0.6326086192E-02   0.3866980219E-16  -0.8875000012E+01   0.1729889982E-11   0.2007453005E-11   0.7826745750E-13   0.2400695247E-12   0.9493849984E-13  -0.1044215243E-01   0.5203326214E-02   0.5203326214E-02   0.8623832662E-15   0.2911565701E-14   0.1161909686E-14   0.8875000012E+01
   0.1979115695E+01   0.0000000000E+00   0.1005203326E+01   0.4500039944E-02   0.0000000000E+00  -0.1122759986E-02  -0.2538434477E-01   0.0000000000E+00   0.6326086192E-02  -0.8875000012E+01   0.9405826370E-12   0.1020051552E-11   0.2234923453E-12   0.2815167847E-12  -0.2199479166E-12  -0.1044215243E-01   0.5203326214E-02   0.5203326214E-02   0.2583712721E-14   0.3374411819E-14  -0.2676772798E-14   0.8875000012E+01
   0.1979115695E+01   0.1005203326E+01   0.1005203326E+01   0.4500039944E-02  -0.1122759986E-02  -0.1122759986E-02  -0.2538434477E-01   0.6326086192E-02   0.6326086192E-02  -0.8875000011E+01   0.6511941987E-13  -0.7571093750E-13   0.8549401665E-13   0.3792272481E-12  -0.1379559235E-13  -0.1044215243E-01   0.5203326213E-02   0.5203326213E-02   0.9477012448E-15   0.4564382426E-14  -0.1504887355E-15   0.8875000011E+01
     1     2     3     4     5     6     7     8
     2     9    10     3     6    11    12     7
 VARIABLES = X,Y,Z,DU1,DU2,DU3,U1,U2,U3,S11,S22,S33,S12,S13,S23,E11,E22,E33,E12,E13,E23,SMISES
 ZONE, T="0.2100D+01" F=FEPOINT, I=   12 J=    2 ET=BRICK
   0.0000000000E+00   0.0000000000E+00   0.0000000000E+00   0.0000000000E+00   0.0000000000E+00   0.0000000000E+00   0.0000000000E+00   0.0000000000E+00   0.0000000000E+00  -0.7750000012E+01  -0.2407959246E-13  -0.2479871059E-13   0.7243974549E-16  -0.3186012764E-15   0.2137703182E-15  -0.8192152425E-02   0.4080576213E-02   0.4080576213E-02   0.4482971045E-18  -0.2073103614E-16  -0.6746635415E-16   0.7750000012E+01
   0.9918078476E+00   0.0000000000E+00   0.6328940382E-18   0.2250000000E-02   0.0000000000E+00  -0.2875308452E-14  -0.1044215241E-01   0.0000000000E+00   0.2875941346E-14  -0.7750000012E+01  -0.6845664242E-14  -0.7752702284E-14  -0.1822341174E-15   0.2831000103E-16  -0.4444575670E-15  -0.8192152425E-02   0.4080576213E-02   0.4080576213E-02  -0.1643892451E-16  -0.3087677292E-16  -0.4719543990E-16   0.7750000012E+01
   0.9918078476E+00   0.1004080576E+01  -0.2400092255E-16   0.2250000000E-02  -0.1122750000E-02  -0.2067783418E-14  -0.1044215241E-01   0.5203326206E-02   0.2043782496E-14  -0.7750000011E+01  -0.3406149488E-13  -0.3407238343E-13  -0.4940728533E-15   0.1382771850E-14  -0.3916098723E-15  -0.8192152424E-02   0.4080576212E-02   0.4080576212E-02  -0.8664396540E-17   0.8969387584E-17  -0.2097086758E-16   0.7750000011E+01
   0.0000000000E+00   0.1004080576E+01  -0.3221938821E-16   0.0000000000E+00  -0.1122750000E-02  -0.7884075515E-15   0.0000000000E+00   0.5203326206E-02   0.7561881633E-15  -0.7750000011E+01   0.7529687294E-13   0.7652647993E-13   0.4953038751E-15  -0.8831811272E-15  -0.1252661135E-16  -0.8192152425E-02   0.4080576212E-02   0.4080576212E-02   0.2570148603E-16  -0.7048494355E-17  -0.3660031421E-18   0.7750000011E+01
   0.0000000000E+00   0.0000000000E+00   0.1004080576E+01   0.0000000000E+00   0.0000000000E+00  -0.1122750000E-02   0.0000000000E+00   0.0000000000E+00   0.5203326206E-02  -0.7750000011E+01  -0.1045615609E-13  -0.9892682825E-14  -0.1091394761E-15  -0.4036704616E-15   0.2815892192E-15  -0.8192152425E-02   0.4080576212E-02   0.4080576212E-02  -0.2171948489E-18  -0.6707768599E-17  -0.3700715486E-16   0.7750000011E+01
   0.9918078476E+00   0.0000000000E+00   0.1004080576E+01   0.2250000000E-02   0.0000000000E+00  -0.1122750000E-02  -0.1044215241E-01   0.0000000000E+00   0.5203326206E-02  -0.7750000011E+01  -0.1215452085E-13  -0.1265305322E-13   0.1232456791E-14   0.1519698737E-15   0.1419490067E-15  -0.8192152424E-02   0.4080576212E-02   0.4080576212E-02  -0.2335363653E-17  -0.1433393524E-16  -0.2880742249E-16   0.7750000011E+01
   0.9918078476E+00   0.1004080576E+01   0.1004080576E+01   0.2250000000E-02  -0.1122750000E-02  -0.1122750000E-02  -0.1044215241E-01   0.5203326206E-02   0.5203326206E-02  -0.7750000010E+01  -0.3452892539E-13  -0.3357833289E-13   0.1712845550E-14   0.1485105183E-14  -0.2657632697E-15  -0.8192152423E-02   0.4080576212E-02   0.4080576212E-02   0.7018291552E-17  -0.3583321786E-18   0.1327326080E-16   0.7750000010E+01
   0.0000000000E+00   0.1004080576E+01   0.1004080576E+01   0.0000000000E+00  -0.1122750000E-02  -0.1122750000E-02   0.0000000000E+00   0.5203326206E-02   0.5203326206E-02  -0.7750000010E+01   0.2128382496E-13   0.1963589160E-13   0.1771255658E-15  -0.1123432509E-14   0.1284706633E-15  -0.8192152424E-02   0.4080576212E-02   0.4080576212E-02  -0.2038654913E-16   0.8490997386E-17   0.1658030457E-16   0.7750000010E+01
   0.1983615695E+01   0.0000000000E+00   0.4318737563E-16   0.4500000000E-02   0.0000000000E+00  -0.6091282939E-14  -0.2088430483E-01   0.0000000000E+00   0.6134470314E-14  -0.7750000012E+01   0.2963268825E-13   0.2956084425E-13   0.1950993129E-14  -0.1848738952E-15  -0.6833831777E-16  -0.8192152425E-02   0.4080576212E-02   0.4080576212E-02  -0.5643836341E-16   0.6717941361E-16  -0.2501380789E-16   0.7750000012E+01
   0.1983615695E+01   0.1004080576E+01   0.3081620335E-16   0.4500000000E-02  -0.1122750000E-02  -0.5422099839E-14  -0.2088430483E-01   0.5203326206E-02   0.5452916043E-14  -0.7750000011E+01  -0.6653095868E-13  -0.6298874321E-13   0.1157835202E-14  -0.2943727860E-14   0.6340449302E-15  -0.8192152424E-02   0.4080576212E-02   0.4080576212E-02  -0.5997250422E-16   0.1699480283E-16   0.3555081341E-16   0.7750000011E+01
   0.1983615695E+01   0.0000000000E+00   0.1004080576E+01   0.4500000000E-02   0.0000000000E+00  -0.1122750000E-02  -0.2088430483E-01   0.0000000000E+00   0.5203326206E-02  -0.7750000011E+01  -0.1690002753E-13  -0.1633150081E-13  -0.1785912702E-14   0.1637042403E-14   0.2663563100E-15  -0.8192152424E-02   0.4080576212E-02   0.4080576212E-02  -0.1199497204E-15   0.4485737024E-16  -0.3790036316E-16   0.7750000011E+01
   0.1983615695E+01   0.1004080576E+01   0.1004080576E+01   0.4500000000E-02  -0.1122750000E-02  -0.1122750000E-02  -0.2088430483E-01   0.5203326206E-02   0.5203326206E-02  -0.7750000010E+01  -0.3112922853E-13  -0.3321833336E-13  -0.8631327167E-15  -0.2199530652E-14   0.5084708335E-15  -0.8192152423E-02   0.4080576212E-02   0.4080576212E-02  -0.9448009631E-16  -0.8585683043E-17   0.1479195191E-16   0.7750000010E+01
     1     2     3     4     5     6     7     8
     2     9    10     3     6    11    12     7
 VARIABLES = X,Y,Z,DU1,DU2,DU3,U1,U2,U3,S11,S22,S33,S12,S13,S23,E11,E22,E33,E12,E13,E23,SMISES
 ZONE, T="0.2150D+01" F=FEPOINT, I=   12 J=    2 ET=BRICK
   0.0000000000E+00   0.0000000000E+00   0.0000000000E+00   0.0000000000E+00   0.0000000000E+00   0.0000000000E+00   0.0000000000E+00   0.0000000000E+00   0.0000000000E+00  -0.6625000010E+01  -0.8430851334E-13  -0.8608526081E-13   0.6213294341E-16  -0.3534566974E-15   0.2634040581E-15  -0.5942152422E-02   0.2957826211E-02   0.2957826211E-02  -0.5021527563E-18  -0.1813959753E-16  -0.6408881977E-16   0.6625000010E+01
   0.9940578476E+00   0.0000000000E+00   0.2738873334E-18   0.2250000000E-02   0.0000000000E+00  -0.3590067048E-18  -0.8192152413E-02   0.0000000000E+00   0.6328940382E-18  -0.6625000010E+01  -0.1743498193E-13  -0.1814972376E-13  -0.4114151129E-15  -0.3297218281E-16  -0.4862747492E-15  -0.5942152422E-02   0.2957826211E-02   0.2957826211E-02  -0.1633990256E-16  -0.3339127001E-16  -0.5040118827E-16   0.6625000010E+01
   0.9940578476E+00   0.1002957826E+01  -0.2460940750E-16   0.2250000000E-02  -0.1122750000E-02  -0.6084849482E-18  -0.8192152413E-02   0.4080576206E-02  -0.2400092255E-16  -0.6625000009E+01  -0.2044874848E-14  -0.2388830217E-14  -0.7912510092E-15   0.1381261285E-14  -0.6426324112E-15  -0.5942152421E-02   0.2957826211E-02   0.2957826211E-02  -0.8960487147E-17   0.1330610591E-16  -0.1844415227E-16   0.6625000009E+01
   0.0000000000E+00   0.1002957826E+01  -0.3185350252E-16   0.0000000000E+00  -0.1122750000E-02   0.3658856874E-18   0.0000000000E+00   0.4080576206E-02  -0.3221938821E-16  -0.6625000010E+01   0.3982683960E-13   0.4141527622E-13   0.3738771670E-15  -0.1056518126E-14  -0.6986469807E-18  -0.5942152421E-02   0.2957826211E-02   0.2957826211E-02   0.2341530956E-16  -0.1068318780E-16  -0.1812107697E-18   0.6625000010E+01
   0.0000000000E+00   0.0000000000E+00   0.1002957826E+01   0.0000000000E+00   0.0000000000E+00  -0.1122750000E-02   0.0000000000E+00   0.0000000000E+00   0.4080576206E-02  -0.6625000010E+01  -0.1001496711E-12  -0.9956043503E-13  -0.7246252746E-16  -0.2801454920E-15   0.5029153157E-15  -0.5942152421E-02   0.2957826211E-02   0.2957826211E-02  -0.3973177470E-18  -0.1130804344E-16  -0.3883046573E-16   0.6625000010E+01
   0.9940578476E+00   0.0000000000E+00   0.1002957826E+01   0.2250000000E-02   0.0000000000E+00  -0.1122750000E-02  -0.8192152413E-02   0.0000000000E+00   0.4080576206E-02  -0.6625000009E+01   0.1370591193E-13   0.1354044646E-13   0.1058100845E-14   0.8706204493E-16   0.3129383675E-15  -0.5942152421E-02   0.2957826211E-02   0.2957826211E-02  -0.1535142725E-17  -0.1045994881E-16  -0.2288619608E-16   0.6625000009E+01
   0.9940578476E+00   0.1002957826E+01   0.1002957826E+01   0.2250000000E-02  -0.1122750000E-02  -0.1122750000E-02  -0.8192152413E-02   0.4080576206E-02   0.4080576206E-02  -0.6625000009E+01  -0.2026320771E-13  -0.1835113398E-13   0.1621666426E-14   0.1470021956E-14  -0.2170522494E-15  -0.5942152420E-02   0.2957826210E-02   0.2957826210E-02   0.7920194188E-17  -0.4713919220E-17   0.5942839519E-17   0.6625000009E+01
   0.0000000000E+00   0.1002957826E+01   0.1002957826E+01   0.0000000000E+00  -0.1122750000E-02  -0.1122750000E-02   0.0000000000E+00   0.4080576206E-02   0.4080576206E-02  -0.6625000009E+01  -0.1497438796E-13  -0.1691076564E-13  -0.1889424270E-15  -0.9708164552E-15   0.1575604748E-15  -0.5942152421E-02   0.2957826210E-02   0.2957826210E-02  -0.2641953677E-16   0.1460086939E-16   0.2724410038E-16   0.6625000009E+01
   0.1988115695E+01   0.0000000000E+00   0.4199136418E-16   0.4500000000E-02   0.0000000000E+00  -0.1196011455E-17  -0.1638430483E-01   0.0000000000E+00   0.4318737563E-16  -0.6625000010E+01  -0.5061150994E-14  -0.5998328114E-14   0.1671817549E-14   0.2242374262E-15  -0.1114430528E-15  -0.5942152422E-02   0.2957826211E-02   0.2957826211E-02  -0.6881448927E-16   0.4277477243E-16  -0.2626612190E-16   0.6625000010E+01
   0.1988115695E+01   0.1002957826E+01   0.2951412106E-16   0.4500000000E-02  -0.1122750000E-02  -0.1302082294E-17  -0.1638430483E-01   0.4080576206E-02   0.3081620335E-16  -0.6625000009E+01  -0.4125945367E-13  -0.3740993418E-13   0.1138631600E-14  -0.2587986590E-14   0.5130374123E-15  -0.5942152421E-02   0.2957826210E-02   0.2957826210E-02  -0.7054566287E-16   0.3049009787E-16   0.3221120040E-16   0.6625000009E+01
   0.1988115695E+01   0.0000000000E+00   0.1002957826E+01   0.4500000000E-02   0.0000000000E+00  -0.1122750000E-02  -0.1638430483E-01   0.0000000000E+00   0.4080576206E-02  -0.6625000009E+01   0.1049055493E-12   0.1047821795E-12  -0.2061673795E-14   0.1424995804E-14   0.4724745444E-15  -0.5942152421E-02   0.2957826210E-02   0.2957826210E-02  -0.1172632551E-15   0.6099486770E-16  -0.3701073328E-16   0.6625000009E+01
   0.1988115695E+01   0.1002957826E+01   0.1002957826E+01   0.4500000000E-02  -0.1122750000E-02  -0.1122750000E-02  -0.1638430483E-01   0.4080576206E-02   0.4080576206E-02  -0.6625000008E+01   0.1587152718E-13   0.1368627424E-13  -0.1007222481E-14  -0.1988886591E-14   0.4952417756E-15  -0.5942152420E-02   0.2957826210E-02   0.2957826210E-02  -0.8504330497E-16  -0.2896944670E-16   0.1994488726E-16   0.6625000008E+01
     1     2     3     4     5     6     7     8
     2     9    10     3     6    11    12     7
 VARIABLES = X,Y,Z,DU1,DU2,DU3,U1,U2,U3,S11,S22,S33,S12,S13,S23,E11,E22,E33,E12,E13,E23,SMISES
 ZONE, T="0.2200D+01" F=FEPOINT, I=   12 J=    2 ET=BRICK
   0.0000000000E+00   0.0000000000E+00   0.0000000000E+00   0.0000000000E+00   0.0000000000E+00   0.0000000000E+00   0.0000000000E+00   0.0000000000E+00   0.0000000000E+00  -0.5500000009E+01   0.1171978707E-12   0.1161259011E-12   0.6054010811E-16  -0.3170651171E-15   0.4868292756E-15  -0.3692152418E-02   0.1835076209E-02   0.1835076209E-02   0.7605184263E-18  -0.2158083284E-16  -0.6172102519E-16   0.5500000009E+01
   0.9963078476E+00   0.0000000000E+00   0.2816104767E-19   0.2250000000E-02   0.0000000000E+00  -0.2457262858E-18  -0.5942152413E-02   0.0000000000E+00   0.2738873334E-18  -0.5500000008E+01   0.4391496933E-13   0.4257871628E-13  -0.5726576674E-15  -0.4972457367E-16  -0.3922957255E-15  -0.3692152418E-02   0.1835076209E-02   0.1835076209E-02  -0.2091280393E-16  -0.2616686800E-16  -0.4793150002E-16   0.5500000008E+01
   0.9963078476E+00   0.1001835076E+01  -0.2421408606E-16   0.2250000000E-02  -0.1122750000E-02   0.3953214390E-18  -0.5942152413E-02   0.2957826206E-02  -0.2460940750E-16  -0.5500000008E+01  -0.1111194397E-13  -0.1148166218E-13  -0.9701933688E-15   0.1404990632E-14  -0.6233341758E-15  -0.3692152418E-02   0.1835076209E-02   0.1835076209E-02  -0.1175037475E-16   0.4512812765E-17  -0.1887206231E-16   0.5500000008E+01
   0.0000000000E+00   0.1001835076E+01  -0.3083062385E-16   0.0000000000E+00  -0.1122750000E-02   0.1022878670E-17   0.0000000000E+00   0.2957826206E-02  -0.3185350252E-16  -0.5500000008E+01  -0.7620697283E-13  -0.7528812150E-13   0.4603448044E-15  -0.1105854116E-14  -0.1045720497E-15  -0.3692152418E-02   0.1835076209E-02   0.1835076209E-02   0.2456449881E-16  -0.7733691660E-17  -0.2572663067E-17   0.5500000008E+01
   0.0000000000E+00   0.0000000000E+00   0.1001835076E+01   0.0000000000E+00   0.0000000000E+00  -0.1122750000E-02   0.0000000000E+00   0.0000000000E+00   0.2957826206E-02  -0.5500000008E+01   0.1234334445E-12   0.1243591990E-12  -0.7146852507E-16  -0.5146159727E-15   0.4387636056E-15  -0.3692152418E-02   0.1835076209E-02   0.1835076209E-02  -0.1240801286E-17  -0.8354890186E-17  -0.3925860414E-16   0.5500000008E+01
   0.9963078476E+00   0.0000000000E+00   0.1001835076E+01   0.2250000000E-02   0.0000000000E+00  -0.1122750000E-02  -0.5942152413E-02   0.0000000000E+00   0.2957826206E-02  -0.5500000008E+01  -0.3784518401E-13  -0.3798488667E-13   0.1072621411E-14   0.1396219589E-15   0.3704835515E-15  -0.3692152418E-02   0.1835076209E-02   0.1835076209E-02   0.3629610666E-18  -0.1739187184E-16  -0.2388211505E-16   0.5500000008E+01
   0.9963078476E+00   0.1001835076E+01   0.1001835076E+01   0.2250000000E-02  -0.1122750000E-02  -0.1122750000E-02  -0.5942152413E-02   0.2957826206E-02   0.2957826206E-02  -0.5500000007E+01   0.2042721358E-13   0.2238390981E-13   0.1683763060E-14   0.1654063747E-14  -0.2283134246E-15  -0.3692152417E-02   0.1835076209E-02   0.1835076209E-02   0.2758138180E-17   0.2891269859E-18   0.5596147194E-17   0.5500000007E+01
   0.0000000000E+00   0.1001835076E+01   0.1001835076E+01   0.0000000000E+00  -0.1122750000E-02  -0.1122750000E-02   0.0000000000E+00   0.2957826206E-02   0.2957826206E-02  -0.5500000007E+01  -0.2817908752E-13  -0.3007682099E-13  -0.7674840052E-16  -0.1006383479E-14  -0.4444156923E-16  -0.3692152418E-02   0.1835076209E-02   0.1835076209E-02  -0.2258651316E-16   0.1109585130E-16   0.2462091842E-16   0.5500000007E+01
   0.1992615695E+01   0.0000000000E+00   0.4033613838E-16   0.4500000000E-02   0.0000000000E+00  -0.1655225797E-17  -0.1188430483E-01   0.0000000000E+00   0.4199136418E-16  -0.5500000008E+01  -0.3115382391E-13  -0.3155275652E-13   0.1614190806E-14  -0.2209290739E-15  -0.1744556620E-15  -0.3692152418E-02   0.1835076209E-02   0.1835076209E-02  -0.7217051053E-16   0.3206695749E-16  -0.2655801574E-16   0.5500000008E+01
   0.1992615695E+01   0.1001835076E+01   0.2766238327E-16   0.4500000000E-02  -0.1122750000E-02  -0.1851737788E-17  -0.1188430483E-01   0.2957826206E-02   0.2951412106E-16  -0.5500000008E+01   0.3016456344E-14   0.6817901789E-14   0.1027662127E-14  -0.2484431976E-14   0.4973010161E-15  -0.3692152418E-02   0.1835076209E-02   0.1835076209E-02  -0.7578579467E-16   0.2868816123E-16   0.3261020677E-16   0.5500000008E+01
   0.1992615695E+01   0.0000000000E+00   0.1001835076E+01   0.4500000000E-02   0.0000000000E+00  -0.1122750000E-02  -0.1188430483E-01   0.0000000000E+00   0.2957826206E-02  -0.5500000008E+01  -0.1681559940E-12  -0.1678982229E-12  -0.1601366190E-14   0.1347030595E-14   0.3352810442E-15  -0.3692152418E-02   0.1835076209E-02   0.1835076209E-02  -0.1137368162E-15   0.4973895973E-16  -0.3580834832E-16   0.5500000008E+01
   0.1992615695E+01   0.1001835076E+01   0.1001835076E+01   0.4500000000E-02  -0.1122750000E-02  -0.1122750000E-02  -0.1188430483E-01   0.2957826206E-02   0.2957826206E-02  -0.5500000007E+01   0.5658948332E-13   0.5427634117E-13  -0.6161414049E-15  -0.2254927196E-14   0.2041472097E-15  -0.3692152417E-02   0.1835076209E-02   0.1835076209E-02  -0.8108912742E-16  -0.2897222997E-16   0.1242426471E-16   0.5500000007E+01
     1     2     3     4     5     6     7     8
     2     9    10     3     6    11    12     7
 VARIABLES = X,Y,Z,DU1,DU2,DU3,U1,U2,U3,S11,S22,S33,S12,S13,S23,E11,E22,E33,E12,E13,E23,SMISES
 ZONE, T="0.2250D+01" F=FEPOINT, I=   12 J=    2 ET=BRICK
   0.0000000000E+00   0.0000000000E+00   0.0000000000E+00   0.0000000000E+00   0.0000000000E+00   0.0000000000E+00   0.0000000000E+00   0.0000000000E+00   0.0000000000E+00  -0.4375000007E+01  -0.1263638536E-12  -0.1284798417E-12   0.5546825199E-16  -0.4552899529E-15   0.7007420372E-15  -0.1442152415E-02   0.7123262074E-03   0.7123262074E-03  -0.4254945953E-18  -0.2222327164E-16  -0.5925131700E-16   0.4375000007E+01
   0.9985578476E+00   0.0000000000E+00  -0.1298426290E-17   0.2250000000E-02   0.0000000000E+00  -0.1326587338E-17  -0.3692152413E-02   0.0000000000E+00   0.2816104767E-19  -0.4375000007E+01  -0.2146238980E-13  -0.2310740574E-13  -0.2541231137E-15   0.1951517815E-15  -0.3119214379E-15  -0.1442152415E-02   0.7123262074E-03   0.7123262074E-03  -0.1442577906E-16  -0.2290598870E-16  -0.4720525917E-16   0.4375000007E+01
   0.9985578476E+00   0.1000712326E+01  -0.2495637074E-16   0.2250000000E-02  -0.1122750000E-02  -0.7422846755E-18  -0.3692152413E-02   0.1835076206E-02  -0.2421408606E-16  -0.4375000006E+01  -0.1640204770E-13  -0.1698438066E-13  -0.6956586082E-15   0.1279964058E-14  -0.9415393421E-15  -0.1442152415E-02   0.7123262073E-03   0.7123262073E-03  -0.6901289649E-17   0.5608305881E-17  -0.2275382244E-16   0.4375000006E+01
   0.0000000000E+00   0.1000712326E+01  -0.2962418255E-16   0.0000000000E+00  -0.1122750000E-02   0.1206441306E-17   0.0000000000E+00   0.1835076206E-02  -0.3083062385E-16  -0.4375000006E+01   0.1279982918E-12   0.1286130952E-12   0.2602429503E-15  -0.1291154479E-14  -0.5722192267E-15  -0.1442152415E-02   0.7123262073E-03   0.7123262073E-03   0.2085276026E-16  -0.1132737510E-16  -0.6480960606E-17   0.4375000006E+01
   0.0000000000E+00   0.0000000000E+00   0.1000712326E+01   0.0000000000E+00   0.0000000000E+00  -0.1122750000E-02   0.0000000000E+00   0.0000000000E+00   0.1835076206E-02  -0.4375000006E+01   0.4047940386E-13   0.4196644353E-13  -0.8448193205E-16  -0.4886838416E-15   0.8239777690E-15  -0.1442152415E-02   0.7123262073E-03   0.7123262073E-03  -0.2088946380E-19  -0.9333622953E-17  -0.3215430371E-16   0.4375000006E+01
   0.9985578476E+00   0.0000000000E+00   0.1000712326E+01   0.2250000000E-02   0.0000000000E+00  -0.1122750000E-02  -0.3692152413E-02   0.0000000000E+00   0.1835076206E-02  -0.4375000006E+01   0.4421534097E-14   0.4646105462E-14   0.1176759165E-14   0.2055129409E-15   0.6284561240E-15  -0.1442152415E-02   0.7123262073E-03   0.7123262073E-03  -0.1176491556E-17  -0.1676527920E-16  -0.2107041705E-16   0.4375000006E+01
   0.9985578476E+00   0.1000712326E+01   0.1000712326E+01   0.2250000000E-02  -0.1122750000E-02  -0.1122750000E-02  -0.3692152413E-02   0.1835076206E-02   0.1835076206E-02  -0.4375000006E+01  -0.3987735052E-13  -0.3733832121E-13   0.1808876935E-14   0.1632612427E-14  -0.3794220600E-15  -0.1442152415E-02   0.7123262072E-03   0.7123262072E-03   0.6336726036E-17  -0.3274218733E-18   0.2663530801E-17   0.4375000006E+01
   0.0000000000E+00   0.1000712326E+01   0.1000712326E+01   0.0000000000E+00  -0.1122750000E-02  -0.1122750000E-02   0.0000000000E+00   0.1835076206E-02   0.1835076206E-02  -0.4375000006E+01  -0.6864754651E-13  -0.7030418025E-13  -0.7079498896E-16  -0.1224953838E-14  -0.2670333188E-15  -0.1442152415E-02   0.7123262073E-03   0.7123262073E-03  -0.2311941609E-16   0.9922185789E-17   0.1876917607E-16   0.4375000006E+01
   0.1997115695E+01   0.0000000000E+00   0.3416992161E-16   0.4500000000E-02   0.0000000000E+00  -0.6166216772E-17  -0.7384304825E-02   0.0000000000E+00   0.4033613838E-16  -0.4375000007E+01   0.1566026099E-12   0.1555279182E-12   0.1716034670E-14   0.1162926924E-16   0.4833493376E-16  -0.1442152415E-02   0.7123262074E-03   0.7123262074E-03  -0.6830629825E-16   0.4108096931E-16  -0.2249151549E-16   0.4375000007E+01
   0.1997115695E+01   0.1000712326E+01   0.2278346271E-16   0.4500000000E-02  -0.1122750000E-02  -0.4878920563E-17  -0.7384304825E-02   0.1835076206E-02   0.2766238327E-16  -0.4375000006E+01  -0.8377271253E-13  -0.8028474488E-13   0.1290156415E-14  -0.2702710521E-14   0.3371030237E-15  -0.1442152415E-02   0.7123262073E-03   0.7123262073E-03  -0.7336896324E-16   0.2229114557E-16   0.2567073552E-16   0.4375000006E+01
   0.1997115695E+01   0.0000000000E+00   0.1000712326E+01   0.4500000000E-02   0.0000000000E+00  -0.1122750000E-02  -0.7384304825E-02   0.0000000000E+00   0.1835076206E-02  -0.4375000006E+01  -0.3520884061E-13  -0.3497610293E-13  -0.2188272080E-14   0.1797172747E-14   0.7458085129E-15  -0.1442152415E-02   0.7123262073E-03   0.7123262073E-03  -0.1236619106E-15   0.5133594388E-16  -0.3247278939E-16   0.4375000006E+01
   0.1997115695E+01   0.1000712326E+01   0.1000712326E+01   0.4500000000E-02  -0.1122750000E-02  -0.1122750000E-02  -0.7384304825E-02   0.1835076206E-02   0.1835076206E-02  -0.4375000006E+01  -0.3890856539E-14  -0.5716550371E-14  -0.1091391386E-14  -0.2602944078E-14   0.1721912101E-15  -0.1442152414E-02   0.7123262072E-03   0.7123262072E-03  -0.8873643860E-16  -0.2693790231E-16   0.1673514932E-16   0.4375000006E+01
     1     2     3     4     5     6     7     8
     2     9    10     3     6    11    12     7
 VARIABLES = X,Y,Z,DU1,DU2,DU3,U1,U2,U3,S11,S22,S33,S12,S13,S23,E11,E22,E33,E12,E13,E23,SMISES
 ZONE, T="0.2300D+01" F=FEPOINT, I=   12 J=    2 ET=BRICK
   0.0000000000E+00   0.0000000000E+00   0.0000000000E+00   0.0000000000E+00   0.0000000000E+00   0.0000000000E+00   0.0000000000E+00   0.0000000000E+00   0.0000000000E+00  -0.3250000005E+01   0.4857681749E-13   0.4646282216E-13   0.4055711062E-16  -0.4711712927E-15   0.6449930243E-15   0.8078475887E-03  -0.4104237943E-03  -0.4104237943E-03  -0.1687612215E-18  -0.2076499038E-16  -0.5990428953E-16   0.3250000005E+01
   0.1000807848E+01   0.0000000000E+00  -0.1366473621E-17   0.2250000000E-02   0.0000000000E+00  -0.6804733113E-19  -0.1442152413E-02   0.0000000000E+00  -0.1298426290E-17  -0.3250000005E+01  -0.2591740061E-13  -0.2781022394E-13  -0.9557720919E-15  -0.2716736873E-15  -0.4042727673E-15   0.8078475886E-03  -0.4104237943E-03  -0.4104237943E-03  -0.2402295407E-16  -0.3083500232E-16  -0.4832619030E-16   0.3250000005E+01
   0.1000807848E+01   0.9995895762E+00  -0.2552582177E-16   0.2250000000E-02  -0.1122750000E-02  -0.5694510362E-18  -0.1442152413E-02   0.7123262063E-03  -0.2495637074E-16  -0.3250000005E+01   0.8018659199E-13   0.7981142946E-13  -0.1355858597E-14   0.1721792501E-14  -0.1046361837E-14   0.8078475885E-03  -0.4104237943E-03  -0.4104237943E-03  -0.1478875146E-16   0.1313956487E-16  -0.2439610914E-16   0.3250000005E+01
   0.0000000000E+00   0.9995895762E+00  -0.2991231887E-16   0.0000000000E+00  -0.1122750000E-02  -0.2881363231E-18   0.0000000000E+00   0.7123262063E-03  -0.2962418255E-16  -0.3250000005E+01  -0.1198390759E-12  -0.1188728799E-12   0.4532298682E-15  -0.1326500573E-14  -0.5604594776E-15   0.8078475886E-03  -0.4104237943E-03  -0.4104237943E-03   0.2329495065E-16  -0.1344696873E-16  -0.5994061305E-17   0.3250000005E+01
   0.0000000000E+00   0.0000000000E+00   0.9995895762E+00   0.0000000000E+00   0.0000000000E+00  -0.1122750000E-02   0.0000000000E+00   0.0000000000E+00   0.7123262063E-03  -0.3250000005E+01  -0.9826363449E-13  -0.9690594283E-13  -0.5730701355E-16  -0.4316039410E-15   0.1051998419E-14   0.8078475886E-03  -0.4104237943E-03  -0.4104237943E-03   0.3925279809E-19  -0.9108433364E-17  -0.3188123863E-16   0.3250000005E+01
   0.1000807848E+01   0.0000000000E+00   0.9995895762E+00   0.2250000000E-02   0.0000000000E+00  -0.1122750000E-02  -0.1442152413E-02   0.0000000000E+00   0.7123262063E-03  -0.3250000005E+01   0.3114427933E-13   0.3138372485E-13   0.1331626742E-14  -0.2273942035E-15   0.6988091200E-15   0.8078475885E-03  -0.4104237943E-03  -0.4104237943E-03   0.1440208289E-17  -0.2251609336E-16  -0.1977344172E-16   0.3250000005E+01
   0.1000807848E+01   0.9995895762E+00   0.9995895762E+00   0.2250000000E-02  -0.1122750000E-02  -0.1122750000E-02  -0.1442152413E-02   0.7123262063E-03   0.7123262063E-03  -0.3250000004E+01  -0.2047959455E-13  -0.1780378012E-13   0.2097395411E-14   0.2163514746E-14  -0.4128331821E-15   0.8078475884E-03  -0.4104237942E-03  -0.4104237942E-03   0.8232345561E-17   0.3121673305E-17   0.2751673127E-17   0.3250000004E+01
   0.0000000000E+00   0.9995895762E+00   0.9995895762E+00   0.0000000000E+00  -0.1122750000E-02  -0.1122750000E-02   0.0000000000E+00   0.7123262063E-03   0.7123262063E-03  -0.3250000004E+01   0.7449525824E-13   0.7322520978E-13  -0.1232199146E-15  -0.1328035090E-14  -0.3928250252E-16   0.8078475885E-03  -0.4104237942E-03  -0.4104237942E-03  -0.2291304030E-16   0.1007641829E-16   0.2417948151E-16   0.3250000004E+01
   0.2001615695E+01   0.0000000000E+00   0.3408256056E-16   0.4500000000E-02   0.0000000000E+00  -0.8736104868E-19  -0.2884304825E-02   0.0000000000E+00   0.3416992161E-16  -0.3250000005E+01  -0.1977987982E-12  -0.1993710974E-12   0.1664239974E-14   0.3387914117E-15  -0.5385339212E-17   0.8078475886E-03  -0.4104237943E-03  -0.4104237943E-03  -0.6785131272E-16   0.4929575544E-16  -0.2290940006E-16   0.3250000005E+01
   0.2001615695E+01   0.9995895762E+00   0.2249829024E-16   0.4500000000E-02  -0.1122750000E-02  -0.2851724648E-18  -0.2884304825E-02   0.7123262063E-03   0.2278346271E-16  -0.3250000005E+01   0.1857812637E-12   0.1893321796E-12   0.1201086323E-14  -0.2388089492E-14   0.3202617751E-15   0.8078475885E-03  -0.4104237943E-03  -0.4104237943E-03  -0.7359411967E-16   0.1898879099E-16   0.2624896157E-16   0.3250000005E+01
   0.2001615695E+01   0.0000000000E+00   0.9995895762E+00   0.4500000000E-02   0.0000000000E+00  -0.1122750000E-02  -0.2884304825E-02   0.0000000000E+00   0.7123262063E-03  -0.3250000005E+01   0.2026786087E-12   0.2030704427E-12  -0.2258595911E-14   0.1870783871E-14   0.7454862466E-15   0.8078475885E-03  -0.4104237943E-03  -0.4104237943E-03  -0.1232649378E-15   0.5352096860E-16  -0.3318816584E-16   0.3250000005E+01
   0.2001615695E+01   0.9995895762E+00   0.9995895762E+00   0.4500000000E-02  -0.1122750000E-02  -0.1122750000E-02  -0.2884304825E-02   0.7123262063E-03   0.7123262063E-03  -0.3250000004E+01  -0.6229540701E-13  -0.6423411588E-13  -0.1061926394E-14  -0.2302519471E-14   0.1879208770E-15   0.8078475884E-03  -0.4104237942E-03  -0.4104237942E-03  -0.8951807895E-16  -0.2117158901E-16   0.1699555464E-16   0.3250000004E+01
     1     2     3     4     5     6     7     8
     2     9    10     3     6    11    12     7
 VARIABLES = X,Y,Z,DU1,DU2,DU3,U1,U2,U3,S11,S22,S33,S12,S13,S23,E11,E22,E33,E12,E13,E23,SMISES
 ZONE, T="0.2350D+01" F=FEPOINT, I=   12 J=    2 ET=BRICK
   0.0000000000E+00   0.0000000000E+00   0.0000000000E+00   0.0000000000E+00   0.0000000000E+00   0.0000000000E+00   0.0000000000E+00   0.0000000000E+00   0.0000000000E+00  -0.2125000003E+01   0.7212486164E-13   0.7038466788E-13   0.1278558847E-16  -0.4516954165E-15   0.4164071500E-15   0.3057847592E-02  -0.1533173796E-02  -0.1533173796E-02  -0.7969674557E-19  -0.2128967719E-16  -0.6267995933E-16   0.2125000003E+01
   0.1003057848E+01   0.0000000000E+00  -0.8187754490E-18   0.2250000000E-02   0.0000000000E+00   0.5476981721E-18   0.8078475874E-03   0.0000000000E+00  -0.1366473621E-17  -0.2125000003E+01   0.2794683794E-13   0.2647652193E-13  -0.7598123306E-15  -0.2651816652E-15  -0.4727525362E-15   0.3057847592E-02  -0.1533173796E-02  -0.1533173796E-02  -0.2238782019E-16  -0.2941078005E-16  -0.4925742034E-16   0.2125000003E+01
   0.1003057848E+01   0.9984668262E+00  -0.2539153259E-16   0.2250000000E-02  -0.1122750000E-02   0.1342891805E-18   0.8078475874E-03  -0.4104237937E-03  -0.2552582177E-16  -0.2125000003E+01  -0.9691077717E-13  -0.9693726928E-13  -0.1181568485E-14   0.1532993642E-14  -0.6340253124E-15   0.3057847592E-02  -0.1533173796E-02  -0.1533173796E-02  -0.1290522052E-16   0.1118269671E-16  -0.2001317311E-16   0.2125000003E+01
   0.0000000000E+00   0.9984668262E+00  -0.3123975700E-16   0.0000000000E+00  -0.1122750000E-02  -0.1327438127E-17   0.0000000000E+00  -0.4104237937E-03  -0.2991231887E-16  -0.2125000003E+01  -0.2741631109E-13  -0.2624457274E-13   0.3471389461E-15  -0.1126041277E-14  -0.4973699870E-15   0.3057847592E-02  -0.1533173796E-02  -0.1533173796E-02   0.2191444201E-16  -0.1077847855E-16  -0.4701218449E-17   0.2125000003E+01
   0.0000000000E+00   0.0000000000E+00   0.9984668262E+00   0.0000000000E+00   0.0000000000E+00  -0.1122750000E-02   0.0000000000E+00   0.0000000000E+00  -0.4104237937E-03  -0.2125000003E+01  -0.7015649005E-14  -0.5954203529E-14  -0.5736328089E-16  -0.4082608654E-15   0.8642937874E-15   0.3057847592E-02  -0.1533173796E-02  -0.1533173796E-02  -0.2418545396E-18  -0.8997382806E-17  -0.3411132446E-16   0.2125000003E+01
   0.1003057848E+01   0.0000000000E+00   0.9984668262E+00   0.2250000000E-02   0.0000000000E+00  -0.1122750000E-02   0.8078475874E-03   0.0000000000E+00  -0.4104237937E-03  -0.2125000003E+01  -0.2842348708E-13  -0.2868437127E-13   0.1171080643E-14  -0.5167645920E-16   0.5341786174E-15   0.3057847592E-02  -0.1533173796E-02  -0.1533173796E-02   0.2240590017E-18  -0.2066923659E-16  -0.2113915004E-16   0.2125000003E+01
   0.1003057848E+01   0.9984668262E+00   0.9984668262E+00   0.2250000000E-02  -0.1122750000E-02  -0.1122750000E-02   0.8078475874E-03  -0.4104237937E-03  -0.4104237937E-03  -0.2125000003E+01   0.6876453782E-13   0.7063869674E-13   0.1878565430E-14   0.1876506013E-14  -0.1275141089E-15   0.3057847591E-02  -0.1533173796E-02  -0.1533173796E-02   0.6517753108E-17   0.5107855944E-18   0.7065801023E-17   0.2125000003E+01
   0.0000000000E+00   0.9984668262E+00   0.9984668262E+00   0.0000000000E+00  -0.1122750000E-02  -0.1122750000E-02   0.0000000000E+00  -0.4104237937E-03  -0.4104237937E-03  -0.2125000003E+01   0.4494237520E-13   0.4321598782E-13   0.8266860975E-16  -0.1163001985E-14  -0.1841499829E-16   0.3057847591E-02  -0.1533173796E-02  -0.1533173796E-02  -0.2077095637E-16   0.1230289935E-16   0.2251788448E-16   0.2125000003E+01
   0.2006115695E+01   0.0000000000E+00   0.3707518281E-16   0.4500000000E-02   0.0000000000E+00   0.2992622255E-17   0.1615695175E-02   0.0000000000E+00   0.3408256056E-16  -0.2125000003E+01   0.1109784261E-12   0.1100250137E-12   0.1006323941E-14  -0.1611174247E-15  -0.1270936208E-15   0.3057847592E-02  -0.1533173796E-02  -0.1533173796E-02  -0.7744714362E-16   0.3619727879E-16  -0.2477068473E-16   0.2125000003E+01
   0.2006115695E+01   0.9984668262E+00   0.2479101487E-16   0.4500000000E-02  -0.1122750000E-02   0.2292724625E-17   0.1615695175E-02  -0.4104237937E-03   0.2249829024E-16  -0.2125000003E+01  -0.8904250175E-13  -0.8564015828E-13   0.8411501015E-15  -0.2274314252E-14   0.3660661102E-15   0.3057847592E-02  -0.1533173796E-02  -0.1533173796E-02  -0.8055540441E-16   0.2168651273E-16   0.2740979125E-16   0.2125000003E+01
   0.2006115695E+01   0.0000000000E+00   0.9984668262E+00   0.4500000000E-02   0.0000000000E+00  -0.1122750000E-02   0.1615695175E-02   0.0000000000E+00  -0.4104237937E-03  -0.2125000003E+01  -0.5373689700E-13  -0.5302451282E-13  -0.1487143963E-14   0.1295529315E-14   0.2904550413E-15   0.3057847592E-02  -0.1533173796E-02  -0.1533173796E-02  -0.1141875361E-15   0.4638005269E-16  -0.3834836420E-16   0.2125000003E+01
   0.2006115695E+01   0.9984668262E+00   0.9984668262E+00   0.4500000000E-02  -0.1122750000E-02  -0.1122750000E-02   0.1615695175E-02  -0.4104237937E-03  -0.4104237937E-03  -0.2125000003E+01   0.4460314500E-13   0.4233127151E-13  -0.6319050082E-15  -0.1878760909E-14  -0.4290791738E-16   0.3057847591E-02  -0.1533173796E-02  -0.1533173796E-02  -0.8125599886E-16  -0.1799317947E-16   0.1408894514E-16   0.2125000003E+01
     1     2     3     4     5     6     7     8
     2     9    10     3     6    11    12     7
 VARIABLES = X,Y,Z,DU1,DU2,DU3,U1,U2,U3,S11,S22,S33,S12,S13,S23,E11,E22,E33,E12,E13,E23,SMISES
 ZONE, T="0.2400D+01" F=FEPOINT, I=   12 J=    2 ET=BRICK
   0.0000000000E+00   0.0000000000E+00   0.0000000000E+00   0.0000000000E+00   0.0000000000E+00   0.0000000000E+00   0.0000000000E+00   0.0000000000E+00   0.0000000000E+00  -0.1000000002E+01  -0.1761614662E-13  -0.1959571431E-13   0.2772021682E-16  -0.5634858300E-15   0.4953687088E-15   0.5307847596E-02  -0.2655923798E-02  -0.2655923798E-02   0.5266539476E-19  -0.2086800457E-16  -0.6129377068E-16   0.1000000002E+01
   0.1005307848E+01   0.0000000000E+00  -0.1631379639E-17   0.2250000000E-02   0.0000000000E+00  -0.8126041898E-18   0.3057847587E-02   0.0000000000E+00  -0.8187754490E-18  -0.1000000002E+01   0.9273576747E-15  -0.5835953061E-15  -0.4972510622E-15   0.5508457154E-17  -0.4078650816E-15   0.5307847596E-02  -0.2655923798E-02  -0.2655923798E-02  -0.1862156265E-16  -0.2941256583E-16  -0.4777205714E-16   0.1000000002E+01
   0.1005307848E+01   0.9973440762E+00  -0.2585645503E-16   0.2250000000E-02  -0.1122750000E-02  -0.4649224369E-18   0.3057847587E-02  -0.1533173794E-02  -0.2539153259E-16  -0.1000000001E+01   0.3118868344E-13   0.3089406545E-13  -0.9950845637E-15   0.1377240759E-14  -0.8504663398E-15   0.5307847595E-02  -0.2655923797E-02  -0.2655923797E-02  -0.9803685430E-17   0.1014338743E-16  -0.2420110023E-16   0.1000000001E+01
   0.0000000000E+00   0.9973440762E+00  -0.3068813978E-16   0.0000000000E+00  -0.1122750000E-02   0.5516172210E-18   0.0000000000E+00  -0.1533173794E-02  -0.3123975700E-16  -0.1000000001E+01   0.8600230850E-13   0.8682092846E-13   0.3520003271E-15  -0.1279431014E-14  -0.6518983103E-15   0.5307847595E-02  -0.2655923798E-02  -0.2655923798E-02   0.2138453487E-16  -0.1221919195E-16  -0.6261715596E-17   0.1000000001E+01
   0.0000000000E+00   0.0000000000E+00   0.9973440762E+00   0.0000000000E+00   0.0000000000E+00  -0.1122750000E-02   0.0000000000E+00   0.0000000000E+00  -0.1533173794E-02  -0.1000000001E+01   0.3184411168E-13   0.3321432004E-13  -0.2994228318E-16  -0.2301228673E-15   0.1041065472E-14   0.5307847595E-02  -0.2655923798E-02  -0.2655923798E-02   0.4599502588E-18  -0.7383683392E-17  -0.3208004187E-16   0.1000000001E+01
   0.1005307848E+01   0.0000000000E+00   0.9973440762E+00   0.2250000000E-02   0.0000000000E+00  -0.1122750000E-02   0.3057847587E-02   0.0000000000E+00  -0.1533173794E-02  -0.1000000001E+01   0.5511764299E-14   0.5678102354E-14   0.9061200880E-15   0.1538304495E-15   0.4812612613E-15   0.5307847595E-02  -0.2655923797E-02  -0.2655923797E-02  -0.3040538460E-17  -0.1647880964E-16  -0.2281100797E-16   0.1000000001E+01
   0.1005307848E+01   0.9973440762E+00   0.9973440762E+00   0.2250000000E-02  -0.1122750000E-02  -0.1122750000E-02   0.3057847587E-02  -0.1533173794E-02  -0.1533173794E-02  -0.1000000001E+01  -0.1279809203E-13  -0.1072419976E-13   0.1765648163E-14   0.1649603752E-14  -0.4137807291E-15   0.5307847594E-02  -0.2655923797E-02  -0.2655923797E-02   0.4307955181E-17  -0.1693205559E-17   0.3641475888E-17   0.1000000001E+01
   0.0000000000E+00   0.9973440762E+00   0.9973440762E+00   0.0000000000E+00  -0.1122750000E-02  -0.1122750000E-02   0.0000000000E+00  -0.1533173794E-02  -0.1533173794E-02  -0.1000000001E+01  -0.6508990400E-13  -0.6637147281E-13   0.7534368620E-16  -0.1401943092E-14  -0.1909463325E-15   0.5307847594E-02  -0.2655923797E-02  -0.2655923797E-02  -0.2029012393E-16   0.8558233672E-17   0.2116882745E-16   0.1000000001E+01
   0.2010615695E+01   0.0000000000E+00   0.3398376029E-16   0.4500000000E-02   0.0000000000E+00  -0.3091422521E-17   0.6115695175E-02   0.0000000000E+00   0.3707518281E-16  -0.1000000002E+01   0.7019070195E-14   0.6127609672E-14   0.1761963351E-14   0.2129325161E-15   0.1573879165E-15   0.5307847595E-02  -0.2655923798E-02  -0.2655923798E-02  -0.6788808294E-16   0.5027355607E-16  -0.2100233185E-16   0.1000000002E+01
   0.2010615695E+01   0.9973440762E+00   0.2346578931E-16   0.4500000000E-02  -0.1122750000E-02  -0.1325225560E-17   0.6115695175E-02  -0.1533173794E-02   0.2479101487E-16  -0.1000000001E+01   0.2232312510E-13   0.2577925393E-13   0.1336269690E-14  -0.2799235734E-14   0.7202327415E-15   0.5307847595E-02  -0.2655923797E-02  -0.2655923797E-02  -0.7442467622E-16   0.1808701354E-16   0.2976608643E-16   0.1000000001E+01
   0.2010615695E+01   0.0000000000E+00   0.9973440762E+00   0.4500000000E-02   0.0000000000E+00  -0.1122750000E-02   0.6115695175E-02   0.0000000000E+00  -0.1533173794E-02  -0.1000000001E+01  -0.5580776285E-13  -0.5497891205E-13  -0.1791472221E-14   0.1740840130E-14   0.5544835024E-15   0.5307847595E-02  -0.2655923797E-02  -0.2655923797E-02  -0.1181989728E-15   0.4490012835E-16  -0.3491759877E-16   0.1000000001E+01
   0.2010615695E+01   0.9973440762E+00   0.9973440762E+00   0.4500000000E-02  -0.1122750000E-02  -0.1122750000E-02   0.6115695175E-02  -0.1533173794E-02  -0.1533173794E-02  -0.1000000001E+01   0.6867528542E-13   0.6626191191E-13  -0.6688375644E-15  -0.2385763616E-14   0.2089320379E-15   0.5307847594E-02  -0.2655923797E-02  -0.2655923797E-02  -0.8157839367E-16  -0.2243055479E-16   0.1748169676E-16   0.1000000001E+01
     1     2     3     4     5     6     7     8
     2     9    10     3     6    11    12     7
 VARIABLES = X,Y,Z,DU1,DU2,DU3,U1,U2,U3,S11,S22,S33,S12,S13,S23,E11,E22,E33,E12,E13,E23,SMISES
 ZONE, T="0.2450D+01" F=FEPOINT, I=   12 J=    2 ET=BRICK
   0.0000000000E+00   0.0000000000E+00   0.0000000000E+00   0.0000000000E+00   0.0000000000E+00   0.0000000000E+00   0.0000000000E+00   0.0000000000E+00   0.0000000000E+00   0.1250000002E+00  -0.1579924805E-13  -0.1741907311E-13   0.1907321128E-16  -0.5928944171E-15   0.4244425658E-15   0.7557847599E-02  -0.3778673800E-02  -0.3778673800E-02  -0.4938497929E-18  -0.2346898802E-16  -0.6371907917E-16   0.1250000002E+00
   0.1007557848E+01   0.0000000000E+00  -0.1827653153E-17   0.2250000000E-02   0.0000000000E+00  -0.1962735141E-18   0.5307847587E-02   0.0000000000E+00  -0.1631379639E-17   0.1250000002E+00  -0.1926611408E-13  -0.2093297644E-13  -0.6957932143E-15  -0.2308239695E-15  -0.4327211685E-15   0.7557847599E-02  -0.3778673800E-02  -0.3778673800E-02  -0.2230336037E-16  -0.2778412391E-16  -0.4788444773E-16   0.1250000002E+00
   0.1007557848E+01   0.9962213262E+00  -0.2611396022E-16   0.2250000000E-02  -0.1122750000E-02  -0.2575051875E-18   0.5307847587E-02  -0.2655923794E-02  -0.2585645503E-16   0.1250000002E+00   0.3793831893E-13   0.3760990273E-13  -0.1250020123E-14   0.1596026126E-14  -0.8148054932E-15   0.7557847598E-02  -0.3778673799E-02  -0.3778673799E-02  -0.1181494674E-16   0.1024132837E-16  -0.2374656450E-16   0.1250000002E+00
   0.0000000000E+00   0.9962213262E+00  -0.3105477705E-16   0.0000000000E+00  -0.1122750000E-02  -0.3666372770E-18   0.0000000000E+00  -0.2655923794E-02  -0.3068813978E-16   0.1250000002E+00  -0.7807349796E-13  -0.7694272017E-13   0.5394963138E-15  -0.1283995432E-14  -0.4999638885E-15   0.7557847598E-02  -0.3778673799E-02  -0.3778673799E-02   0.2261579884E-16  -0.1219276649E-16  -0.3026767995E-17   0.1250000002E+00
   0.0000000000E+00   0.0000000000E+00   0.9962213262E+00   0.0000000000E+00   0.0000000000E+00  -0.1122750000E-02   0.0000000000E+00   0.0000000000E+00  -0.2655923794E-02   0.1250000002E+00   0.3065881876E-13   0.3173004539E-13  -0.2737554510E-16  -0.2773974283E-15   0.9960117767E-15   0.7557847598E-02  -0.3778673799E-02  -0.3778673799E-02   0.9574309283E-19  -0.8346809055E-17  -0.2948422813E-16   0.1250000002E+00
   0.1007557848E+01   0.0000000000E+00   0.9962213262E+00   0.2250000000E-02   0.0000000000E+00  -0.1122750000E-02   0.5307847587E-02   0.0000000000E+00  -0.2655923794E-02   0.1250000002E+00  -0.1634292176E-13  -0.1630637213E-13   0.1092223799E-14  -0.1113309346E-16   0.4751329089E-15   0.7557847598E-02  -0.3778673799E-02  -0.3778673799E-02  -0.1895886275E-17  -0.2091552672E-16  -0.2319940555E-16   0.1250000002E+00
   0.1007557848E+01   0.9962213262E+00   0.9962213262E+00   0.2250000000E-02  -0.1122750000E-02  -0.1122750000E-02   0.5307847587E-02  -0.2655923794E-02  -0.2655923794E-02   0.1250000002E+00  -0.7493337594E-14  -0.5463178123E-14   0.2033779147E-14   0.1840750200E-14  -0.3551804618E-15   0.7557847597E-02  -0.3778673799E-02  -0.3778673799E-02   0.5466097579E-17   0.1889250642E-17   0.7900329063E-17   0.1250000002E+00
   0.0000000000E+00   0.9962213262E+00   0.9962213262E+00   0.0000000000E+00  -0.1122750000E-02  -0.1122750000E-02   0.0000000000E+00  -0.2655923794E-02  -0.2655923794E-02   0.1250000002E+00   0.9236914395E-13   0.9080828916E-13  -0.5216135954E-16  -0.1317733889E-14  -0.1091617649E-16   0.7557847597E-02  -0.3778673799E-02  -0.3778673799E-02  -0.2148421234E-16   0.8805011383E-17   0.2173261657E-16   0.1250000002E+00
   0.2015115695E+01   0.0000000000E+00   0.3387996744E-16   0.4500000000E-02   0.0000000000E+00  -0.1037928512E-18   0.1061569517E-01   0.0000000000E+00   0.3398376029E-16   0.1250000002E+00  -0.1099140144E-12  -0.1107238684E-12   0.1490345009E-14   0.3340816857E-15   0.1845769766E-15   0.7557847599E-02  -0.3778673799E-02  -0.3778673799E-02  -0.7397782644E-16   0.3955318072E-16  -0.2121259598E-16   0.1250000002E+00
   0.2015115695E+01   0.9962213262E+00   0.2336487227E-16   0.4500000000E-02  -0.1122750000E-02  -0.1009170342E-18   0.1061569517E-01  -0.2655923794E-02   0.2346578931E-16   0.1250000002E+00   0.1739653107E-13   0.2073762884E-13   0.1113339642E-14  -0.2747807698E-14   0.6517604224E-15   0.7557847598E-02  -0.3778673799E-02  -0.3778673799E-02  -0.7800268461E-16   0.1735598677E-16   0.3241757379E-16   0.1250000002E+00
   0.2015115695E+01   0.0000000000E+00   0.9962213262E+00   0.4500000000E-02   0.0000000000E+00  -0.1122750000E-02   0.1061569517E-01   0.0000000000E+00  -0.2655923794E-02   0.1250000002E+00  -0.9550557699E-14  -0.8646562277E-14  -0.1725489339E-14   0.1859136914E-14   0.3959709223E-15   0.7557847598E-02  -0.3778673799E-02  -0.3778673799E-02  -0.1166343982E-15   0.6389911826E-16  -0.3542771307E-16   0.1250000002E+00
   0.2015115695E+01   0.9962213262E+00   0.9962213262E+00   0.4500000000E-02  -0.1122750000E-02  -0.1122750000E-02   0.1061569517E-01  -0.2655923794E-02  -0.2655923794E-02   0.1250000002E+00  -0.9803073128E-13  -0.1005607672E-12  -0.6968732224E-15  -0.2365740434E-14   0.1136674171E-15   0.7557847597E-02  -0.3778673799E-02  -0.3778673799E-02  -0.8250419580E-16  -0.3095225064E-16   0.1188397191E-16   0.1250000002E+00
     1     2     3     4     5     6     7     8
     2     9    10     3     6    11    12     7
 VARIABLES = X,Y,Z,DU1,DU2,DU3,U1,U2,U3,S11,S22,S33,S12,S13,S23,E11,E22,E33,E12,E13,E23,SMISES
 ZONE, T="0.2500D+01" F=FEPOINT, I=   12 J=    2 ET=BRICK
   0.0000000000E+00   0.0000000000E+00   0.0000000000E+00   0.0000000000E+00   0.0000000000E+00   0.0000000000E+00   0.0000000000E+00   0.0000000000E+00   0.0000000000E+00   0.1250000002E+01  -0.3407591362E-13  -0.3611706846E-13  -0.1958865563E-16  -0.5802499539E-15   0.4986598569E-15   0.9807847603E-02  -0.4901423801E-02  -0.4901423801E-02   0.2555591726E-19  -0.2135039976E-16  -0.6003636150E-16   0.1250000002E+01
   0.1009807848E+01   0.0000000000E+00  -0.1852290535E-17   0.2250000000E-02   0.0000000000E+00  -0.2463738171E-19   0.7557847587E-02   0.0000000000E+00  -0.1827653153E-17   0.1250000002E+01   0.1990493316E-13   0.1847724690E-13  -0.5474510080E-15  -0.1885711948E-15  -0.3876957393E-15   0.9807847603E-02  -0.4901423801E-02  -0.4901423801E-02  -0.2413550506E-16  -0.3076369121E-16  -0.4950394835E-16   0.1250000002E+01
   0.1009807848E+01   0.9950985762E+00  -0.2586060977E-16   0.2250000000E-02  -0.1122750000E-02   0.2533504518E-18   0.7557847587E-02  -0.3778673794E-02  -0.2611396022E-16   0.1250000002E+01  -0.3535590972E-13  -0.3562005000E-13  -0.1128206819E-14   0.1407554235E-14  -0.7454687521E-15   0.9807847601E-02  -0.4901423801E-02  -0.4901423801E-02  -0.1510168476E-16   0.6962819988E-17  -0.1935675578E-16   0.1250000002E+01
   0.0000000000E+00   0.9950985762E+00  -0.3074848360E-16   0.0000000000E+00  -0.1122750000E-02   0.3062934504E-18   0.0000000000E+00  -0.3778673794E-02  -0.3105477705E-16   0.1250000002E+01   0.1052078511E-12   0.1058886896E-12   0.2496224080E-15  -0.1293775613E-14  -0.8200410540E-15   0.9807847602E-02  -0.4901423801E-02  -0.4901423801E-02   0.2097510404E-16  -0.1267128939E-16  -0.8463029416E-17   0.1250000002E+01
   0.0000000000E+00   0.0000000000E+00   0.9950985762E+00   0.0000000000E+00   0.0000000000E+00  -0.1122750000E-02   0.0000000000E+00   0.0000000000E+00  -0.3778673794E-02   0.1250000002E+01  -0.1074919286E-12  -0.1062747406E-12  -0.4587366744E-16  -0.8303513932E-16   0.1159482721E-14   0.9807847602E-02  -0.4901423801E-02  -0.4901423801E-02  -0.5112071902E-18  -0.6814825307E-17  -0.3121817673E-16   0.1250000002E+01
   0.1009807848E+01   0.0000000000E+00   0.9950985762E+00   0.2250000000E-02   0.0000000000E+00  -0.1122750000E-02   0.7557847587E-02   0.0000000000E+00  -0.3778673794E-02   0.1250000002E+01   0.3430961222E-13   0.3453690573E-13   0.9640588341E-15   0.1355271340E-15   0.4559370687E-15   0.9807847601E-02  -0.4901423801E-02  -0.4901423801E-02  -0.3706443789E-18  -0.1379276763E-16  -0.2102414572E-16   0.1250000002E+01
   0.1009807848E+01   0.9950985762E+00   0.9950985762E+00   0.2250000000E-02  -0.1122750000E-02  -0.1122750000E-02   0.7557847587E-02  -0.3778673794E-02  -0.3778673794E-02   0.1250000002E+01  -0.1508012627E-13  -0.1320324517E-13   0.1917035274E-14   0.1642894117E-14  -0.2671201275E-15   0.9807847600E-02  -0.4901423800E-02  -0.4901423800E-02   0.5013041786E-17  -0.8550616062E-18   0.2132929760E-17   0.1250000002E+01
   0.0000000000E+00   0.9950985762E+00   0.9950985762E+00   0.0000000000E+00  -0.1122750000E-02  -0.1122750000E-02   0.0000000000E+00  -0.3778673794E-02  -0.3778673794E-02   0.1250000002E+01  -0.3395291922E-13  -0.3501988054E-13   0.2156284052E-15  -0.1322034338E-14  -0.1484481986E-15   0.9807847601E-02  -0.4901423800E-02  -0.4901423800E-02  -0.1845041455E-16   0.8703093937E-17   0.2496406154E-16   0.1250000002E+01
   0.2019615695E+01   0.0000000000E+00   0.3355109482E-16   0.4500000000E-02   0.0000000000E+00  -0.3288726208E-18   0.1511569517E-01   0.0000000000E+00   0.3387996744E-16   0.1250000002E+01   0.1857825031E-13   0.1764279896E-13   0.1066309924E-14   0.3656633571E-15   0.2235248402E-15   0.9807847602E-02  -0.4901423801E-02  -0.4901423801E-02  -0.7827067281E-16   0.4338099856E-16  -0.2021185256E-16   0.1250000002E+01
   0.2019615695E+01   0.9950985762E+00   0.2328597329E-16   0.4500000000E-02  -0.1122750000E-02  -0.7889898484E-19   0.1511569517E-01  -0.3778673794E-02   0.2336487227E-16   0.1250000002E+01  -0.6394276866E-13  -0.6080383617E-13   0.9571855525E-15  -0.2736383347E-14   0.6508610104E-15   0.9807847601E-02  -0.4901423801E-02  -0.4901423801E-02  -0.7901560594E-16   0.1902867274E-16   0.2901011742E-16   0.1250000002E+01
   0.2019615695E+01   0.0000000000E+00   0.9950985762E+00   0.4500000000E-02   0.0000000000E+00  -0.1122750000E-02   0.1511569517E-01   0.0000000000E+00  -0.3778673794E-02   0.1250000002E+01   0.4461618172E-13   0.4537056396E-13  -0.1776572779E-14   0.1840003916E-14   0.3447154729E-15   0.9807847601E-02  -0.4901423801E-02  -0.4901423801E-02  -0.1181644011E-15   0.4679623283E-16  -0.3540555482E-16   0.1250000002E+01
   0.2019615695E+01   0.9950985762E+00   0.9950985762E+00   0.4500000000E-02  -0.1122750000E-02  -0.1122750000E-02   0.1511569517E-01  -0.3778673794E-02  -0.3778673794E-02   0.1250000002E+01   0.4390879186E-13   0.4144734427E-13  -0.5657432581E-15  -0.1927763025E-14   0.4814987922E-16   0.9807847600E-02  -0.4901423800E-02  -0.4901423800E-02  -0.7703938379E-16  -0.1678979280E-16   0.1501557047E-16   0.1250000002E+01
     1     2     3     4     5     6     7     8
     2     9    10     3     6    11    12     7
 VARIABLES = X,Y,Z,DU1,DU2,DU3,U1,U2,U3,S11,S22,S33,S12,S13,S23,E11,E22,E33,E12,E13,E23,SMISES
 ZONE, T="0.2550D+01" F=FEPOINT, I=   12 J=    2 ET=BRICK
   0.0000000000E+00   0.0000000000E+00   0.0000000000E+00   0.0000000000E+00   0.0000000000E+00   0.0000000000E+00   0.0000000000E+00   0.0000000000E+00   0.0000000000E+00   0.2375000004E+01   0.1122898465E-13   0.1027520751E-13  -0.8766339906E-17  -0.3419572929E-15   0.5070109661E-15   0.1205784761E-01  -0.6024173803E-02  -0.6024173803E-02  -0.1096547333E-18  -0.2053096265E-16  -0.6273733937E-16   0.2375000004E+01
   0.1012057848E+01   0.0000000000E+00  -0.7781356082E-18   0.2250000000E-02   0.0000000000E+00   0.1074154926E-17   0.9807847587E-02   0.0000000000E+00  -0.1852290535E-17   0.2375000004E+01  -0.5467522076E-13  -0.5607442202E-13  -0.4167781252E-15  -0.3553824300E-15  -0.4971219926E-15   0.1205784761E-01  -0.6024173803E-02  -0.6024173803E-02  -0.1937653166E-16  -0.2667510974E-16  -0.4974010152E-16   0.2375000004E+01
   0.1012057848E+01   0.9939758262E+00  -0.2534660079E-16   0.2250000000E-02  -0.1122750000E-02   0.5140089799E-18   0.9807847587E-02  -0.4901423794E-02  -0.2586060977E-16   0.2375000003E+01  -0.1724600931E-13  -0.1733617908E-13  -0.9364404360E-15   0.1421937071E-14  -0.5953312622E-15   0.1205784760E-01  -0.6024173802E-02  -0.6024173802E-02  -0.8476648531E-17   0.2912850009E-17  -0.2113553353E-16   0.2375000003E+01
   0.0000000000E+00   0.9939758262E+00  -0.3066998160E-16   0.0000000000E+00  -0.1122750000E-02   0.7850200188E-19   0.0000000000E+00  -0.4901423794E-02  -0.3074848360E-16   0.2375000003E+01  -0.6858018027E-14  -0.6008555610E-14   0.3997732150E-15  -0.1281207970E-14  -0.2650252538E-15   0.1205784760E-01  -0.6024173802E-02  -0.6024173802E-02   0.2244073236E-16  -0.1101301928E-16   0.4161411355E-17   0.2375000003E+01
   0.0000000000E+00   0.0000000000E+00   0.9939758262E+00   0.0000000000E+00   0.0000000000E+00  -0.1122750000E-02   0.0000000000E+00   0.0000000000E+00  -0.4901423794E-02   0.2375000003E+01   0.3510829358E-13   0.3635051500E-13  -0.5283464625E-16  -0.3060477410E-15   0.7179843827E-15   0.1205784760E-01  -0.6024173802E-02  -0.6024173802E-02  -0.9050392899E-19  -0.1404186004E-16  -0.3517466759E-16   0.2375000003E+01
   0.1012057848E+01   0.0000000000E+00   0.9939758262E+00   0.2250000000E-02   0.0000000000E+00  -0.1122750000E-02   0.9807847587E-02   0.0000000000E+00  -0.4901423794E-02   0.2375000003E+01   0.8686868675E-14   0.8509980603E-14   0.1124002887E-14   0.9570765936E-16   0.3338617630E-15   0.1205784760E-01  -0.6024173802E-02  -0.6024173802E-02  -0.8089228288E-18  -0.1140641542E-16  -0.2575175607E-16   0.2375000003E+01
   0.1012057848E+01   0.9939758262E+00   0.9939758262E+00   0.2250000000E-02  -0.1122750000E-02  -0.1122750000E-02   0.9807847587E-02  -0.4901423794E-02  -0.4901423794E-02   0.2375000003E+01  -0.2227613090E-14  -0.7536502369E-15   0.1855116873E-14   0.1643826622E-14  -0.2034135838E-15   0.1205784760E-01  -0.6024173802E-02  -0.6024173802E-02   0.2042290714E-17  -0.7661149325E-17   0.6573800467E-17   0.2375000003E+01
   0.0000000000E+00   0.9939758262E+00   0.9939758262E+00   0.0000000000E+00  -0.1122750000E-02  -0.1122750000E-02   0.0000000000E+00  -0.4901423794E-02  -0.4901423794E-02   0.2375000003E+01  -0.2102503323E-13  -0.2311061502E-13   0.6884986767E-16  -0.1183605839E-14  -0.5785404425E-16   0.1205784760E-01  -0.6024173802E-02  -0.6024173802E-02  -0.1961193029E-16   0.1464541056E-16   0.2192296982E-16   0.2375000003E+01
   0.2024115695E+01   0.0000000000E+00   0.3538359160E-16   0.4500000000E-02   0.0000000000E+00   0.1832496782E-17   0.1961569517E-01   0.0000000000E+00   0.3355109482E-16   0.2375000004E+01   0.6056125389E-13   0.6023243962E-13   0.1198588566E-14   0.9949169217E-16   0.3239308839E-15   0.1205784761E-01  -0.6024173803E-02  -0.6024173803E-02  -0.7565308237E-16   0.1792399649E-16  -0.1708210410E-16   0.2375000004E+01
   0.2024115695E+01   0.9939758262E+00   0.2563578742E-16   0.4500000000E-02  -0.1122750000E-02   0.2349814130E-17   0.1961569517E-01  -0.4901423794E-02   0.2328597329E-16   0.2375000003E+01  -0.4131941975E-14  -0.1296959667E-14   0.1066356805E-14  -0.2850135152E-14   0.7027859290E-15   0.1205784760E-01  -0.6024173802E-02  -0.6024173802E-02  -0.7527811225E-16   0.3984224948E-16   0.2913408819E-16   0.2375000003E+01
   0.2024115695E+01   0.0000000000E+00   0.9939758262E+00   0.4500000000E-02   0.0000000000E+00  -0.1122750000E-02   0.1961569517E-01   0.0000000000E+00  -0.4901423794E-02   0.2375000003E+01   0.3241285101E-13   0.3368243715E-13  -0.1438914706E-14   0.1569230810E-14   0.2158249479E-15   0.1205784760E-01  -0.6024173802E-02  -0.6024173802E-02  -0.1153113391E-15   0.2090040177E-16  -0.3918015308E-16   0.2375000003E+01
   0.2024115695E+01   0.9939758262E+00   0.9939758262E+00   0.4500000000E-02  -0.1122750000E-02  -0.1122750000E-02   0.1961569517E-01  -0.4901423794E-02  -0.4901423794E-02   0.2375000003E+01  -0.8572940902E-13  -0.8817289558E-13  -0.2209443708E-15  -0.1657407672E-14  -0.1095385157E-15   0.1205784760E-01  -0.6024173801E-02  -0.6024173801E-02  -0.7966632518E-16  -0.1451523138E-16   0.1772997837E-16   0.2375000003E+01
     1     2     3     4     5     6     7     8
     2     9    10     3     6    11    12     7
 VARIABLES = X,Y,Z,DU1,DU2,DU3,U1,U2,U3,S11,S22,S33,S12,S13,S23,E11,E22,E33,E12,E13,E23,SMISES
 ZONE, T="0.2600D+01" F=FEPOINT, I=   12 J=    2 ET=BRICK
   0.0000000000E+00   0.0000000000E+00   0.0000000000E+00   0.0000000000E+00   0.0000000000E+00   0.0000000000E+00   0.0000000000E+00   0.0000000000E+00   0.0000000000E+00   0.3500000005E+01  -0.2361132696E-13  -0.2486742625E-13  -0.4651444824E-17  -0.5910371009E-15   0.4911446530E-15   0.1430784761E-01  -0.7146923805E-02  -0.7146923805E-02   0.1339400365E-17  -0.2212575229E-16  -0.6152680101E-16   0.3500000005E+01
   0.1014307848E+01   0.0000000000E+00  -0.1791351169E-17   0.2250000000E-02   0.0000000000E+00  -0.1013215561E-17   0.1205784759E-01   0.0000000000E+00  -0.7781356082E-18   0.3500000005E+01   0.4788202083E-13   0.4631827888E-13  -0.5123316206E-15  -0.2308500884E-15  -0.3913830208E-15   0.1430784761E-01  -0.7146923805E-02  -0.7146923805E-02  -0.2346508486E-16  -0.2834409048E-16  -0.4943001481E-16   0.3500000005E+01
   0.1014307848E+01   0.9928530762E+00  -0.2574310525E-16   0.2250000000E-02  -0.1122750000E-02  -0.3965044679E-18   0.1205784759E-01  -0.6024173794E-02  -0.2534660079E-16   0.3500000005E+01  -0.7708117224E-13  -0.7724916439E-13  -0.1029516271E-14   0.1453835154E-14  -0.7392515433E-15   0.1430784761E-01  -0.7146923804E-02  -0.7146923804E-02  -0.1192149327E-16   0.1299008434E-16  -0.2223995305E-16   0.3500000005E+01
   0.0000000000E+00   0.9928530762E+00  -0.3069346524E-16   0.0000000000E+00  -0.1122750000E-02  -0.2348364226E-19   0.0000000000E+00  -0.6024173794E-02  -0.3066998160E-16   0.3500000005E+01   0.4955552184E-13   0.5045332528E-13   0.3794917950E-15  -0.1262746525E-14  -0.3819969249E-15   0.1430784761E-01  -0.7146923804E-02  -0.7146923804E-02   0.2506567944E-16  -0.1261370005E-16  -0.5676203200E-17   0.3500000005E+01
   0.0000000000E+00   0.0000000000E+00   0.9928530762E+00   0.0000000000E+00   0.0000000000E+00  -0.1122750000E-02   0.0000000000E+00   0.0000000000E+00  -0.6024173794E-02   0.3500000005E+01   0.3817922786E-13   0.3963506041E-13  -0.7070727145E-16  -0.4437564168E-15   0.7398688765E-15   0.1430784761E-01  -0.7146923804E-02  -0.7146923804E-02  -0.1879387659E-17  -0.1158771042E-16  -0.4118501816E-16   0.3500000005E+01
   0.1014307848E+01   0.0000000000E+00   0.9928530762E+00   0.2250000000E-02   0.0000000000E+00  -0.1122750000E-02   0.1205784759E-01   0.0000000000E+00  -0.6024173794E-02   0.3500000005E+01  -0.4022661601E-13  -0.4011306696E-13   0.1168375474E-14   0.5383266244E-16   0.5089100225E-15   0.1430784761E-01  -0.7146923804E-02  -0.7146923804E-02   0.2193966532E-17  -0.1949887641E-16  -0.2182191308E-16   0.3500000005E+01
   0.1014307848E+01   0.9928530762E+00   0.9928530762E+00   0.2250000000E-02  -0.1122750000E-02  -0.1122750000E-02   0.1205784759E-01  -0.6024173794E-02  -0.6024173794E-02   0.3500000005E+01   0.3065533376E-14   0.4916651657E-14   0.1917448686E-14   0.1737423133E-14  -0.2183841035E-15   0.1430784761E-01  -0.7146923803E-02  -0.7146923803E-02   0.5709144409E-17   0.3661010874E-17   0.2725081932E-17   0.3500000005E+01
   0.0000000000E+00   0.9928530762E+00   0.9928530762E+00   0.0000000000E+00  -0.1122750000E-02  -0.1122750000E-02   0.0000000000E+00  -0.6024173794E-02  -0.6024173794E-02   0.3500000005E+01  -0.3478860476E-13  -0.3680951252E-13  -0.1341022531E-15  -0.1147068849E-14  -0.9393987810E-16   0.1430784761E-01  -0.7146923803E-02  -0.7146923803E-02  -0.2280770387E-16   0.8466030790E-17   0.2369297328E-16   0.3500000005E+01
   0.2028615695E+01   0.0000000000E+00   0.3516940500E-16   0.4500000000E-02   0.0000000000E+00  -0.2141866083E-18   0.2411569517E-01   0.0000000000E+00   0.3538359160E-16   0.3500000005E+01   0.1068531915E-12   0.1058503440E-12   0.4803994631E-15   0.1811833560E-15  -0.6649104358E-16   0.1430784761E-01  -0.7146923805E-02  -0.7146923805E-02  -0.8069863025E-16   0.3149903739E-16  -0.2294123199E-16   0.3500000005E+01
   0.2028615695E+01   0.9928530762E+00   0.2316814033E-16   0.4500000000E-02  -0.1122750000E-02  -0.2467647083E-17   0.2411569517E-01  -0.6024173794E-02   0.2563578742E-16   0.3500000005E+01  -0.1575071180E-12  -0.1545241950E-12   0.2802601122E-15  -0.2767364342E-14   0.4877442686E-15   0.1430784761E-01  -0.7146923804E-02  -0.7146923804E-02  -0.8748379309E-16   0.3457705251E-16   0.2840183554E-16   0.3500000005E+01
   0.2028615695E+01   0.0000000000E+00   0.9928530762E+00   0.4500000000E-02   0.0000000000E+00  -0.1122750000E-02   0.2411569517E-01   0.0000000000E+00  -0.6024173794E-02   0.3500000005E+01  -0.1536900250E-12  -0.1533665835E-12  -0.1424178503E-14   0.1159443600E-14   0.3913451869E-15   0.1430784761E-01  -0.7146923804E-02  -0.7146923804E-02  -0.1085814179E-15   0.2012694702E-16  -0.3299408091E-16   0.3500000005E+01
   0.2028615695E+01   0.9928530762E+00   0.9928530762E+00   0.4500000000E-02  -0.1122750000E-02  -0.1122750000E-02   0.2411569517E-01  -0.6024173794E-02  -0.6024173794E-02   0.3500000004E+01   0.7036391854E-13   0.6829586160E-13   0.4088389121E-16  -0.1405057283E-14   0.1061154978E-15   0.1430784761E-01  -0.7146923803E-02  -0.7146923803E-02  -0.6845935781E-16  -0.1875583322E-16   0.2058439005E-16   0.3500000004E+01
     1     2     3     4     5     6     7     8
     2     9    10     3     6    11    12     7
 VARIABLES = X,Y,Z,DU1,DU2,DU3,U1,U2,U3,S11,S22,S33,S12,S13,S23,E11,E22,E33,E12,E13,E23,SMISES
 ZONE, T="0.2650D+01" F=FEPOINT, I=   12 J=    2 ET=BRICK
   0.0000000000E+00   0.0000000000E+00   0.0000000000E+00   0.0000000000E+00   0.0000000000E+00   0.0000000000E+00   0.0000000000E+00   0.0000000000E+00   0.0000000000E+00   0.4625000007E+01   0.2358207015E-13   0.2169157816E-13   0.6895240135E-17  -0.6309189504E-15   0.6785971743E-15   0.1655784761E-01  -0.8269673807E-02  -0.8269673807E-02  -0.6088133721E-18  -0.2680963379E-16  -0.5990510345E-16   0.4625000007E+01
   0.1016557848E+01   0.0000000000E+00  -0.3408475492E-17   0.2250000000E-02   0.0000000000E+00  -0.1617124322E-17   0.1430784759E-01   0.0000000000E+00  -0.1791351169E-17   0.4625000007E+01   0.1901068078E-13   0.1689581288E-13  -0.6086756933E-15  -0.6178499204E-15  -0.1494037488E-15   0.1655784761E-01  -0.8269673806E-02  -0.8269673806E-02  -0.1977034815E-16  -0.2488613365E-16  -0.4480476694E-16   0.4625000007E+01
   0.1016557848E+01   0.9917303262E+00  -0.2575264817E-16   0.2250000000E-02  -0.1122750000E-02  -0.9542919282E-20   0.1430784759E-01  -0.7146923794E-02  -0.2574310525E-16   0.4625000007E+01  -0.3429630460E-13  -0.3513733366E-13  -0.9781427757E-15   0.1589894887E-14  -0.9866002052E-15   0.1655784761E-01  -0.8269673805E-02  -0.8269673805E-02  -0.9409630790E-17   0.7298973437E-17  -0.2310855087E-16   0.4625000007E+01
   0.0000000000E+00   0.9917303262E+00  -0.2969134903E-16   0.0000000000E+00  -0.1122750000E-02   0.1002116214E-17   0.0000000000E+00  -0.7146923794E-02  -0.3069346524E-16   0.4625000007E+01   0.5109065285E-13   0.5141501907E-13   0.6606984990E-15  -0.1323199128E-14  -0.5191909133E-15   0.1655784761E-01  -0.8269673806E-02  -0.8269673806E-02   0.2484744862E-16  -0.1154540141E-16  -0.4470375269E-17   0.4625000007E+01
   0.0000000000E+00   0.0000000000E+00   0.9917303262E+00   0.0000000000E+00   0.0000000000E+00  -0.1122750000E-02   0.0000000000E+00   0.0000000000E+00  -0.7146923794E-02   0.4625000007E+01   0.3974418233E-13   0.4123865907E-13  -0.8928639233E-16  -0.4552570563E-15   0.1010276291E-14   0.1655784761E-01  -0.8269673806E-02  -0.8269673806E-02   0.1144831334E-17  -0.1586487513E-16  -0.3585118938E-16   0.4625000007E+01
   0.1016557848E+01   0.0000000000E+00   0.9917303262E+00   0.2250000000E-02   0.0000000000E+00  -0.1122750000E-02   0.1430784759E-01   0.0000000000E+00  -0.7146923794E-02   0.4625000007E+01   0.1910495992E-15   0.7149539746E-15   0.1311509597E-14  -0.8502469646E-16   0.6795373345E-15   0.1655784761E-01  -0.8269673805E-02  -0.8269673805E-02  -0.2941981008E-17  -0.1773457102E-16  -0.1875497418E-16   0.4625000007E+01
   0.1016557848E+01   0.9917303262E+00   0.9917303262E+00   0.2250000000E-02  -0.1122750000E-02  -0.1122750000E-02   0.1430784759E-01  -0.7146923794E-02  -0.7146923794E-02   0.4625000006E+01   0.5982722289E-14   0.8122284940E-14   0.1890671024E-14   0.1790079110E-14  -0.6024930911E-15   0.1655784761E-01  -0.8269673805E-02  -0.8269673805E-02   0.4266179334E-17  -0.3292517211E-17  -0.1396687194E-16   0.4625000006E+01
   0.0000000000E+00   0.9917303262E+00   0.9917303262E+00   0.0000000000E+00  -0.1122750000E-02  -0.1122750000E-02   0.0000000000E+00  -0.7146923794E-02  -0.7146923794E-02   0.4625000006E+01  -0.2451473245E-13  -0.2643604054E-13  -0.1576475948E-15  -0.1353552214E-14  -0.1819368883E-15   0.1655784761E-01  -0.8269673805E-02  -0.8269673805E-02  -0.2111212089E-16   0.1098186210E-16   0.2816548286E-16   0.4625000006E+01
   0.2033115695E+01   0.0000000000E+00   0.2726557197E-16   0.4500000000E-02   0.0000000000E+00  -0.7903833022E-17   0.2861569517E-01   0.0000000000E+00   0.3516940500E-16   0.4625000007E+01   0.1308748987E-12   0.1299295551E-12   0.1240566373E-14   0.7526104820E-15   0.5696530166E-15   0.1655784761E-01  -0.8269673806E-02  -0.8269673806E-02  -0.6690994583E-16   0.1791177970E-16  -0.1806800600E-16   0.4625000007E+01
   0.2033115695E+01   0.9917303262E+00   0.1904872421E-16   0.4500000000E-02  -0.1122750000E-02  -0.4119416125E-17   0.2861569517E-01  -0.7146923794E-02   0.2316814033E-16   0.4625000006E+01  -0.1082051334E-12  -0.1061356176E-12   0.8779453697E-15  -0.3050181677E-14   0.4769160890E-15   0.1655784761E-01  -0.8269673805E-02  -0.8269673805E-02  -0.7258495329E-16   0.3163842077E-16   0.3043970290E-16   0.4625000006E+01
   0.2033115695E+01   0.0000000000E+00   0.9917303262E+00   0.4500000000E-02   0.0000000000E+00  -0.1122750000E-02   0.2861569517E-01   0.0000000000E+00  -0.7146923794E-02   0.4625000006E+01   0.5338435882E-13   0.5501522984E-13  -0.1446732129E-14   0.1706863667E-14   0.5467015531E-15   0.1655784761E-01  -0.8269673805E-02  -0.8269673805E-02  -0.1127085389E-15   0.3842039305E-16  -0.3020707110E-16   0.4625000006E+01
   0.2033115695E+01   0.9917303262E+00   0.9917303262E+00   0.4500000000E-02  -0.1122750000E-02  -0.1122750000E-02   0.2861569517E-01  -0.7146923794E-02  -0.7146923794E-02   0.4625000006E+01   0.3234558175E-13   0.3061404327E-13  -0.1112918671E-15  -0.1525358911E-14  -0.3768572530E-15   0.1655784761E-01  -0.8269673804E-02  -0.8269673804E-02  -0.7598955241E-16  -0.2182239205E-16   0.1625368825E-16   0.4625000006E+01
     1     2     3     4     5     6     7     8
     2     9    10     3     6    11    12     7
 VARIABLES = X,Y,Z,DU1,DU2,DU3,U1,U2,U3,S11,S22,S33,S12,S13,S23,E11,E22,E33,E12,E13,E23,SMISES
 ZONE, T="0.2700D+01" F=FEPOINT, I=   12 J=    2 ET=BRICK
   0.0000000000E+00   0.0000000000E+00   0.0000000000E+00   0.0000000000E+00   0.0000000000E+00   0.0000000000E+00   0.0000000000E+00   0.0000000000E+00   0.0000000000E+00   0.5750000009E+01   0.1968186113E-13   0.1835736929E-13  -0.1727802282E-16  -0.5004644896E-15   0.3269900737E-15   0.1880784762E-01  -0.9392423808E-02  -0.9392423808E-02   0.1567169298E-17  -0.2836083521E-16  -0.6356065446E-16   0.5750000009E+01
   0.1018807848E+01   0.0000000000E+00  -0.2000246759E-17   0.2250000000E-02   0.0000000000E+00   0.1408228733E-17   0.1655784759E-01   0.0000000000E+00  -0.3408475492E-17   0.5750000009E+01   0.3272047439E-13   0.3117160660E-13  -0.8633717013E-15  -0.6962120887E-15  -0.5219150196E-15   0.1880784762E-01  -0.9392423808E-02  -0.9392423808E-02  -0.3315395102E-16  -0.2290301586E-16  -0.5035568894E-16   0.5750000009E+01
   0.1018807848E+01   0.9906075762E+00  -0.2662300401E-16   0.2250000000E-02  -0.1122750000E-02  -0.8703558356E-18   0.1655784759E-01  -0.8269673794E-02  -0.2575264817E-16   0.5750000008E+01   0.3656739195E-13   0.3627350335E-13  -0.1118542771E-14   0.1833302654E-14  -0.9064611381E-15   0.1880784761E-01  -0.9392423807E-02  -0.9392423807E-02  -0.2063585198E-16   0.2102634187E-16  -0.1503299698E-16   0.5750000008E+01
   0.0000000000E+00   0.9906075762E+00  -0.3196239613E-16   0.0000000000E+00  -0.1122750000E-02  -0.2271047096E-17   0.0000000000E+00  -0.8269673794E-02  -0.2969134903E-16   0.5750000008E+01  -0.1169447142E-12  -0.1151795848E-12   0.8781378412E-15  -0.1271720685E-14  -0.3617585620E-15   0.1880784761E-01  -0.9392423807E-02  -0.9392423807E-02   0.2871585964E-16  -0.1337183722E-16  -0.8235098108E-17   0.5750000008E+01
   0.0000000000E+00   0.0000000000E+00   0.9906075762E+00   0.0000000000E+00   0.0000000000E+00  -0.1122750000E-02   0.0000000000E+00   0.0000000000E+00  -0.8269673794E-02   0.5750000008E+01  -0.9734651395E-13  -0.9658058519E-13  -0.7317873903E-16  -0.2204579787E-15   0.9349345037E-15   0.1880784761E-01  -0.9392423807E-02  -0.9392423807E-02  -0.8963707998E-18  -0.6938258010E-17  -0.3325672280E-16   0.5750000008E+01
   0.1018807848E+01   0.0000000000E+00   0.9906075762E+00   0.2250000000E-02   0.0000000000E+00  -0.1122750000E-02   0.1655784759E-01   0.0000000000E+00  -0.8269673794E-02   0.5750000008E+01   0.3213248621E-13   0.3226090942E-13   0.1216825649E-14  -0.2324603236E-15   0.4253426905E-15   0.1880784761E-01  -0.9392423807E-02  -0.9392423807E-02  -0.1713259007E-17  -0.3207095359E-16  -0.2699523631E-16   0.5750000008E+01
   0.1018807848E+01   0.9906075762E+00   0.9906075762E+00   0.2250000000E-02  -0.1122750000E-02  -0.1122750000E-02   0.1655784759E-01  -0.8269673794E-02  -0.8269673794E-02   0.5750000008E+01  -0.1362364478E-13  -0.1156535608E-13   0.1896072222E-14   0.1993390128E-14  -0.3061822070E-15   0.1880784761E-01  -0.9392423806E-02  -0.9392423806E-02   0.9698591020E-17   0.1459984479E-17  -0.7414326479E-19   0.5750000008E+01
   0.0000000000E+00   0.9906075762E+00   0.9906075762E+00   0.0000000000E+00  -0.1122750000E-02  -0.1122750000E-02   0.0000000000E+00  -0.8269673794E-02  -0.8269673794E-02   0.5750000008E+01   0.5335044618E-13   0.5161997557E-13  -0.9072183679E-16  -0.1333803023E-14   0.2992161499E-15   0.1880784761E-01  -0.9392423806E-02  -0.9392423806E-02  -0.2628751850E-16   0.8336312334E-17   0.3145044970E-16   0.5750000008E+01
   0.2037615695E+01   0.0000000000E+00   0.3386375007E-16   0.4500000000E-02   0.0000000000E+00   0.6598178095E-17   0.3311569517E-01   0.0000000000E+00   0.2726557197E-16   0.5750000009E+01  -0.9346484462E-13  -0.9436955131E-13   0.1162366809E-14   0.9495637080E-15   0.1433129403E-15   0.1880784762E-01  -0.9392423808E-02  -0.9392423808E-02  -0.7053489847E-16   0.3012803856E-16  -0.2327275622E-16   0.5750000009E+01
   0.2037615695E+01   0.9906075762E+00   0.2302135447E-16   0.4500000000E-02  -0.1122750000E-02   0.3972630263E-17   0.3311569517E-01  -0.8269673794E-02   0.1904872421E-16   0.5750000008E+01   0.2154384202E-12   0.2179683582E-12   0.7453561038E-15  -0.3501254599E-14   0.6447924276E-15   0.1880784761E-01  -0.9392423807E-02  -0.9392423807E-02  -0.7772823305E-16  -0.3838503358E-18   0.3403472762E-16   0.5750000008E+01
   0.2037615695E+01   0.0000000000E+00   0.9906075762E+00   0.4500000000E-02   0.0000000000E+00  -0.1122750000E-02   0.3311569517E-01   0.0000000000E+00  -0.8269673794E-02   0.5750000008E+01   0.5241139791E-13   0.5278835778E-13  -0.1874803787E-14   0.1774092868E-14   0.4549915898E-15   0.1880784761E-01  -0.9392423807E-02  -0.9392423807E-02  -0.1133784280E-15   0.2294691179E-16  -0.2869768090E-16   0.5750000008E+01
   0.2037615695E+01   0.9906075762E+00   0.9906075762E+00   0.4500000000E-02  -0.1122750000E-02  -0.1122750000E-02   0.3311569517E-01  -0.8269673794E-02  -0.8269673794E-02   0.5750000007E+01  -0.1598475091E-13  -0.1792890416E-13  -0.3960547236E-15  -0.1659618379E-14   0.8590362620E-16   0.1880784761E-01  -0.9392423806E-02  -0.9392423806E-02  -0.7390631353E-16  -0.2561928657E-16   0.2960748767E-16   0.5750000007E+01
     1     2     3     4     5     6     7     8
     2     9    10     3     6    11    12     7
 VARIABLES = X,Y,Z,DU1,DU2,DU3,U1,U2,U3,S11,S22,S33,S12,S13,S23,E11,E22,E33,E12,E13,E23,SMISES
 ZONE, T="0.2750D+01" F=FEPOINT, I=   12 J=    2 ET=BRICK
   0.0000000000E+00   0.0000000000E+00   0.0000000000E+00   0.0000000000E+00   0.0000000000E+00   0.0000000000E+00   0.0000000000E+00   0.0000000000E+00   0.0000000000E+00   0.6875000011E+01  -0.5033743119E-13  -0.5142228220E-13  -0.4591650502E-16  -0.4194846653E-15   0.6212156761E-15   0.2105784762E-01  -0.1051517381E-01  -0.1051517381E-01  -0.6259289811E-18  -0.1753967226E-16  -0.6066178132E-16   0.6875000011E+01
   0.1021057848E+01   0.0000000000E+00  -0.2343564494E-17   0.2250000000E-02   0.0000000000E+00  -0.3433177349E-18   0.1880784759E-01   0.0000000000E+00  -0.2000246759E-17   0.6875000011E+01  -0.4362691758E-13  -0.4558468185E-13  -0.6438129336E-16  -0.4814802944E-15  -0.3345682120E-15   0.2105784762E-01  -0.1051517381E-01  -0.1051517381E-01  -0.2044273814E-16  -0.4627006039E-16  -0.4903307754E-16   0.6875000011E+01
   0.1021057848E+01   0.9894848262E+00  -0.2582554317E-16   0.2250000000E-02  -0.1122750000E-02   0.7974608400E-18   0.1880784759E-01  -0.9392423794E-02  -0.2662300401E-16   0.6875000010E+01   0.2066608499E-13   0.2027060393E-13  -0.5121340052E-15   0.1508300444E-14  -0.8497471840E-15   0.2105784762E-01  -0.1051517381E-01  -0.1051517381E-01  -0.1389315846E-16   0.1037786463E-16  -0.1978091559E-16   0.6875000010E+01
   0.0000000000E+00   0.9894848262E+00  -0.3016755750E-16   0.0000000000E+00  -0.1122750000E-02   0.1794838627E-17   0.0000000000E+00  -0.9392423794E-02  -0.3196239613E-16   0.6875000010E+01   0.9206358409E-13   0.9250514636E-13   0.7283135779E-15  -0.1419485146E-14  -0.3148786748E-15   0.2105784762E-01  -0.1051517381E-01  -0.1051517381E-01   0.2797653730E-16  -0.1476281853E-16   0.1443237785E-17   0.6875000010E+01
   0.0000000000E+00   0.0000000000E+00   0.9894848262E+00   0.0000000000E+00   0.0000000000E+00  -0.1122750000E-02   0.0000000000E+00   0.0000000000E+00  -0.9392423794E-02   0.6875000010E+01   0.3329303053E-13   0.3364534784E-13  -0.5434304337E-16  -0.4232861480E-15   0.8151267826E-15   0.2105784762E-01  -0.1051517381E-01  -0.1051517381E-01  -0.2270264044E-17  -0.1278287981E-16  -0.3295971029E-16   0.6875000010E+01
   0.1021057848E+01   0.0000000000E+00   0.9894848262E+00   0.2250000000E-02   0.0000000000E+00  -0.1122750000E-02   0.1880784759E-01   0.0000000000E+00  -0.9392423794E-02   0.6875000010E+01  -0.3369284460E-13  -0.3342219195E-13   0.1346569496E-14   0.1356468964E-15   0.4183272834E-15   0.2105784762E-01  -0.1051517381E-01  -0.1051517381E-01   0.9511879881E-17  -0.1560121353E-16  -0.2338427702E-16   0.6875000010E+01
   0.1021057848E+01   0.9894848262E+00   0.9894848262E+00   0.2250000000E-02  -0.1122750000E-02  -0.1122750000E-02   0.1880784759E-01  -0.9392423794E-02  -0.9392423794E-02   0.6875000009E+01  -0.2082280164E-13  -0.1843689040E-13   0.1874934043E-14   0.1689047586E-14  -0.4488263288E-15   0.2105784761E-01  -0.1051517381E-01  -0.1051517381E-01   0.5291006174E-18  -0.1357011403E-16   0.3553894598E-17   0.6875000009E+01
   0.0000000000E+00   0.9894848262E+00   0.9894848262E+00   0.0000000000E+00  -0.1122750000E-02  -0.1122750000E-02   0.0000000000E+00  -0.9392423794E-02  -0.9392423794E-02   0.6875000009E+01  -0.2252855905E-13  -0.2438764832E-13  -0.7980871764E-16  -0.1256849265E-14  -0.1702667377E-15   0.2105784762E-01  -0.1051517381E-01  -0.1051517381E-01  -0.2386689143E-16   0.1056137470E-16   0.2340375692E-16   0.6875000009E+01
   0.2042115695E+01   0.0000000000E+00   0.3076177632E-16   0.4500000000E-02   0.0000000000E+00  -0.3101973750E-17   0.3761569517E-01   0.0000000000E+00   0.3386375007E-16   0.6875000010E+01  -0.4384317922E-14  -0.4296531641E-14   0.1563820714E-14   0.3234564597E-15   0.4417622565E-15   0.2105784762E-01  -0.1051517381E-01  -0.1051517381E-01  -0.6248103934E-16   0.6700173922E-16  -0.1790784662E-16   0.6875000010E+01
   0.2042115695E+01   0.9894848262E+00   0.2156462847E-16   0.4500000000E-02  -0.1122750000E-02  -0.1456726002E-17   0.3761569517E-01  -0.9392423794E-02   0.2302135447E-16   0.6875000010E+01  -0.1263743170E-12  -0.1235824268E-12   0.8719149514E-15  -0.3472663268E-14   0.9283688661E-15   0.2105784762E-01  -0.1051517381E-01  -0.1051517381E-01  -0.6668625282E-16  -0.1754286381E-16   0.4037927092E-16   0.6875000010E+01
   0.2042115695E+01   0.0000000000E+00   0.9894848262E+00   0.4500000000E-02   0.0000000000E+00  -0.1122750000E-02   0.3761569517E-01   0.0000000000E+00  -0.9392423794E-02   0.6875000010E+01   0.1419262013E-13   0.1574148781E-13  -0.1229894440E-14   0.2037583344E-14   0.1811078677E-15   0.2105784762E-01  -0.1051517381E-01  -0.1051517381E-01  -0.1067231920E-15   0.2154357374E-16  -0.3187406496E-16   0.6875000010E+01
   0.2042115695E+01   0.9894848262E+00   0.9894848262E+00   0.4500000000E-02  -0.1122750000E-02  -0.1122750000E-02   0.3761569517E-01  -0.9392423794E-02  -0.9392423794E-02   0.6875000009E+01   0.1424634925E-14  -0.1016396410E-14   0.4398254928E-16  -0.1550712788E-14  -0.6342191095E-16   0.2105784761E-01  -0.1051517381E-01  -0.1051517381E-01  -0.6425942612E-16  -0.8158268671E-17   0.1710431862E-16   0.6875000009E+01
     1     2     3     4     5     6     7     8
     2     9    10     3     6    11    12     7
 VARIABLES = X,Y,Z,DU1,DU2,DU3,U1,U2,U3,S11,S22,S33,S12,S13,S23,E11,E22,E33,E12,E13,E23,SMISES
 ZONE, T="0.2800D+01" F=FEPOINT, I=   12 J=    2 ET=BRICK
   0.0000000000E+00   0.0000000000E+00   0.0000000000E+00   0.0000000000E+00   0.0000000000E+00   0.0000000000E+00   0.0000000000E+00   0.0000000000E+00   0.0000000000E+00   0.8000000013E+01   0.3233051336E-13   0.3177102552E-13  -0.4095665660E-16  -0.3072137905E-15   0.1373687015E-15   0.2330784762E-01  -0.1163792381E-01  -0.1163792381E-01   0.2879784222E-17  -0.1982304079E-16  -0.6283676875E-16   0.8000000013E+01
   0.1023307848E+01   0.0000000000E+00  -0.5759826327E-18   0.2250000000E-02   0.0000000000E+00   0.1767581861E-17   0.2105784759E-01   0.0000000000E+00  -0.2343564494E-17   0.8000000012E+01   0.9948663268E-14   0.8760084019E-14  -0.6629499241E-15  -0.6516472027E-15  -0.7620673018E-15   0.2330784762E-01  -0.1163792381E-01  -0.1163792381E-01  -0.3175601582E-16  -0.3528600418E-16  -0.5302042790E-16   0.8000000012E+01
   0.1023307848E+01   0.9883620762E+00  -0.2663142159E-16   0.2250000000E-02  -0.1122750000E-02  -0.8058784169E-18   0.2105784759E-01  -0.1051517379E-01  -0.2582554317E-16   0.8000000011E+01  -0.2081233090E-13  -0.1966944193E-13  -0.9039879102E-15   0.1964706186E-14  -0.4910925711E-15   0.2330784762E-01  -0.1163792381E-01  -0.1163792381E-01  -0.1877216062E-16   0.1547962608E-17  -0.1436275377E-16   0.8000000011E+01
   0.0000000000E+00   0.9883620762E+00  -0.3301627203E-16   0.0000000000E+00  -0.1122750000E-02  -0.2848714528E-17   0.0000000000E+00  -0.1051517379E-01  -0.3016755750E-16   0.8000000012E+01  -0.4439690870E-13  -0.4266079824E-13   0.5625760028E-15  -0.1344807321E-14  -0.6059266096E-16   0.2330784762E-01  -0.1163792381E-01  -0.1163792381E-01   0.2049834124E-16  -0.7889224942E-17   0.3280549703E-17   0.8000000012E+01
   0.0000000000E+00   0.0000000000E+00   0.9883620762E+00   0.0000000000E+00   0.0000000000E+00  -0.1122750000E-02   0.0000000000E+00   0.0000000000E+00  -0.1051517379E-01   0.8000000012E+01   0.2447375580E-13   0.2381306625E-13  -0.8899747397E-16  -0.2784397349E-15   0.6367705122E-15   0.2330784762E-01  -0.1163792381E-01  -0.1163792381E-01  -0.9359665743E-18  -0.3495079141E-17  -0.4286624767E-16   0.8000000012E+01
   0.1023307848E+01   0.0000000000E+00   0.9883620762E+00   0.2250000000E-02   0.0000000000E+00  -0.1122750000E-02   0.2105784759E-01   0.0000000000E+00  -0.1051517379E-01   0.8000000011E+01   0.6979863874E-13   0.6930010637E-13   0.1245748030E-14   0.1826708177E-16   0.2006338095E-15   0.2330784762E-01  -0.1163792381E-01  -0.1163792381E-01  -0.1864028791E-17  -0.4227224570E-16  -0.2437568798E-16   0.8000000011E+01
   0.1023307848E+01   0.9883620762E+00   0.9883620762E+00   0.2250000000E-02  -0.1122750000E-02  -0.1122750000E-02   0.2105784759E-01  -0.1051517379E-01  -0.1051517379E-01   0.8000000010E+01  -0.1262913686E-13  -0.1024322563E-13   0.1770068307E-14   0.1917356245E-14   0.8541555968E-16   0.2330784762E-01  -0.1163792381E-01  -0.1163792381E-01   0.5618354419E-17   0.2053559160E-16   0.1136916944E-16   0.8000000010E+01
   0.0000000000E+00   0.9883620762E+00   0.9883620762E+00   0.0000000000E+00  -0.1122750000E-02  -0.1122750000E-02   0.0000000000E+00  -0.1051517379E-01  -0.1051517379E-01   0.8000000011E+01   0.7538502226E-13   0.7328211113E-13  -0.1392000791E-15  -0.1019982279E-14   0.3465896525E-15   0.2330784762E-01  -0.1163792381E-01  -0.1163792381E-01  -0.2481236368E-16   0.9676095695E-18   0.1903956355E-16   0.8000000011E+01
   0.2046615695E+01   0.0000000000E+00   0.4062285342E-16   0.4500000000E-02   0.0000000000E+00   0.9861077104E-17   0.4211569517E-01   0.0000000000E+00   0.3076177632E-16   0.8000000012E+01  -0.9514724059E-14  -0.9952300944E-14   0.5514051520E-15   0.6473758356E-15  -0.1485163679E-15   0.2330784762E-01  -0.1163792381E-01  -0.1163792381E-01  -0.6328674979E-16   0.6799286396E-16  -0.2543406051E-16   0.8000000012E+01
   0.2046615695E+01   0.9883620762E+00   0.2782712759E-16   0.4500000000E-02  -0.1122750000E-02   0.6262499117E-17   0.4211569517E-01  -0.1051517379E-01   0.2156462847E-16   0.8000000011E+01   0.5823243633E-13   0.6126814834E-13   0.2351814702E-15  -0.3558952077E-14   0.8823201897E-15   0.2330784762E-01  -0.1163792381E-01  -0.1163792381E-01  -0.6455415279E-16   0.1360097117E-16   0.3669631120E-16   0.8000000011E+01
   0.2046615695E+01   0.0000000000E+00   0.9883620762E+00   0.4500000000E-02   0.0000000000E+00  -0.1122750000E-02   0.4211569517E-01   0.0000000000E+00  -0.1051517379E-01   0.8000000011E+01   0.3735696793E-13   0.3684210241E-13  -0.1890870484E-14   0.1439352243E-14  -0.6064283347E-16   0.2330784762E-01  -0.1163792381E-01  -0.1163792381E-01  -0.1062312412E-15  -0.8502561505E-17  -0.3298699607E-16   0.8000000011E+01
   0.2046615695E+01   0.9883620762E+00   0.9883620762E+00   0.4500000000E-02  -0.1122750000E-02  -0.1122750000E-02   0.4211569517E-01  -0.1051517379E-01  -0.1051517379E-01   0.8000000010E+01  -0.1097152401E-12  -0.1134508196E-12  -0.3037236411E-15  -0.1300920496E-14   0.2487290853E-15   0.2330784762E-01  -0.1163792381E-01  -0.1163792381E-01  -0.6151401817E-16  -0.3053060224E-17   0.1450136795E-16   0.8000000010E+01
     1     2     3     4     5     6     7     8
     2     9    10     3     6    11    12     7
 VARIABLES = X,Y,Z,DU1,DU2,DU3,U1,U2,U3,S11,S22,S33,S12,S13,S23,E11,E22,E33,E12,E13,E23,SMISES
 ZONE, T="0.2850D+01" F=FEPOINT, I=   12 J=    2 ET=BRICK
   0.0000000000E+00   0.0000000000E+00   0.0000000000E+00   0.0000000000E+00   0.0000000000E+00   0.0000000000E+00   0.0000000000E+00   0.0000000000E+00   0.0000000000E+00   0.9125000014E+01   0.3545841281E-14   0.1523813018E-14  -0.6049063161E-16  -0.5417215084E-15   0.7935115579E-15   0.2555784763E-01  -0.1276067381E-01  -0.1276067381E-01   0.1780300091E-17  -0.1860297489E-16  -0.5665094945E-16   0.9125000014E+01
   0.1025557848E+01   0.0000000000E+00  -0.4337291420E-17   0.2250000000E-02   0.0000000000E+00  -0.3761308787E-17   0.2330784759E-01   0.0000000000E+00  -0.5759826327E-18   0.9125000014E+01   0.3110822736E-13   0.2822961883E-13  -0.5720156729E-15  -0.7382429010E-15  -0.1438456714E-15   0.2555784763E-01  -0.1276067381E-01  -0.1276067381E-01  -0.2838528315E-16  -0.4661236016E-16  -0.4654448688E-16   0.9125000014E+01
   0.1025557848E+01   0.9872393262E+00  -0.2663731276E-16   0.2250000000E-02  -0.1122750000E-02  -0.5891170865E-20   0.2330784759E-01  -0.1163792379E-01  -0.2663142159E-16   0.9125000013E+01  -0.5451955334E-13  -0.5487439744E-13  -0.9023497149E-15   0.1844969899E-14  -0.1236946994E-14   0.2555784762E-01  -0.1276067381E-01  -0.1276067381E-01  -0.2331239200E-16   0.2677755966E-16  -0.2403075554E-16   0.9125000013E+01
   0.0000000000E+00   0.9872393262E+00  -0.2904073828E-16   0.0000000000E+00  -0.1122750000E-02   0.3975533746E-17   0.0000000000E+00  -0.1163792379E-01  -0.3301627203E-16   0.9125000013E+01   0.4584988754E-13   0.4602730949E-13   0.5502834867E-15  -0.1637410998E-14  -0.7995806540E-15   0.2555784762E-01  -0.1276067381E-01  -0.1276067381E-01   0.2437585151E-16  -0.2251665513E-16  -0.1492365167E-16   0.9125000013E+01
   0.0000000000E+00   0.0000000000E+00   0.9872393262E+00   0.0000000000E+00   0.0000000000E+00  -0.1122750000E-02   0.0000000000E+00   0.0000000000E+00  -0.1163792379E-01   0.9125000013E+01   0.3242452409E-13   0.3328188610E-13  -0.8758358156E-16  -0.6892999039E-15   0.1376277595E-14   0.2555784762E-01  -0.1276067381E-01  -0.1276067381E-01  -0.1902336448E-17  -0.1496769715E-16  -0.4102727787E-16   0.9125000013E+01
   0.1025557848E+01   0.0000000000E+00   0.9872393262E+00   0.2250000000E-02   0.0000000000E+00  -0.1122750000E-02   0.2330784759E-01   0.0000000000E+00  -0.1163792379E-01   0.9125000013E+01  -0.1545210123E-13  -0.1437162659E-13   0.1181592448E-14   0.7946744978E-16   0.9839933561E-15   0.2555784762E-01  -0.1276067381E-01  -0.1276067381E-01   0.3476071269E-18  -0.2491821158E-16  -0.1211426471E-16   0.9125000013E+01
   0.1025557848E+01   0.9872393262E+00   0.9872393262E+00   0.2250000000E-02  -0.1122750000E-02  -0.1122750000E-02   0.2330784759E-01  -0.1163792379E-01  -0.1163792379E-01   0.9125000012E+01   0.1094374070E-13   0.1485713333E-13   0.1708468716E-14   0.1823399728E-14  -0.5481543401E-15   0.2555784762E-01  -0.1276067381E-01  -0.1276067381E-01   0.9439603633E-17  -0.7505271248E-17  -0.1581757206E-16   0.9125000012E+01
   0.0000000000E+00   0.9872393262E+00   0.9872393262E+00   0.0000000000E+00  -0.1122750000E-02  -0.1122750000E-02   0.0000000000E+00  -0.1163792379E-01  -0.1163792379E-01   0.9125000012E+01  -0.4292451958E-13  -0.4348361635E-13  -0.2033097540E-15  -0.1348834663E-14  -0.3363273047E-15   0.2555784762E-01  -0.1276067381E-01  -0.1276067381E-01  -0.2548674381E-16   0.8214484648E-17   0.2033967977E-16   0.9125000012E+01
   0.2051115695E+01   0.0000000000E+00   0.2451785095E-16   0.4500000000E-02   0.0000000000E+00  -0.1610500247E-16   0.4661569517E-01   0.0000000000E+00   0.4062285342E-16   0.9125000014E+01   0.1017982141E-12   0.1008784378E-12   0.5389617186E-16   0.8952134719E-15   0.4059652157E-15   0.2555784763E-01  -0.1276067381E-01  -0.1276067381E-01  -0.7568749930E-16   0.2512325210E-16  -0.1632667304E-16   0.9125000014E+01
   0.2051115695E+01   0.9872393262E+00   0.1492463782E-16   0.4500000000E-02  -0.1122750000E-02  -0.1290248977E-16   0.4661569517E-01  -0.1163792379E-01   0.2782712759E-16   0.9125000013E+01  -0.1648257741E-12  -0.1636114322E-12  -0.3621790634E-15  -0.3252580021E-14   0.1901870885E-15   0.2555784762E-01  -0.1276067381E-01  -0.1276067381E-01  -0.6790502100E-16  -0.1102903651E-16   0.1935111684E-16   0.9125000013E+01
   0.2051115695E+01   0.0000000000E+00   0.9872393262E+00   0.4500000000E-02   0.0000000000E+00  -0.1122750000E-02   0.4661569517E-01   0.0000000000E+00  -0.1163792379E-01   0.9125000013E+01  -0.4262335552E-13  -0.4188285100E-13  -0.1653145587E-14   0.1489582898E-14   0.4926736118E-15   0.2555784762E-01  -0.1276067381E-01  -0.1276067381E-01  -0.1035943976E-15  -0.3170971952E-16  -0.3503818451E-16   0.9125000013E+01
   0.2051115695E+01   0.9872393262E+00   0.9872393262E+00   0.4500000000E-02  -0.1122750000E-02  -0.1122750000E-02   0.4661569517E-01  -0.1163792379E-01  -0.1163792379E-01   0.9125000012E+01   0.4399076493E-13   0.4186938506E-13   0.8480383876E-16  -0.8305402604E-15  -0.3115559331E-15   0.2555784762E-01  -0.1276067381E-01  -0.1276067381E-01  -0.6807203864E-16   0.2773087986E-16   0.2546513810E-16   0.9125000012E+01
     1     2     3     4     5     6     7     8
     2     9    10     3     6    11    12     7
 VARIABLES = X,Y,Z,DU1,DU2,DU3,U1,U2,U3,S11,S22,S33,S12,S13,S23,E11,E22,E33,E12,E13,E23,SMISES
 ZONE, T="0.2900D+01" F=FEPOINT, I=   12 J=    2 ET=BRICK
   0.0000000000E+00   0.0000000000E+00   0.0000000000E+00   0.0000000000E+00   0.0000000000E+00   0.0000000000E+00   0.0000000000E+00   0.0000000000E+00   0.0000000000E+00   0.1024999973E+02   0.1434332399E-06   0.1434332347E-06  -0.3899340764E-16  -0.3102052299E-14   0.3430099482E-15   0.3288418295E-01  -0.1642159147E-01  -0.1642159147E-01  -0.1476251978E-18  -0.6220127698E-16  -0.7321114665E-16   0.1024999959E+02
   0.1032884183E+01   0.0000000000E+00  -0.2555297140E-16   0.7326335306E-02   0.0000000000E+00  -0.2121567998E-16   0.2555784759E-01   0.0000000000E+00  -0.4337291420E-17   0.1024999973E+02   0.1434329332E-06   0.1434329286E-06  -0.6884490482E-15  -0.2122666246E-14   0.8586242089E-15   0.3288418294E-01  -0.1642159147E-01  -0.1642159147E-01  -0.3064363610E-16  -0.6329118267E-16  -0.3011152718E-16   0.1024999959E+02
   0.1032884183E+01   0.9835784086E+00  -0.4008714150E-16   0.7326335306E-02  -0.3660917653E-02  -0.1344982874E-16   0.2555784759E-01  -0.1276067379E-01  -0.2663731276E-16   0.1024999973E+02   0.1434328810E-06   0.1434328777E-06  -0.1255884336E-14   0.1430387359E-14  -0.1837594987E-14   0.3288418294E-01  -0.1642159147E-01  -0.1642159147E-01  -0.1854196115E-16   0.1048790766E-16  -0.4340297389E-16   0.1024999958E+02
   0.0000000000E+00   0.9835784086E+00  -0.3035323949E-16   0.0000000000E+00  -0.3660917653E-02  -0.1312501215E-17   0.0000000000E+00  -0.1276067379E-01  -0.2904073828E-16   0.1024999973E+02   0.1434326319E-06   0.1434326286E-06  -0.5000408263E-16  -0.2499595374E-14  -0.2768167126E-14   0.3288418294E-01  -0.1642159147E-01  -0.1642159147E-01   0.1222604059E-16  -0.3929106027E-16  -0.2793530831E-16   0.1024999958E+02
   0.0000000000E+00   0.0000000000E+00   0.9835784086E+00   0.0000000000E+00   0.0000000000E+00  -0.3660917653E-02   0.0000000000E+00   0.0000000000E+00  -0.1276067379E-01   0.1024999973E+02   0.1434326407E-06   0.1434326417E-06  -0.8335566373E-16  -0.2985272852E-14   0.7018298969E-15   0.3288418294E-01  -0.1642159147E-01  -0.1642159147E-01   0.2554053922E-17  -0.5472644314E-16  -0.2600166976E-16   0.1024999958E+02
   0.1032884183E+01   0.0000000000E+00   0.9835784086E+00   0.7326335306E-02   0.0000000000E+00  -0.3660917653E-02   0.2555784759E-01   0.0000000000E+00  -0.1276067379E-01   0.1024999973E+02   0.1434328338E-06   0.1434328358E-06   0.1480272790E-14  -0.1088340379E-14   0.1631388311E-14   0.3288418294E-01  -0.1642159147E-01  -0.1642159147E-01   0.7137500102E-17  -0.4067203397E-16   0.1700149029E-17   0.1024999958E+02
   0.1032884183E+01   0.9835784086E+00   0.9835784086E+00   0.7326335306E-02  -0.3660917653E-02  -0.3660917653E-02   0.2555784759E-01  -0.1276067379E-01  -0.1276067379E-01   0.1024999973E+02   0.1434329978E-06   0.1434330033E-06   0.1696548570E-14   0.1553743944E-14  -0.1387326828E-14   0.3288418294E-01  -0.1642159147E-01  -0.1642159147E-01   0.6785387011E-17  -0.1681674516E-16  -0.2365242181E-16   0.1024999958E+02
   0.0000000000E+00   0.9835784086E+00   0.9835784086E+00   0.0000000000E+00  -0.3660917653E-02  -0.3660917653E-02   0.0000000000E+00  -0.1276067379E-01  -0.1276067379E-01   0.1024999973E+02   0.1434331715E-06   0.1434331698E-06  -0.3977867219E-15  -0.1755927353E-14  -0.3082756208E-14   0.3288418294E-01  -0.1642159147E-01  -0.1642159147E-01  -0.2519083781E-16   0.7924199053E-17  -0.4022703915E-16   0.1024999958E+02
   0.2065768366E+01   0.0000000000E+00  -0.2202382589E-16   0.1465267061E-01   0.0000000000E+00  -0.4654167684E-16   0.5111569517E-01   0.0000000000E+00   0.2451785095E-16   0.1024999973E+02   0.1434327800E-06   0.1434327785E-06   0.9252767546E-16  -0.3242034960E-16   0.1290925155E-14   0.3288418294E-01  -0.1642159147E-01  -0.1642159147E-01  -0.7082392820E-16  -0.1192671905E-16  -0.4165614265E-17   0.1024999959E+02
   0.2065768366E+01   0.9835784086E+00  -0.2425431981E-16   0.1465267061E-01  -0.3660917653E-02  -0.3917895762E-16   0.5111569517E-01  -0.1276067379E-01   0.1492463782E-16   0.1024999973E+02   0.1434330099E-06   0.1434330095E-06  -0.4952671690E-15  -0.1565674408E-14  -0.7807396404E-15   0.3288418294E-01  -0.1642159147E-01  -0.1642159147E-01  -0.7616528706E-16   0.1860294540E-16   0.1271883514E-16   0.1024999958E+02
   0.2065768366E+01   0.0000000000E+00   0.9835784086E+00   0.1465267061E-01   0.0000000000E+00  -0.3660917653E-02   0.5111569517E-01   0.0000000000E+00  -0.1276067379E-01   0.1024999973E+02   0.1434331531E-06   0.1434331564E-06  -0.4869412902E-15   0.2490150021E-14   0.9782098946E-15   0.3288418294E-01  -0.1642159147E-01  -0.1642159147E-01  -0.6977815927E-16   0.2317172876E-19  -0.2949499607E-16   0.1024999958E+02
   0.2065768366E+01   0.9835784086E+00   0.9835784086E+00   0.1465267061E-01  -0.3660917653E-02  -0.3660917653E-02   0.5111569517E-01  -0.1276067379E-01  -0.1276067379E-01   0.1024999973E+02   0.1434326976E-06   0.1434326970E-06   0.8645171620E-15  -0.5796581518E-15  -0.1524517268E-14   0.3288418294E-01  -0.1642159147E-01  -0.1642159147E-01  -0.2328962652E-16   0.4082065543E-16  -0.3146508277E-17   0.1024999958E+02
     1     2     3     4     5     6     7     8
     2     9    10     3     6    11    12     7
 VARIABLES = X,Y,Z,DU1,DU2,DU3,U1,U2,U3,S11,S22,S33,S12,S13,S23,E11,E22,E33,E12,E13,E23,SMISES
 ZONE, T="0.2950D+01" F=FEPOINT, I=   12 J=    2 ET=BRICK
   0.0000000000E+00   0.0000000000E+00   0.0000000000E+00   0.0000000000E+00   0.0000000000E+00   0.0000000000E+00   0.0000000000E+00   0.0000000000E+00   0.0000000000E+00   0.1137499401E+02   0.3005159808E-05   0.3005159808E-05   0.1618972826E-15   0.7084929207E-15   0.1015306688E-14   0.5965712499E-01  -0.2980581250E-01  -0.2980581250E-01   0.8156890310E-17  -0.1979808895E-16  -0.2950508933E-16   0.1137499100E+02
   0.1059657125E+01   0.0000000000E+00  -0.3742032081E-17   0.2677294200E-01   0.0000000000E+00   0.2181093932E-16   0.3288418289E-01   0.0000000000E+00  -0.2555297140E-16   0.1137499401E+02   0.3005157820E-05   0.3005157816E-05  -0.1587740625E-14  -0.1605778903E-14   0.1333636835E-15   0.5965712499E-01  -0.2980581249E-01  -0.2980581249E-01  -0.6386743161E-16  -0.5843528929E-16  -0.3914313693E-16   0.1137499100E+02
   0.1059657125E+01   0.9701941876E+00  -0.2011025386E-16   0.2677294200E-01  -0.1338422100E-01   0.1997688764E-16   0.3288418289E-01  -0.1642159145E-01  -0.4008714150E-16   0.1137499401E+02   0.3005158667E-05   0.3005158666E-05  -0.1417722860E-14   0.1665245535E-14  -0.1177112576E-14   0.5965712498E-01  -0.2980581249E-01  -0.2980581249E-01  -0.5312251989E-16   0.3419649139E-16  -0.3286290441E-16   0.1137499100E+02
   0.0000000000E+00   0.9701941876E+00  -0.1719103083E-16   0.0000000000E+00  -0.1338422100E-01   0.1316220866E-16   0.0000000000E+00  -0.1642159145E-01  -0.3035323949E-16   0.1137499401E+02   0.3005157346E-05   0.3005157348E-05   0.7974260825E-15  -0.7114906559E-15  -0.1055918378E-15   0.5965712498E-01  -0.2980581249E-01  -0.2980581249E-01   0.3775758607E-16  -0.1897625261E-16  -0.2741852010E-16   0.1137499100E+02
   0.0000000000E+00   0.0000000000E+00   0.9701941876E+00   0.0000000000E+00   0.0000000000E+00  -0.1338422100E-01   0.0000000000E+00   0.0000000000E+00  -0.1642159145E-01   0.1137499401E+02   0.3005157581E-05   0.3005157583E-05  -0.1582626182E-15   0.4550757959E-16   0.1312505798E-14   0.5965712498E-01  -0.2980581249E-01  -0.2980581249E-01  -0.1943946472E-17   0.2130525066E-17  -0.9825682413E-17   0.1137499100E+02
   0.1059657125E+01   0.0000000000E+00   0.9701941876E+00   0.2677294200E-01   0.0000000000E+00  -0.1338422100E-01   0.3288418289E-01   0.0000000000E+00  -0.1642159145E-01   0.1137499401E+02   0.3005157858E-05   0.3005157859E-05   0.9954469812E-15  -0.2235263944E-15   0.7382562570E-15   0.5965712498E-01  -0.2980581249E-01  -0.2980581249E-01   0.2330482158E-16  -0.6363160546E-16  -0.3381738861E-17   0.1137499100E+02
   0.1059657125E+01   0.9701941876E+00   0.9701941876E+00   0.2677294200E-01  -0.1338422100E-01  -0.1338422100E-01   0.3288418289E-01  -0.1642159145E-01  -0.1642159145E-01   0.1137499400E+02   0.3005157622E-05   0.3005157625E-05   0.9938859704E-15   0.1297172658E-14  -0.1235843459E-14   0.5965712497E-01  -0.2980581249E-01  -0.2980581249E-01   0.3065592816E-16   0.1077560461E-16  -0.3252988028E-16   0.1137499100E+02
   0.0000000000E+00   0.9701941876E+00   0.9701941876E+00   0.0000000000E+00  -0.1338422100E-01  -0.1338422100E-01   0.0000000000E+00  -0.1642159145E-01  -0.1642159145E-01   0.1137499400E+02   0.3005158213E-05   0.3005158213E-05  -0.5565439398E-17  -0.1214237548E-14   0.5370586160E-15   0.5965712498E-01  -0.2980581249E-01  -0.2980581249E-01  -0.2404703936E-16  -0.1907591464E-16   0.4181871140E-16   0.1137499100E+02
   0.2119314250E+01   0.0000000000E+00   0.5731136930E-17   0.5354588401E-01   0.0000000000E+00   0.2775496282E-16   0.6576836579E-01   0.0000000000E+00  -0.2202382589E-16   0.1137499401E+02   0.3005155459E-05   0.3005155458E-05   0.1392455884E-14   0.2509166672E-14   0.4622540872E-15   0.5965712499E-01  -0.2980581249E-01  -0.2980581249E-01  -0.4702916487E-16   0.4432440122E-16  -0.7565082954E-17   0.1137499100E+02
   0.2119314250E+01   0.9701941876E+00   0.3543016937E-17   0.5354588401E-01  -0.1338422100E-01   0.2779733674E-16   0.6576836579E-01  -0.1642159145E-01  -0.2425431981E-16   0.1137499401E+02   0.3005159341E-05   0.3005159340E-05   0.5347975527E-15  -0.1978843577E-14  -0.8677446873E-16   0.5965712498E-01  -0.2980581249E-01  -0.2980581249E-01  -0.5368178293E-16  -0.2185997118E-17   0.1596930067E-16   0.1137499100E+02
   0.2119314250E+01   0.0000000000E+00   0.9701941876E+00   0.5354588401E-01   0.0000000000E+00  -0.1338422100E-01   0.6576836579E-01   0.0000000000E+00  -0.1642159145E-01   0.1137499401E+02   0.3005159036E-05   0.3005159037E-05  -0.1005492420E-14   0.1492949231E-14   0.1379484168E-15   0.5965712498E-01  -0.2980581249E-01  -0.2980581249E-01  -0.7970069300E-16   0.3865742946E-16  -0.2549879240E-16   0.1137499100E+02
   0.2119314250E+01   0.9701941876E+00   0.9701941876E+00   0.5354588401E-01  -0.1338422100E-01  -0.1338422100E-01   0.6576836579E-01  -0.1642159145E-01  -0.1642159145E-01   0.1137499400E+02   0.3005157681E-05   0.3005157680E-05   0.1378144443E-15  -0.5543551405E-16  -0.2338633771E-15   0.5965712497E-01  -0.2980581249E-01  -0.2980581249E-01  -0.2678956861E-16  -0.9879741349E-17   0.1282930244E-16   0.1137499100E+02
     1     2     3     4     5     6     7     8
     2     9    10     3     6    11    12     7
 VARIABLES = X,Y,Z,DU1,DU2,DU3,U1,U2,U3,S11,S22,S33,S12,S13,S23,E11,E22,E33,E12,E13,E23,SMISES
 ZONE, T="0.3000D+01" F=FEPOINT, I=   12 J=    2 ET=BRICK
   0.0000000000E+00   0.0000000000E+00   0.0000000000E+00   0.0000000000E+00   0.0000000000E+00   0.0000000000E+00   0.0000000000E+00   0.0000000000E+00   0.0000000000E+00   0.1249998613E+02   0.6944757101E-05   0.6944757099E-05   0.8897818570E-16  -0.5455410537E-15  -0.3333313222E-15   0.8837737263E-01  -0.4416368631E-01  -0.4416368631E-01  -0.3840741749E-17  -0.3419366653E-16  -0.5883688915E-16   0.1249997919E+02
   0.1088377372E+01   0.0000000000E+00  -0.1378585517E-16   0.2872024759E-01   0.0000000000E+00  -0.1004382309E-16   0.5965712490E-01   0.0000000000E+00  -0.3742032081E-17   0.1249998613E+02   0.6944757356E-05   0.6944757355E-05   0.4622062927E-15   0.1911237257E-15  -0.2961309116E-15   0.8837737263E-01  -0.4416368631E-01  -0.4416368631E-01  -0.1875354170E-16  -0.2236258569E-16  -0.4035614705E-16   0.1249997918E+02
   0.1088377372E+01   0.9558363138E+00  -0.3395071609E-16   0.2872024759E-01  -0.1435787380E-01  -0.1384046223E-16   0.5965712490E-01  -0.2980581245E-01  -0.2011025386E-16   0.1249998613E+02   0.6944757601E-05   0.6944757600E-05   0.4204394956E-15   0.9517556338E-15  -0.2944825694E-15   0.8837737262E-01  -0.4416368631E-01  -0.4416368631E-01  -0.3008011468E-17   0.2102047857E-16  -0.3589506861E-16   0.1249997918E+02
   0.0000000000E+00   0.9558363138E+00  -0.2665254171E-16   0.0000000000E+00  -0.1435787380E-01  -0.9461510880E-17   0.0000000000E+00  -0.2980581245E-01  -0.1719103083E-16   0.1249998613E+02   0.6944758017E-05   0.6944758018E-05  -0.4631426076E-15  -0.8454256594E-15  -0.1173170697E-14   0.8837737262E-01  -0.4416368631E-01  -0.4416368631E-01   0.8468548601E-17  -0.3036035016E-16  -0.2556815606E-16   0.1249997918E+02
   0.0000000000E+00   0.0000000000E+00   0.9558363138E+00   0.0000000000E+00   0.0000000000E+00  -0.1435787380E-01   0.0000000000E+00   0.0000000000E+00  -0.2980581245E-01   0.1249998613E+02   0.6944757653E-05   0.6944757655E-05  -0.1046102505E-15  -0.3950882847E-15   0.4791664644E-15   0.8837737262E-01  -0.4416368631E-01  -0.4416368631E-01   0.1071021195E-16  -0.3105757600E-16   0.8143146858E-17   0.1249997918E+02
   0.1088377372E+01   0.0000000000E+00   0.9558363138E+00   0.2872024759E-01   0.0000000000E+00  -0.1435787380E-01   0.5965712490E-01   0.0000000000E+00  -0.2980581245E-01   0.1249998613E+02   0.6944757554E-05   0.6944757555E-05  -0.6539704463E-15   0.1081170747E-14   0.6472006569E-15   0.8837737262E-01  -0.4416368631E-01  -0.4416368631E-01  -0.4361526889E-16   0.1644515191E-16  -0.9952374591E-17   0.1249997918E+02
   0.1088377372E+01   0.9558363138E+00   0.9558363138E+00   0.2872024759E-01  -0.1435787380E-01  -0.1435787380E-01   0.5965712490E-01  -0.2980581245E-01  -0.2980581245E-01   0.1249998613E+02   0.6944758012E-05   0.6944758016E-05  -0.1210880504E-15  -0.8860793624E-15   0.2750731094E-16   0.8837737261E-01  -0.4416368630E-01  -0.4416368630E-01  -0.7531346490E-17  -0.3708731987E-16   0.9102781466E-18   0.1249997918E+02
   0.0000000000E+00   0.9558363138E+00   0.9558363138E+00   0.0000000000E+00  -0.1435787380E-01  -0.1435787380E-01   0.0000000000E+00  -0.2980581245E-01  -0.2980581245E-01   0.1249998613E+02   0.6944757111E-05   0.6944757110E-05   0.2159202608E-15  -0.3496323352E-15  -0.4628536898E-15   0.8837737261E-01  -0.4416368630E-01  -0.4416368630E-01  -0.8241991832E-17   0.1097392301E-16  -0.3323802293E-16   0.1249997918E+02
   0.2176754745E+01   0.0000000000E+00  -0.3758698440E-17   0.5744049519E-01   0.0000000000E+00  -0.9489835370E-17   0.1193142498E+00   0.0000000000E+00   0.5731136930E-17   0.1249998613E+02   0.6944758200E-05   0.6944758200E-05  -0.1843082279E-14   0.1299487531E-14  -0.5035808288E-15   0.8837737262E-01  -0.4416368631E-01  -0.4416368631E-01  -0.1326356242E-15  -0.3602750166E-16  -0.2592259074E-16   0.1249997918E+02
   0.2176754745E+01   0.9558363138E+00  -0.1442785849E-16   0.5744049519E-01  -0.1435787380E-01  -0.1797087542E-16   0.1193142498E+00  -0.2980581245E-01   0.3543016937E-17   0.1249998613E+02   0.6944757065E-05   0.6944757064E-05  -0.1677379604E-14  -0.2639866087E-14   0.5857063931E-16   0.8837737261E-01  -0.4416368631E-01  -0.4416368631E-01  -0.1201116991E-15   0.6249950365E-16   0.4189756890E-16   0.1249997918E+02
   0.2176754745E+01   0.0000000000E+00   0.9558363138E+00   0.5744049519E-01   0.0000000000E+00  -0.1435787380E-01   0.1193142498E+00   0.0000000000E+00  -0.2980581245E-01   0.1249998613E+02   0.6944757585E-05   0.6944757581E-05  -0.1228340239E-14  -0.1719038893E-14   0.1375900389E-15   0.8837737261E-01  -0.4416368631E-01  -0.4416368631E-01  -0.3963653310E-16  -0.4483314728E-16  -0.1495745452E-16   0.1249997918E+02
   0.2176754745E+01   0.9558363138E+00   0.9558363138E+00   0.5744049519E-01  -0.1435787380E-01  -0.1435787380E-01   0.1193142498E+00  -0.2980581245E-01  -0.2980581245E-01   0.1249998613E+02   0.6944758357E-05   0.6944758356E-05  -0.3289241123E-15   0.2661253957E-14   0.8390272043E-15   0.8837737260E-01  -0.4416368630E-01  -0.4416368630E-01  -0.1601805717E-16   0.6449257695E-17  -0.9540091158E-17   0.1249997918E+02
     1     2     3     4     5     6     7     8
     2     9    10     3     6    11    12     7
 VARIABLES = X,Y,Z,DU1,DU2,DU3,U1,U2,U3,S11,S22,S33,S12,S13,S23,E11,E22,E33,E12,E13,E23,SMISES
 ZONE, T="0.3050D+01" F=FEPOINT, I=   12 J=    2 ET=BRICK
   0.0000000000E+00   0.0000000000E+00   0.0000000000E+00   0.0000000000E+00   0.0000000000E+00   0.0000000000E+00   0.0000000000E+00   0.0000000000E+00   0.0000000000E+00   0.1137500002E+02  -0.1124936209E-11  -0.1549889962E-11   0.6937036698E-16  -0.4336627188E-12  -0.1200543843E-12   0.8612741427E-01  -0.4304095713E-01  -0.4304095713E-01  -0.1915682108E-17  -0.5224074937E-14  -0.1493678110E-14   0.1137500002E+02
   0.1086127414E+01   0.0000000000E+00  -0.2690783216E-14  -0.2249958359E-02   0.0000000000E+00  -0.2676997361E-14   0.8837737249E-01   0.0000000000E+00  -0.1378585517E-16   0.1137500002E+02  -0.8624171198E-12  -0.9710487696E-12  -0.1036557781E-12  -0.2854869436E-12   0.1270899610E-12   0.8612741426E-01  -0.4304095713E-01  -0.4304095713E-01  -0.1263284444E-14  -0.3476354567E-14   0.1496489775E-14   0.1137500002E+02
   0.1086127414E+01   0.9569590429E+00  -0.1947186541E-14  -0.2249958359E-02   0.1122729180E-02  -0.1913235825E-14   0.8837737249E-01  -0.4416368625E-01  -0.3395071609E-16   0.1137500002E+02   0.3122552751E-12   0.4119181884E-12  -0.9589226135E-13  -0.1743279201E-12  -0.6125657591E-13   0.8612741425E-01  -0.4304095713E-01  -0.4304095713E-01  -0.1173904782E-14  -0.2100096188E-14  -0.7397501811E-15   0.1137500002E+02
   0.0000000000E+00   0.9569590429E+00  -0.7445302698E-15   0.0000000000E+00   0.1122729180E-02  -0.7178777281E-15   0.0000000000E+00  -0.4416368625E-01  -0.2665254171E-16   0.1137500002E+02  -0.1804112844E-12  -0.3920450091E-12  -0.1167677204E-12  -0.1190852880E-12  -0.3040245458E-12   0.8612741426E-01  -0.4304095713E-01  -0.4304095713E-01  -0.1403321478E-14  -0.1436725238E-14  -0.3699757065E-14   0.1137500002E+02
   0.0000000000E+00   0.0000000000E+00   0.9569590429E+00   0.0000000000E+00   0.0000000000E+00   0.1122729180E-02   0.0000000000E+00   0.0000000000E+00  -0.4416368625E-01   0.1137500002E+02   0.5685546644E-12   0.5142606949E-12  -0.8108055128E-16  -0.3091333605E-12  -0.1399153874E-13   0.8612741426E-01  -0.4304095713E-01  -0.4304095713E-01   0.7641023078E-17  -0.3714583197E-14  -0.2021956499E-15   0.1137500002E+02
   0.1086127414E+01   0.0000000000E+00   0.9569590429E+00  -0.2249958359E-02   0.0000000000E+00   0.1122729180E-02   0.8837737249E-01   0.0000000000E+00  -0.4416368625E-01   0.1137500002E+02  -0.8543124577E-13   0.1844000464E-12  -0.1059986887E-12  -0.2849330217E-12   0.2317499196E-12   0.8612741425E-01  -0.4304095713E-01  -0.4304095713E-01  -0.1311713144E-14  -0.3401796924E-14   0.2765821302E-14   0.1137500002E+02
   0.1086127414E+01   0.9569590429E+00   0.9569590429E+00  -0.2249958359E-02   0.1122729180E-02   0.1122729180E-02   0.8837737249E-01  -0.4416368625E-01  -0.4416368625E-01   0.1137500001E+02  -0.3748729320E-12   0.1053166561E-12  -0.1019652295E-12  -0.1782817061E-12   0.4285548453E-13   0.8612741424E-01  -0.4304095712E-01  -0.4304095712E-01  -0.1238667509E-14  -0.2151026220E-14   0.4921036185E-15   0.1137500001E+02
   0.0000000000E+00   0.9569590429E+00   0.9569590429E+00   0.0000000000E+00   0.1122729180E-02   0.1122729180E-02   0.0000000000E+00  -0.4416368625E-01  -0.4416368625E-01   0.1137500002E+02   0.8106418118E-13   0.2335986401E-12  -0.1217539445E-12   0.4421605617E-14  -0.1980556204E-12   0.8612741425E-01  -0.4304095712E-01  -0.4304095712E-01  -0.1444480744E-14   0.5153221273E-16  -0.2363789814E-14   0.1137500002E+02
   0.2172254828E+01   0.0000000000E+00  -0.5676976003E-14  -0.4499916718E-02   0.0000000000E+00  -0.5673217304E-14   0.1767547450E+00   0.0000000000E+00  -0.3758698440E-17   0.1137500002E+02  -0.2378501154E-12  -0.6935615268E-12  -0.2055587523E-12  -0.1309570314E-12   0.1026826022E-12   0.8612741426E-01  -0.4304095713E-01  -0.4304095713E-01  -0.2580959531E-14  -0.1569854102E-14   0.1217435837E-14   0.1137500002E+02
   0.2172254828E+01   0.9569590429E+00  -0.5068980897E-14  -0.4499916718E-02   0.1122729180E-02  -0.5054553039E-14   0.1767547450E+00  -0.4416368625E-01  -0.1442785849E-16   0.1137500002E+02   0.1918456428E-12  -0.6179827438E-13  -0.7349687613E-13  -0.2339218634E-12  -0.8859678288E-13   0.8612741425E-01  -0.4304095713E-01  -0.4304095713E-01  -0.1036399915E-14  -0.2526015377E-14  -0.1070659151E-14   0.1137500002E+02
   0.2172254828E+01   0.0000000000E+00   0.9569590429E+00  -0.4499916718E-02   0.0000000000E+00   0.1122729180E-02   0.1767547450E+00   0.0000000000E+00  -0.4416368625E-01   0.1137500002E+02   0.1436429785E-12   0.6766699405E-13  -0.2119112169E-12  -0.2592563137E-12   0.2049754616E-12   0.8612741425E-01  -0.4304095713E-01  -0.4304095713E-01  -0.2591736486E-14  -0.3240407942E-14   0.2415722442E-14   0.1137500002E+02
   0.2172254828E+01   0.9569590429E+00   0.9569590429E+00  -0.4499916718E-02   0.1122729180E-02   0.1122729180E-02   0.1767547450E+00  -0.4416368625E-01  -0.4416368625E-01   0.1137500001E+02  -0.9044135801E-12  -0.7746256691E-12  -0.8205174692E-13  -0.3559053966E-12   0.1385652480E-13   0.8612741424E-01  -0.4304095712E-01  -0.4304095712E-01  -0.1015326442E-14  -0.4208709448E-14   0.2557169579E-15   0.1137500001E+02
     1     2     3     4     5     6     7     8
     2     9    10     3     6    11    12     7
 VARIABLES = X,Y,Z,DU1,DU2,DU3,U1,U2,U3,S11,S22,S33,S12,S13,S23,E11,E22,E33,E12,E13,E23,SMISES
 ZONE, T="0.3100D+01" F=FEPOINT, I=   12 J=    2 ET=BRICK
   0.0000000000E+00   0.0000000000E+00   0.0000000000E+00   0.0000000000E+00   0.0000000000E+00   0.0000000000E+00   0.0000000000E+00   0.0000000000E+00   0.0000000000E+00   0.1025000002E+02   0.4426685135E-13   0.4373312642E-13   0.6098139230E-16  -0.2202263912E-16   0.3462737411E-16   0.8387741426E-01  -0.4191820713E-01  -0.4191820713E-01   0.1569249258E-17  -0.3669002954E-16  -0.3225353022E-16   0.1025000002E+02
   0.1083877414E+01   0.0000000000E+00  -0.8186972935E-17  -0.2250000000E-02   0.0000000000E+00   0.2682596243E-14   0.8612741413E-01   0.0000000000E+00  -0.2690783216E-14   0.1025000002E+02  -0.5340114721E-13  -0.5282134082E-13  -0.5836763714E-16   0.7557546587E-16  -0.3399190229E-15   0.8387741426E-01  -0.4191820713E-01  -0.4191820713E-01  -0.4549048114E-16   0.4411232367E-17  -0.4663870252E-16   0.1025000002E+02
   0.1083877414E+01   0.9580817929E+00  -0.2859800164E-16  -0.2250000000E-02   0.1122750000E-02   0.1918588540E-14   0.8612741413E-01  -0.4304095707E-01  -0.1947186541E-14   0.1025000001E+02   0.9012026254E-14   0.8771122101E-14  -0.6355051773E-15   0.1668671751E-14   0.6910441954E-15   0.8387741425E-01  -0.4191820713E-01  -0.4191820713E-01  -0.3523599348E-16   0.2722516194E-16  -0.9529740326E-17   0.1025000001E+02
   0.0000000000E+00   0.9580817929E+00  -0.2442017217E-16   0.0000000000E+00   0.1122750000E-02   0.7201100976E-15   0.0000000000E+00  -0.4304095707E-01  -0.7445302698E-15   0.1025000001E+02   0.4185092208E-13   0.4239368594E-13  -0.7973729988E-15  -0.5445900081E-15   0.7580330495E-16   0.8387741425E-01  -0.4191820713E-01  -0.4191820713E-01  -0.9542312902E-17  -0.2164960990E-16  -0.6746187846E-16   0.1025000001E+02
   0.0000000000E+00   0.0000000000E+00   0.9580817929E+00   0.0000000000E+00   0.0000000000E+00   0.1122750000E-02   0.0000000000E+00   0.0000000000E+00  -0.4304095707E-01   0.1025000001E+02   0.7282947959E-13   0.7513557572E-13  -0.8872346942E-16  -0.4941273056E-16  -0.1048227784E-15   0.8387741425E-01  -0.4191820713E-01  -0.4191820713E-01   0.4740612667E-17  -0.2026699831E-16  -0.3986634695E-16   0.1025000001E+02
   0.1083877414E+01   0.0000000000E+00   0.9580817929E+00  -0.2250000000E-02   0.0000000000E+00   0.1122750000E-02   0.8612741413E-01   0.0000000000E+00  -0.4304095707E-01   0.1025000001E+02   0.6164868170E-13   0.6249622307E-13   0.4034401333E-15   0.4365151289E-15  -0.3561291438E-15   0.8387741425E-01  -0.4191820713E-01  -0.4191820713E-01  -0.7596618928E-17   0.6869606920E-17  -0.1935903404E-18   0.1025000001E+02
   0.1083877414E+01   0.9580817929E+00   0.9580817929E+00  -0.2250000000E-02   0.1122750000E-02   0.1122750000E-02   0.8612741413E-01  -0.4304095707E-01  -0.4304095707E-01   0.1025000001E+02  -0.3975921237E-13  -0.3833478237E-13   0.7827551526E-15   0.1258125332E-15  -0.6939302517E-17   0.8387741424E-01  -0.4191820712E-01  -0.4191820712E-01   0.2393054777E-16  -0.6765088132E-17   0.2006269237E-16   0.1025000001E+02
   0.0000000000E+00   0.9580817929E+00   0.9580817929E+00   0.0000000000E+00   0.1122750000E-02   0.1122750000E-02   0.0000000000E+00  -0.4304095707E-01  -0.4304095707E-01   0.1025000001E+02  -0.6088653181E-13  -0.6366247978E-13  -0.1600459138E-15  -0.6155541055E-15  -0.1120921770E-15   0.8387741424E-01  -0.4191820712E-01  -0.4191820712E-01  -0.2257791152E-16   0.6464633089E-17  -0.1774340760E-16   0.1025000001E+02
   0.2167754828E+01   0.0000000000E+00   0.1669189377E-16  -0.4500000000E-02   0.0000000000E+00   0.5693667896E-14   0.1722548283E+00   0.0000000000E+00  -0.5676976003E-14   0.1025000002E+02  -0.7532662065E-13  -0.7386699799E-13  -0.7251911652E-15   0.1679731015E-14  -0.1583525623E-14   0.8387741426E-01  -0.4191820713E-01  -0.4191820713E-01  -0.1488865981E-15   0.3616613486E-16  -0.2945497504E-16   0.1025000002E+02
   0.2167754828E+01   0.9580817929E+00  -0.4532165084E-18  -0.4500000000E-02   0.1122750000E-02   0.5068527681E-14   0.1722548283E+00  -0.4304095707E-01  -0.5068980897E-14   0.1025000001E+02   0.5067904128E-13   0.5221595242E-13  -0.1349134110E-14  -0.4765371903E-14   0.5890669227E-15   0.8387741425E-01  -0.4191820712E-01  -0.4191820712E-01  -0.1126086791E-15   0.5083450250E-16   0.4455832045E-16   0.1025000001E+02
   0.2167754828E+01   0.0000000000E+00   0.9580817929E+00  -0.4500000000E-02   0.0000000000E+00   0.1122750000E-02   0.1722548283E+00   0.0000000000E+00  -0.4304095707E-01   0.1025000001E+02   0.4903455105E-13   0.4432368380E-13  -0.1584637541E-14  -0.2200635401E-14  -0.5679922760E-15   0.8387741425E-01  -0.4191820712E-01  -0.4191820712E-01   0.2092378608E-16  -0.6297918220E-16  -0.2757560889E-16   0.1025000001E+02
   0.2167754828E+01   0.9580817929E+00   0.9580817929E+00  -0.4500000000E-02   0.1122750000E-02   0.1122750000E-02   0.1722548283E+00  -0.4304095707E-01  -0.4304095707E-01   0.1025000001E+02  -0.2841402280E-14  -0.5443913930E-14  -0.7312970044E-15   0.1446722668E-14   0.1627998970E-14   0.8387741424E-01  -0.4191820712E-01  -0.4191820712E-01  -0.1016995202E-16   0.7864535160E-16  -0.1227572962E-16   0.1025000001E+02
     1     2     3     4     5     6     7     8
     2     9    10     3     6    11    12     7
 VARIABLES = X,Y,Z,DU1,DU2,DU3,U1,U2,U3,S11,S22,S33,S12,S13,S23,E11,E22,E33,E12,E13,E23,SMISES
 ZONE, T="0.3150D+01" F=FEPOINT, I=   12 J=    2 ET=BRICK
   0.0000000000E+00   0.0000000000E+00   0.0000000000E+00   0.0000000000E+00   0.0000000000E+00   0.0000000000E+00   0.0000000000E+00   0.0000000000E+00   0.0000000000E+00   0.9125000014E+01   0.7573981488E-13   0.7339162291E-13   0.4562775673E-16  -0.4521031796E-15   0.1025058339E-14   0.8162741426E-01  -0.4079545713E-01  -0.4079545713E-01   0.5671131728E-17  -0.3982939076E-16  -0.3298688817E-16   0.9125000014E+01
   0.1081627414E+01   0.0000000000E+00  -0.1256391339E-16  -0.2250000000E-02   0.0000000000E+00  -0.4376940450E-17   0.8387741413E-01   0.0000000000E+00  -0.8186972935E-17   0.9125000014E+01  -0.3290928081E-13  -0.3416027436E-13   0.2493777566E-15  -0.3636533588E-16   0.6453402593E-15   0.8162741426E-01  -0.4079545713E-01  -0.4079545713E-01  -0.3272590794E-16  -0.1323024713E-16  -0.2145294519E-16   0.9125000014E+01
   0.1081627414E+01   0.9592045429E+00  -0.2715424671E-16  -0.2250000000E-02   0.1122750000E-02   0.1443754937E-17   0.8387741413E-01  -0.4191820707E-01  -0.2859800164E-16   0.9125000013E+01   0.2246734776E-13   0.2034411798E-13  -0.4977059898E-15   0.1815096439E-14   0.8410606061E-16   0.8162741425E-01  -0.4079545712E-01  -0.4079545712E-01  -0.3818577671E-16   0.5306840731E-16  -0.3517854476E-16   0.9125000013E+01
   0.0000000000E+00   0.9592045429E+00  -0.1849541143E-16   0.0000000000E+00   0.1122750000E-02   0.5924760744E-17   0.0000000000E+00  -0.4191820707E-01  -0.2442017217E-16   0.9125000013E+01  -0.2930284694E-13  -0.3170256479E-13  -0.6545556795E-15  -0.8910204428E-15  -0.3638828650E-15   0.8162741425E-01  -0.4079545713E-01  -0.4079545713E-01  -0.1502350492E-16  -0.3246122447E-16  -0.2768976960E-16   0.9125000013E+01
   0.0000000000E+00   0.0000000000E+00   0.9592045429E+00   0.0000000000E+00   0.0000000000E+00   0.1122750000E-02   0.0000000000E+00   0.0000000000E+00  -0.4191820707E-01   0.9125000013E+01  -0.6407877905E-13  -0.6060655799E-13  -0.5137836319E-16  -0.5788647673E-15   0.4224830633E-15   0.8162741425E-01  -0.4079545713E-01  -0.4079545713E-01   0.3646219834E-18  -0.4728749051E-17   0.5183539408E-17   0.9125000013E+01
   0.1081627414E+01   0.0000000000E+00   0.9592045429E+00  -0.2250000000E-02   0.0000000000E+00   0.1122750000E-02   0.8387741413E-01   0.0000000000E+00  -0.4191820707E-01   0.9125000013E+01  -0.2951598767E-13  -0.2723020995E-13   0.1046999930E-14   0.3808926622E-15   0.2925488878E-15   0.8162741425E-01  -0.4079545712E-01  -0.4079545712E-01   0.1430393540E-16  -0.2983573691E-17   0.2123508646E-17   0.9125000013E+01
   0.1081627414E+01   0.9592045429E+00   0.9592045429E+00  -0.2250000000E-02   0.1122750000E-02   0.1122750000E-02   0.8387741413E-01  -0.4191820707E-01  -0.4191820707E-01   0.9125000012E+01   0.2457620005E-13   0.2647738518E-13   0.1389789142E-14   0.3420175437E-15  -0.8777438897E-15   0.8162741424E-01  -0.4079545712E-01  -0.4079545712E-01   0.1635074878E-16   0.2322654310E-16  -0.5469131299E-17   0.9125000012E+01
   0.0000000000E+00   0.9592045429E+00   0.9592045429E+00   0.0000000000E+00   0.1122750000E-02   0.1122750000E-02   0.0000000000E+00  -0.4191820707E-01  -0.4191820707E-01   0.9125000012E+01  -0.5595045039E-13  -0.5823331036E-13  -0.1334545092E-15  -0.9611649584E-15  -0.1081228740E-14   0.8162741424E-01  -0.4079545712E-01  -0.4079545712E-01   0.1129823447E-17  -0.1641049747E-16  -0.1975834262E-16   0.9125000012E+01
   0.2163254828E+01   0.0000000000E+00  -0.5824351453E-18  -0.4500000000E-02   0.0000000000E+00  -0.1727432892E-16   0.1677548283E+00   0.0000000000E+00   0.1669189377E-16   0.9125000014E+01  -0.1288890229E-12  -0.1281227556E-12  -0.2846001938E-15   0.1213514987E-14  -0.7577427950E-15   0.8162741426E-01  -0.4079545713E-01  -0.4079545713E-01  -0.1443879029E-15   0.8225640305E-16  -0.2470455116E-16   0.9125000014E+01
   0.2163254828E+01   0.9592045429E+00  -0.1264736764E-16  -0.4500000000E-02   0.1122750000E-02  -0.1219415113E-16   0.1677548283E+00  -0.4191820707E-01  -0.4532165084E-18   0.9125000013E+01  -0.2357564758E-13  -0.2352703961E-13  -0.1342699183E-14  -0.4035937646E-14   0.1617943551E-16   0.8162741425E-01  -0.4079545712E-01  -0.4079545712E-01  -0.1857063160E-15   0.6492047301E-16   0.3677872246E-16   0.9125000013E+01
   0.2163254828E+01   0.0000000000E+00   0.9592045429E+00  -0.4500000000E-02   0.0000000000E+00   0.1122750000E-02   0.1677548283E+00   0.0000000000E+00  -0.4191820707E-01   0.9125000013E+01   0.4978622887E-13   0.4745184320E-13  -0.2120418906E-15  -0.1629511876E-14  -0.1029070113E-15   0.8162741425E-01  -0.4079545712E-01  -0.4079545712E-01   0.3626604688E-16  -0.9182951578E-16  -0.3115763894E-16   0.9125000013E+01
   0.2163254828E+01   0.9592045429E+00   0.9592045429E+00  -0.4500000000E-02   0.1122750000E-02   0.1122750000E-02   0.1677548283E+00  -0.4191820707E-01  -0.4191820707E-01   0.9125000012E+01   0.5782016968E-13   0.5683185770E-13   0.1319924091E-15   0.2523669134E-14   0.5067872659E-15   0.8162741424E-01  -0.4079545712E-01  -0.4079545712E-01   0.1048366207E-15   0.4758990909E-16   0.6057730381E-16   0.9125000012E+01
     1     2     3     4     5     6     7     8
     2     9    10     3     6    11    12     7
 VARIABLES = X,Y,Z,DU1,DU2,DU3,U1,U2,U3,S11,S22,S33,S12,S13,S23,E11,E22,E33,E12,E13,E23,SMISES
 ZONE, T="0.3200D+01" F=FEPOINT, I=   12 J=    2 ET=BRICK
   0.0000000000E+00   0.0000000000E+00   0.0000000000E+00   0.0000000000E+00   0.0000000000E+00   0.0000000000E+00   0.0000000000E+00   0.0000000000E+00   0.0000000000E+00   0.8000000013E+01   0.1080987539E-13   0.1044015714E-13   0.3296153204E-16  -0.1013596294E-15   0.1818442385E-15   0.7937741426E-01  -0.3967270713E-01  -0.3967270713E-01  -0.4725306870E-17  -0.2274001862E-16  -0.5310542949E-16   0.8000000013E+01
   0.1079377414E+01   0.0000000000E+00  -0.7870246063E-17  -0.2250000000E-02   0.0000000000E+00   0.4693667322E-17   0.8162741413E-01   0.0000000000E+00  -0.1256391339E-16   0.8000000012E+01   0.4677852376E-13   0.4776178234E-13   0.5161434993E-15   0.2425935410E-15  -0.1052654047E-15   0.7937741425E-01  -0.3967270713E-01  -0.3967270713E-01  -0.1821015801E-16  -0.1381936539E-16  -0.4562514959E-16   0.8000000012E+01
   0.1079377414E+01   0.9603272929E+00  -0.2692406113E-16  -0.2250000000E-02   0.1122750000E-02   0.2301855757E-18   0.8162741413E-01  -0.4079545707E-01  -0.2715424671E-16   0.8000000011E+01  -0.5704466976E-13  -0.5812514424E-13  -0.2673674662E-15   0.1814395105E-14   0.1038227620E-14   0.7937741425E-01  -0.3967270712E-01  -0.3967270712E-01  -0.2402225957E-16   0.8337407079E-17   0.1206433601E-16   0.8000000011E+01
   0.0000000000E+00   0.9603272929E+00  -0.2337762904E-16   0.0000000000E+00   0.1122750000E-02  -0.4882217615E-17   0.0000000000E+00  -0.4079545707E-01  -0.1849541143E-16   0.8000000012E+01   0.2176534632E-13   0.2136296188E-13  -0.7107161290E-15  -0.3975724451E-15   0.4331989396E-15   0.7937741425E-01  -0.3967270712E-01  -0.3967270712E-01  -0.1823991350E-16  -0.2242912047E-16  -0.5950343954E-16   0.8000000012E+01
   0.0000000000E+00   0.0000000000E+00   0.9603272929E+00   0.0000000000E+00   0.0000000000E+00   0.1122750000E-02   0.0000000000E+00   0.0000000000E+00  -0.4079545707E-01   0.8000000012E+01  -0.4132569041E-13  -0.3928480252E-13  -0.6828749793E-16  -0.2773908671E-15  -0.4162529031E-15   0.7937741425E-01  -0.3967270712E-01  -0.3967270712E-01   0.7539246218E-17  -0.3571968508E-16  -0.4500509191E-16   0.8000000012E+01
   0.1079377414E+01   0.0000000000E+00   0.9603272929E+00  -0.2250000000E-02   0.0000000000E+00   0.1122750000E-02   0.8162741413E-01   0.0000000000E+00  -0.4079545707E-01   0.8000000011E+01   0.1632496898E-13   0.1776825876E-13   0.1047615727E-14   0.5702873932E-15  -0.5273221766E-15   0.7937741425E-01  -0.3967270712E-01  -0.3967270712E-01  -0.2749404849E-16   0.4453165955E-16   0.4161687390E-18   0.8000000011E+01
   0.1079377414E+01   0.9603272929E+00   0.9603272929E+00  -0.2250000000E-02   0.1122750000E-02   0.1122750000E-02   0.8162741413E-01  -0.4079545707E-01  -0.4079545707E-01   0.8000000010E+01   0.1979713033E-13   0.1966433069E-13   0.1359076899E-14   0.3016592395E-15  -0.9385928192E-16   0.7937741424E-01  -0.3967270712E-01  -0.3967270712E-01   0.1185274454E-16  -0.5089200690E-18  -0.4500152826E-17   0.8000000010E+01
   0.0000000000E+00   0.9603272929E+00   0.9603272929E+00   0.0000000000E+00   0.1122750000E-02   0.1122750000E-02   0.0000000000E+00  -0.4079545707E-01  -0.4079545707E-01   0.8000000011E+01   0.2851087544E-13   0.2639163126E-13   0.5667071583E-16  -0.7843245171E-15  -0.2742916573E-15   0.7937741424E-01  -0.3967270712E-01  -0.3967270712E-01   0.3854474009E-17   0.3191356121E-16   0.3919460148E-16   0.8000000011E+01
   0.2158754828E+01   0.0000000000E+00   0.1854247217E-16  -0.4500000000E-02   0.0000000000E+00   0.1912490731E-16   0.1632548283E+00   0.0000000000E+00  -0.5824351453E-18   0.8000000012E+01   0.1387778422E-12   0.1411895164E-12  -0.4709692270E-15   0.5570463131E-15  -0.1536513269E-14   0.7937741425E-01  -0.3967270713E-01  -0.3967270713E-01  -0.2029302386E-15  -0.1166063897E-15  -0.3375857415E-16   0.8000000012E+01
   0.2158754828E+01   0.9603272929E+00   0.1779151419E-17  -0.4500000000E-02   0.1122750000E-02   0.1442651906E-16   0.1632548283E+00  -0.4079545707E-01  -0.1264736764E-16   0.8000000011E+01  -0.8372516489E-13  -0.8043620107E-13  -0.1494568186E-14  -0.4651680731E-14   0.8249270197E-15   0.7937741424E-01  -0.3967270712E-01  -0.3967270712E-01  -0.2124720356E-15   0.4229527464E-15   0.5282266480E-16   0.8000000011E+01
   0.2158754828E+01   0.0000000000E+00   0.9603272929E+00  -0.4500000000E-02   0.0000000000E+00   0.1122750000E-02   0.1632548283E+00   0.0000000000E+00  -0.4079545707E-01   0.8000000011E+01  -0.4602567164E-15  -0.3892908732E-14  -0.1523603647E-15  -0.2193487348E-14  -0.1016458355E-14   0.7937741424E-01  -0.3967270712E-01  -0.3967270712E-01   0.5469550325E-16  -0.1875885058E-15  -0.3587548050E-16   0.8000000011E+01
   0.2158754828E+01   0.9603272929E+00   0.9603272929E+00  -0.4500000000E-02   0.1122750000E-02   0.1122750000E-02   0.1632548283E+00  -0.4079545707E-01  -0.4079545707E-01   0.8000000010E+01  -0.4879321129E-13  -0.5086092992E-13  -0.4357525942E-16   0.2085573506E-14   0.1255305573E-14   0.7937741423E-01  -0.3967270712E-01  -0.3967270712E-01   0.1043293590E-16   0.8877606164E-16   0.3665255152E-16   0.8000000010E+01
     1     2     3     4     5     6     7     8
     2     9    10     3     6    11    12     7
 VARIABLES = X,Y,Z,DU1,DU2,DU3,U1,U2,U3,S11,S22,S33,S12,S13,S23,E11,E22,E33,E12,E13,E23,SMISES
 ZONE, T="0.3250D+01" F=FEPOINT, I=   12 J=    2 ET=BRICK
   0.0000000000E+00   0.0000000000E+00   0.0000000000E+00   0.0000000000E+00   0.0000000000E+00   0.0000000000E+00   0.0000000000E+00   0.0000000000E+00   0.0000000000E+00   0.6875000011E+01  -0.4998370437E-13  -0.5283295540E-13   0.4390098128E-16  -0.5700488644E-15   0.6706515930E-15   0.7712741425E-01  -0.3854995713E-01  -0.3854995713E-01  -0.6413483217E-17  -0.2516517658E-16  -0.3982424289E-16   0.6875000011E+01
   0.1077127414E+01   0.0000000000E+00  -0.1311351545E-16  -0.2250000000E-02   0.0000000000E+00  -0.5243269386E-17   0.7937741413E-01   0.0000000000E+00  -0.7870246063E-17   0.6875000011E+01  -0.8110672423E-14  -0.9231783959E-14   0.2651161200E-15   0.4434755299E-15   0.4830936774E-15   0.7712741425E-01  -0.3854995713E-01  -0.3854995713E-01  -0.8872179348E-17   0.2984779233E-16  -0.2251731369E-16   0.6875000011E+01
   0.1077127414E+01   0.9614500429E+00  -0.2869963778E-16  -0.2250000000E-02   0.1122750000E-02  -0.1775576647E-17   0.7937741413E-01  -0.3967270707E-01  -0.2692406113E-16   0.6875000010E+01  -0.1754600291E-13  -0.1924400316E-13  -0.3702892735E-15   0.1831491398E-14  -0.1411186575E-15   0.7712741424E-01  -0.3854995712E-01  -0.3854995712E-01  -0.1529069490E-16   0.7139328381E-16  -0.5292109692E-16   0.6875000010E+01
   0.0000000000E+00   0.9614500429E+00  -0.2025101344E-16   0.0000000000E+00   0.1122750000E-02   0.3126615605E-17   0.0000000000E+00  -0.3967270707E-01  -0.2337762904E-16   0.6875000010E+01   0.1867981947E-13   0.1745128006E-13  -0.7787471549E-15  -0.9289861666E-15  -0.4858435183E-15   0.7712741424E-01  -0.3854995712E-01  -0.3854995712E-01  -0.2088246707E-16  -0.5908233576E-16  -0.4276934043E-16   0.6875000010E+01
   0.0000000000E+00   0.0000000000E+00   0.9614500429E+00   0.0000000000E+00   0.0000000000E+00   0.1122750000E-02   0.0000000000E+00   0.0000000000E+00  -0.3967270707E-01   0.6875000010E+01   0.6249069970E-13   0.6601298768E-13  -0.7287614912E-16  -0.5621747132E-15   0.5585821642E-15   0.7712741424E-01  -0.3854995712E-01  -0.3854995712E-01   0.1071726926E-16  -0.2852671982E-16  -0.3823808068E-16   0.6875000010E+01
   0.1077127414E+01   0.0000000000E+00   0.9614500429E+00  -0.2250000000E-02   0.0000000000E+00   0.1122750000E-02   0.7937741413E-01   0.0000000000E+00  -0.3967270707E-01   0.6875000010E+01   0.1957855188E-15   0.3329104577E-14   0.4105102484E-15   0.5556691008E-15   0.4287796075E-15   0.7712741424E-01  -0.3854995712E-01  -0.3854995712E-01  -0.3969951594E-16   0.1524040243E-16   0.1077818163E-16   0.6875000010E+01
   0.1077127414E+01   0.9614500429E+00   0.9614500429E+00  -0.2250000000E-02   0.1122750000E-02   0.1122750000E-02   0.7937741413E-01  -0.3967270707E-01  -0.3967270707E-01   0.6875000009E+01  -0.8947896545E-14  -0.6813778104E-14   0.7720785076E-15   0.1943485950E-15  -0.8287641263E-15   0.7712741423E-01  -0.3854995712E-01  -0.3854995712E-01   0.5926012321E-17   0.9253893113E-17  -0.2729752005E-16   0.6875000009E+01
   0.0000000000E+00   0.9614500429E+00   0.9614500429E+00   0.0000000000E+00   0.1122750000E-02   0.1122750000E-02   0.0000000000E+00  -0.3967270707E-01  -0.3967270707E-01   0.6875000009E+01  -0.8062612381E-13  -0.8073170160E-13  -0.2979666619E-15  -0.1168337835E-14  -0.8591121716E-15   0.7712741424E-01  -0.3854995712E-01  -0.3854995712E-01  -0.1113225199E-16   0.5647023954E-17  -0.3915013913E-16   0.6875000009E+01
   0.2154254828E+01   0.0000000000E+00  -0.1793728203E-17  -0.4500000000E-02   0.0000000000E+00  -0.2033620037E-16   0.1587548283E+00   0.0000000000E+00   0.1854247217E-16   0.6875000010E+01   0.5477886870E-13   0.5535828404E-13  -0.4855080595E-15   0.1160060178E-14  -0.6967562851E-15   0.7712741425E-01  -0.3854995712E-01  -0.3854995712E-01  -0.1934272905E-15  -0.5826424266E-16  -0.1846110661E-16   0.6875000010E+01
   0.2154254828E+01   0.9614500429E+00  -0.1343208993E-16  -0.4500000000E-02   0.1122750000E-02  -0.1521124134E-16   0.1587548283E+00  -0.3967270707E-01   0.1779151419E-17   0.6875000010E+01   0.1978641057E-13   0.2074351535E-13  -0.1212982003E-14  -0.4366789447E-14   0.7698546385E-16   0.7712741424E-01  -0.3854995712E-01  -0.3854995712E-01  -0.2079851233E-15   0.1667093374E-15   0.6317344369E-17   0.6875000010E+01
   0.2154254828E+01   0.0000000000E+00   0.9614500429E+00  -0.4500000000E-02   0.0000000000E+00   0.1122750000E-02   0.1587548283E+00   0.0000000000E+00  -0.3967270707E-01   0.6875000010E+01  -0.6181560156E-13  -0.6527255756E-13  -0.9839102575E-15  -0.1179513347E-14   0.6565317578E-16   0.7712741424E-01  -0.3854995712E-01  -0.3854995712E-01   0.2791343521E-16   0.7897963103E-16  -0.3301168805E-16   0.6875000010E+01
   0.2154254828E+01   0.9614500429E+00   0.9614500429E+00  -0.4500000000E-02   0.1122750000E-02   0.1122750000E-02   0.1587548283E+00  -0.3967270707E-01  -0.3967270707E-01   0.6875000009E+01   0.1317084674E-12   0.1307255998E-12  -0.3864837241E-15   0.1579070090E-14   0.7142693093E-15   0.7712741423E-01  -0.3854995712E-01  -0.3854995712E-01   0.2616443291E-16   0.1534036622E-15   0.8509166919E-16   0.6875000009E+01
     1     2     3     4     5     6     7     8
     2     9    10     3     6    11    12     7
 VARIABLES = X,Y,Z,DU1,DU2,DU3,U1,U2,U3,S11,S22,S33,S12,S13,S23,E11,E22,E33,E12,E13,E23,SMISES
 ZONE, T="0.3300D+01" F=FEPOINT, I=   12 J=    2 ET=BRICK
   0.0000000000E+00   0.0000000000E+00   0.0000000000E+00   0.0000000000E+00   0.0000000000E+00   0.0000000000E+00   0.0000000000E+00   0.0000000000E+00   0.0000000000E+00   0.5750000009E+01  -0.4437055497E-14  -0.7564591671E-14   0.7648940650E-16  -0.5035910663E-15   0.7956441998E-15   0.7487741425E-01  -0.3742720712E-01  -0.3742720712E-01   0.7460459274E-17  -0.1431698254E-16  -0.3299076925E-16   0.5750000009E+01
   0.1074877414E+01   0.0000000000E+00  -0.1283009516E-16  -0.2250000000E-02   0.0000000000E+00   0.2834202851E-18   0.7712741413E-01   0.0000000000E+00  -0.1311351545E-16   0.5750000009E+01  -0.3146054458E-13  -0.3286465619E-13   0.1077946520E-15   0.4553467747E-15   0.3950377476E-15   0.7487741425E-01  -0.3742720712E-01  -0.3742720712E-01  -0.4487373288E-16  -0.2366353649E-16  -0.3220394389E-16   0.5750000009E+01
   0.1074877414E+01   0.9625727929E+00  -0.2893303216E-16  -0.2250000000E-02   0.1122750000E-02  -0.2333943785E-18   0.7712741413E-01  -0.3854995707E-01  -0.2869963778E-16   0.5750000008E+01   0.1146299695E-12   0.1125528211E-12  -0.5349553990E-15   0.2051443279E-14  -0.3122218274E-15   0.7487741424E-01  -0.3742720712E-01  -0.3742720712E-01  -0.5068046361E-16   0.2691785182E-16  -0.3431628287E-16   0.5750000008E+01
   0.0000000000E+00   0.9625727929E+00  -0.1965340841E-16   0.0000000000E+00   0.1122750000E-02   0.5976050303E-18   0.0000000000E+00  -0.3854995707E-01  -0.2025101344E-16   0.5750000008E+01  -0.6241254630E-13  -0.6391591929E-13  -0.6643151219E-15  -0.1099634810E-14  -0.5157802862E-15   0.7487741424E-01  -0.3742720712E-01  -0.3742720712E-01  -0.1037218280E-16  -0.3333300655E-17  -0.7290268067E-16   0.5750000008E+01
   0.0000000000E+00   0.0000000000E+00   0.9625727929E+00   0.0000000000E+00   0.0000000000E+00   0.1122750000E-02   0.0000000000E+00   0.0000000000E+00  -0.3854995707E-01   0.5750000008E+01  -0.1050880053E-13  -0.6771175672E-14  -0.9528506030E-16  -0.5923709379E-15   0.6434411377E-15   0.7487741424E-01  -0.3742720712E-01  -0.3742720712E-01  -0.4667520957E-17  -0.8093882755E-17  -0.1132742585E-16   0.5750000008E+01
   0.1074877414E+01   0.0000000000E+00   0.9625727929E+00  -0.2250000000E-02   0.0000000000E+00   0.1122750000E-02   0.7712741413E-01   0.0000000000E+00  -0.3854995707E-01   0.5750000008E+01  -0.3882623140E-13  -0.3614244582E-13   0.6856377522E-15   0.5489624011E-15   0.4907662835E-15   0.7487741424E-01  -0.3742720712E-01  -0.3742720712E-01   0.1163967962E-16   0.1039419883E-16  -0.1324925499E-16   0.5750000008E+01
   0.1074877414E+01   0.9625727929E+00   0.9625727929E+00  -0.2250000000E-02   0.1122750000E-02   0.1122750000E-02   0.7712741413E-01  -0.3854995707E-01  -0.3854995707E-01   0.5750000008E+01  -0.1478842335E-14   0.8976391451E-15   0.1031867817E-14   0.3907010645E-15  -0.9032648409E-15   0.7487741423E-01  -0.3742720711E-01  -0.3742720711E-01   0.3158544548E-16   0.6150425273E-16   0.2099694365E-16   0.5750000008E+01
   0.0000000000E+00   0.9625727929E+00   0.9625727929E+00   0.0000000000E+00   0.1122750000E-02   0.1122750000E-02   0.0000000000E+00  -0.3854995707E-01  -0.3854995707E-01   0.5750000008E+01   0.9956981634E-13   0.9950016061E-13  -0.2248561257E-15  -0.1283862915E-14  -0.8619634581E-15   0.7487741423E-01  -0.3742720712E-01  -0.3742720712E-01  -0.7605946297E-17  -0.5514535299E-18  -0.3760074279E-16   0.5750000008E+01
   0.2149754828E+01   0.0000000000E+00  -0.2304533611E-17  -0.4500000000E-02   0.0000000000E+00  -0.5108054083E-18   0.1542548283E+00   0.0000000000E+00  -0.1793728203E-17   0.5750000009E+01  -0.1006299410E-12  -0.9947981061E-13  -0.2398062601E-15   0.1269346483E-14  -0.6580601779E-15   0.7487741425E-01  -0.3742720712E-01  -0.3742720712E-01  -0.1548085855E-15   0.1717684212E-16  -0.3368811138E-16   0.5750000009E+01
   0.2149754828E+01   0.9625727929E+00  -0.1360302889E-16  -0.4500000000E-02   0.1122750000E-02  -0.1709389692E-18   0.1542548283E+00  -0.3854995707E-01  -0.1343208993E-16   0.5750000008E+01   0.8533102525E-13   0.8624078538E-13  -0.1243129996E-14  -0.4536454931E-14   0.3728637758E-15   0.7487741424E-01  -0.3742720712E-01  -0.3742720712E-01  -0.1574945014E-15   0.4699804511E-15   0.5190729750E-16   0.5750000008E+01
   0.2149754828E+01   0.0000000000E+00   0.9625727929E+00  -0.4500000000E-02   0.0000000000E+00   0.1122750000E-02   0.1542548283E+00   0.0000000000E+00  -0.3854995707E-01   0.5750000008E+01   0.8689321793E-13   0.8342410992E-13  -0.1326067567E-14  -0.1075577654E-14  -0.1338084223E-17   0.7487741424E-01  -0.3742720712E-01  -0.3742720712E-01  -0.9912770780E-18   0.1048863723E-15  -0.1542828718E-16   0.5750000008E+01
   0.2149754828E+01   0.9625727929E+00   0.9625727929E+00  -0.4500000000E-02   0.1122750000E-02   0.1122750000E-02   0.1542548283E+00  -0.3854995707E-01  -0.3854995707E-01   0.5750000007E+01  -0.9537951331E-13  -0.9638741439E-13  -0.6348353024E-15   0.1324491972E-14   0.8830414178E-15   0.7487741423E-01  -0.3742720711E-01  -0.3742720711E-01   0.7391859446E-16   0.5600255307E-16   0.4410663633E-16   0.5750000007E+01
     1     2     3     4     5     6     7     8
     2     9    10     3     6    11    12     7
 VARIABLES = X,Y,Z,DU1,DU2,DU3,U1,U2,U3,S11,S22,S33,S12,S13,S23,E11,E22,E33,E12,E13,E23,SMISES
 ZONE, T="0.3350D+01" F=FEPOINT, I=   12 J=    2 ET=BRICK
   0.0000000000E+00   0.0000000000E+00   0.0000000000E+00   0.0000000000E+00   0.0000000000E+00   0.0000000000E+00   0.0000000000E+00   0.0000000000E+00   0.0000000000E+00   0.4625000007E+01  -0.2496238192E-13  -0.2739311115E-13   0.5115089824E-16  -0.4707952907E-15   0.6776556201E-15   0.7262741425E-01  -0.3630445712E-01  -0.3630445712E-01   0.3063869856E-17  -0.2940615673E-16  -0.4290155023E-16   0.4625000007E+01
   0.1072627414E+01   0.0000000000E+00  -0.1160702460E-16  -0.2250000000E-02   0.0000000000E+00   0.1223070566E-17   0.7487741413E-01   0.0000000000E+00  -0.1283009516E-16   0.4625000007E+01  -0.2229010757E-13  -0.2279913769E-13   0.5667035963E-15   0.6120417388E-15   0.4200955748E-15   0.7262741424E-01  -0.3630445712E-01  -0.3630445712E-01  -0.2227385726E-16   0.7630313449E-17  -0.2516337301E-16   0.4625000007E+01
   0.1072627414E+01   0.9636955429E+00  -0.2756437748E-16  -0.2250000000E-02   0.1122750000E-02   0.1368654683E-17   0.7487741413E-01  -0.3742720707E-01  -0.2893303216E-16   0.4625000007E+01  -0.4104909935E-13  -0.4280805510E-13  -0.1861863633E-15   0.1753122552E-14   0.4325326519E-15   0.7262741424E-01  -0.3630445712E-01  -0.3630445712E-01  -0.1184608469E-16   0.7250768721E-16  -0.3179009324E-16   0.4625000007E+01
   0.0000000000E+00   0.9636955429E+00  -0.2032942697E-16   0.0000000000E+00   0.1122750000E-02  -0.6760185647E-18   0.0000000000E+00  -0.3742720707E-01  -0.1965340841E-16   0.4625000007E+01   0.6055063858E-13   0.5892336190E-13  -0.9309572599E-15  -0.7764643796E-15  -0.3053250915E-15   0.7262741424E-01  -0.3630445712E-01  -0.3630445712E-01  -0.2411901587E-16  -0.3236057792E-16  -0.6570328396E-16   0.4625000007E+01
   0.0000000000E+00   0.0000000000E+00   0.9636955429E+00   0.0000000000E+00   0.0000000000E+00   0.1122750000E-02   0.0000000000E+00   0.0000000000E+00  -0.3742720707E-01   0.4625000007E+01  -0.4599650930E-13  -0.4212010658E-13  -0.8443882759E-16  -0.4050364644E-15   0.2446909543E-15   0.7262741424E-01  -0.3630445712E-01  -0.3630445712E-01   0.1210173893E-16  -0.2197429175E-16  -0.1773840040E-16   0.4625000007E+01
   0.1072627414E+01   0.0000000000E+00   0.9636955429E+00  -0.2250000000E-02   0.0000000000E+00   0.1122750000E-02   0.7487741413E-01   0.0000000000E+00  -0.3742720707E-01   0.4625000007E+01   0.3611764593E-13   0.3859426108E-13   0.7546515730E-15   0.6043957894E-15  -0.2756563826E-16   0.7262741424E-01  -0.3630445712E-01  -0.3630445712E-01  -0.2309410034E-16   0.3776882364E-16  -0.1746362616E-16   0.4625000007E+01
   0.1072627414E+01   0.9636955429E+00   0.9636955429E+00  -0.2250000000E-02   0.1122750000E-02   0.1122750000E-02   0.7487741413E-01  -0.3742720707E-01  -0.3742720707E-01   0.4625000006E+01   0.1628536926E-13   0.1730090283E-13   0.9520359129E-15   0.9908706866E-16  -0.7706825510E-15   0.7262741423E-01  -0.3630445711E-01  -0.3630445711E-01   0.5314851290E-17   0.2427230253E-16   0.2504044135E-16   0.4625000006E+01
   0.0000000000E+00   0.9636955429E+00   0.9636955429E+00   0.0000000000E+00   0.1122750000E-02   0.1122750000E-02   0.0000000000E+00  -0.3742720707E-01  -0.3742720707E-01   0.4625000006E+01  -0.8134789587E-14  -0.8809089678E-14   0.5176049495E-16  -0.1288606792E-14  -0.9344501597E-15   0.7262741423E-01  -0.3630445711E-01  -0.3630445711E-01   0.7776852495E-18   0.1308548108E-16  -0.3076883215E-16   0.4625000006E+01
   0.2145254828E+01   0.0000000000E+00   0.3179889063E-17  -0.4500000000E-02   0.0000000000E+00   0.5484422674E-17   0.1497548283E+00   0.0000000000E+00  -0.2304533611E-17   0.4625000007E+01   0.7887800395E-13   0.8160913407E-13   0.2418543381E-15   0.1076700198E-14  -0.7362673079E-15   0.7262741424E-01  -0.3630445712E-01  -0.3630445712E-01  -0.1739197572E-15   0.4906748323E-16  -0.3455521716E-16   0.4625000007E+01
   0.2145254828E+01   0.9636955429E+00  -0.8551597954E-17  -0.4500000000E-02   0.1122750000E-02   0.5051430940E-17   0.1497548283E+00  -0.3742720707E-01  -0.1360302889E-16   0.4625000006E+01  -0.4696570361E-13  -0.4596178805E-13  -0.7676022778E-15  -0.4714510982E-14   0.6893637031E-15   0.7262741423E-01  -0.3630445712E-01  -0.3630445712E-01  -0.1706340029E-15   0.2712045059E-15   0.4743709117E-16   0.4625000006E+01
   0.2145254828E+01   0.0000000000E+00   0.9636955429E+00  -0.4500000000E-02   0.0000000000E+00   0.1122750000E-02   0.1497548283E+00   0.0000000000E+00  -0.3742720707E-01   0.4625000006E+01   0.3139429666E-13   0.2803820374E-13  -0.7421491561E-15  -0.1314994312E-14  -0.4083612688E-15   0.7262741423E-01  -0.3630445712E-01  -0.3630445712E-01   0.2727982715E-16   0.1015685660E-15  -0.3175002680E-16   0.4625000006E+01
   0.2145254828E+01   0.9636955429E+00   0.9636955429E+00  -0.4500000000E-02   0.1122750000E-02   0.1122750000E-02   0.1497548283E+00  -0.3742720707E-01  -0.3742720707E-01   0.4625000006E+01  -0.2933046486E-13  -0.3063570624E-13  -0.4007240134E-15   0.1404654936E-14   0.8409508866E-15   0.7262741422E-01  -0.3630445711E-01  -0.3630445711E-01   0.6658424916E-16   0.1586612590E-15   0.3718550029E-16   0.4625000006E+01
     1     2     3     4     5     6     7     8
     2     9    10     3     6    11    12     7
 VARIABLES = X,Y,Z,DU1,DU2,DU3,U1,U2,U3,S11,S22,S33,S12,S13,S23,E11,E22,E33,E12,E13,E23,SMISES
 ZONE, T="0.3400D+01" F=FEPOINT, I=   12 J=    2 ET=BRICK
   0.0000000000E+00   0.0000000000E+00   0.0000000000E+00   0.0000000000E+00   0.0000000000E+00   0.0000000000E+00   0.0000000000E+00   0.0000000000E+00   0.0000000000E+00   0.3500000005E+01   0.9958095896E-14   0.7299148330E-14   0.9483877955E-16  -0.5535741945E-15   0.7331597475E-15   0.7037741424E-01  -0.3518170712E-01  -0.3518170712E-01  -0.3981476982E-17  -0.2583385570E-16  -0.3017147909E-16   0.3500000005E+01
   0.1070377414E+01   0.0000000000E+00  -0.1176936837E-16  -0.2250000000E-02   0.0000000000E+00  -0.1623437726E-18   0.7262741413E-01   0.0000000000E+00  -0.1160702460E-16   0.3500000005E+01  -0.4938111034E-13  -0.5006211822E-13   0.3444054175E-15   0.8990659892E-15   0.4069853284E-15   0.7037741424E-01  -0.3518170712E-01  -0.3518170712E-01  -0.2782862818E-16   0.6001954504E-17  -0.3675916253E-16   0.3500000005E+01
   0.1070377414E+01   0.9648182929E+00  -0.2779054466E-16  -0.2250000000E-02   0.1122750000E-02  -0.2261671833E-18   0.7262741413E-01  -0.3630445707E-01  -0.2756437748E-16   0.3500000005E+01   0.4420981916E-13   0.4249694470E-13  -0.4236466147E-15   0.1633807651E-14   0.2141593917E-15   0.7037741423E-01  -0.3518170712E-01  -0.3518170712E-01  -0.6574085305E-16   0.5154375075E-16  -0.1041096360E-16   0.3500000005E+01
   0.0000000000E+00   0.9648182929E+00  -0.2002085886E-16   0.0000000000E+00   0.1122750000E-02   0.3085681090E-18   0.0000000000E+00  -0.3630445707E-01  -0.2032942697E-16   0.3500000005E+01   0.3686136729E-13   0.3468568685E-13  -0.8453786853E-15  -0.8441967390E-15  -0.2581386459E-15   0.7037741423E-01  -0.3518170712E-01  -0.3518170712E-01   0.6652359979E-17  -0.2624786540E-16  -0.5326451738E-16   0.3500000005E+01
   0.0000000000E+00   0.0000000000E+00   0.9648182929E+00   0.0000000000E+00   0.0000000000E+00   0.1122750000E-02   0.0000000000E+00   0.0000000000E+00  -0.3630445707E-01   0.3500000005E+01   0.1728234168E-13   0.2103012580E-13  -0.1066873872E-15  -0.4207673590E-15   0.2868136384E-15   0.7037741423E-01  -0.3518170712E-01  -0.3518170712E-01   0.1016281296E-16  -0.2568666728E-16  -0.4595963548E-16   0.3500000005E+01
   0.1070377414E+01   0.0000000000E+00   0.9648182929E+00  -0.2250000000E-02   0.0000000000E+00   0.1122750000E-02   0.7262741413E-01   0.0000000000E+00  -0.3630445707E-01   0.3500000005E+01   0.2023676579E-13   0.2282984754E-13   0.5905795869E-15   0.6209350735E-15   0.2304742798E-16   0.7037741423E-01  -0.3518170712E-01  -0.3518170712E-01  -0.3079283041E-16   0.3587032687E-16  -0.1204826774E-16   0.3500000005E+01
   0.1070377414E+01   0.9648182929E+00   0.9648182929E+00  -0.2250000000E-02   0.1122750000E-02   0.1122750000E-02   0.7262741413E-01  -0.3630445707E-01  -0.3630445707E-01   0.3500000005E+01  -0.4944914944E-13  -0.4822100112E-13   0.8016762567E-15   0.2440942840E-15  -0.8736189473E-15   0.7037741422E-01  -0.3518170711E-01  -0.3518170711E-01   0.2508726082E-16   0.3682107141E-16  -0.1426137635E-16   0.3500000005E+01
   0.0000000000E+00   0.9648182929E+00   0.9648182929E+00   0.0000000000E+00   0.1122750000E-02   0.1122750000E-02   0.0000000000E+00  -0.3630445707E-01  -0.3630445707E-01   0.3500000005E+01  -0.8523360248E-13  -0.8529655058E-13  -0.7929073098E-16  -0.1419168689E-14  -0.9220330975E-15   0.7037741423E-01  -0.3518170711E-01  -0.3518170711E-01  -0.2014190124E-16   0.1314430127E-16  -0.1830723196E-16   0.3500000005E+01
   0.2140754828E+01   0.0000000000E+00   0.3010799209E-17  -0.4500000000E-02   0.0000000000E+00  -0.1690898537E-18   0.1452548283E+00   0.0000000000E+00   0.3179889063E-17   0.3500000005E+01  -0.1178943195E-12  -0.1154712228E-12   0.4650226240E-15   0.1270124646E-14  -0.8254675513E-15   0.7037741424E-01  -0.3518170712E-01  -0.3518170712E-01  -0.1826177179E-15  -0.4027459352E-16  -0.1694289123E-16   0.3500000005E+01
   0.2140754828E+01   0.9648182929E+00  -0.9062364512E-17  -0.4500000000E-02   0.1122750000E-02  -0.5107665581E-18   0.1452548283E+00  -0.3630445707E-01  -0.8551597954E-17   0.3500000005E+01   0.3957156462E-13   0.4077992841E-13  -0.8330068914E-15  -0.4869136934E-14   0.8686702114E-15   0.7037741423E-01  -0.3518170712E-01  -0.3518170712E-01  -0.1718742545E-15   0.3507177179E-15   0.4221887498E-16   0.3500000005E+01
   0.2140754828E+01   0.0000000000E+00   0.9648182929E+00  -0.4500000000E-02   0.0000000000E+00   0.1122750000E-02   0.1452548283E+00   0.0000000000E+00  -0.3630445707E-01   0.3500000005E+01   0.4517730301E-13   0.4108051005E-13  -0.1081281706E-14  -0.1182714737E-14  -0.2962755809E-15   0.7037741423E-01  -0.3518170712E-01  -0.3518170712E-01   0.1518302170E-16  -0.6938822363E-17  -0.5763103216E-16   0.3500000005E+01
   0.2140754828E+01   0.9648182929E+00   0.9648182929E+00  -0.4500000000E-02   0.1122750000E-02   0.1122750000E-02   0.1452548283E+00  -0.3630445707E-01  -0.3630445707E-01   0.3500000004E+01   0.2512292823E-13   0.2343926806E-13  -0.3737360980E-15   0.1196235491E-14   0.1017496421E-14   0.7037741422E-01  -0.3518170711E-01  -0.3518170711E-01   0.5036966527E-16   0.1645720788E-15   0.5084230696E-16   0.3500000004E+01
     1     2     3     4     5     6     7     8
     2     9    10     3     6    11    12     7
 VARIABLES = X,Y,Z,DU1,DU2,DU3,U1,U2,U3,S11,S22,S33,S12,S13,S23,E11,E22,E33,E12,E13,E23,SMISES
 ZONE, T="0.3450D+01" F=FEPOINT, I=   12 J=    2 ET=BRICK
   0.0000000000E+00   0.0000000000E+00   0.0000000000E+00   0.0000000000E+00   0.0000000000E+00   0.0000000000E+00   0.0000000000E+00   0.0000000000E+00   0.0000000000E+00   0.2375000004E+01  -0.7341766588E-13  -0.7609928938E-13   0.8885267109E-16  -0.6461427408E-15   0.6080981616E-15   0.6812741424E-01  -0.3405895712E-01  -0.3405895712E-01  -0.1969058793E-17  -0.1701459172E-16  -0.3228402145E-16   0.2375000004E+01
   0.1068127414E+01   0.0000000000E+00  -0.1288057881E-16  -0.2250000000E-02   0.0000000000E+00  -0.1111210435E-17   0.7037741413E-01   0.0000000000E+00  -0.1176936837E-16   0.2375000004E+01   0.3314949312E-13   0.3238249635E-13   0.1458033819E-15   0.4726372059E-15   0.4766528742E-15   0.6812741424E-01  -0.3405895712E-01  -0.3405895712E-01  -0.3037703960E-16  -0.3212137591E-16  -0.3084542961E-16   0.2375000004E+01
   0.1068127414E+01   0.9659410429E+00  -0.2841247372E-16  -0.2250000000E-02   0.1122750000E-02  -0.6219290652E-18   0.7037741413E-01  -0.3518170707E-01  -0.2779054466E-16   0.2375000003E+01   0.2606941537E-14   0.8303894473E-15  -0.3906324450E-15   0.1977416698E-14   0.2576239494E-15   0.6812741423E-01  -0.3405895711E-01  -0.3405895711E-01  -0.3068542538E-16   0.6771075746E-16  -0.1815175693E-16   0.2375000003E+01
   0.0000000000E+00   0.9659410429E+00  -0.2072738361E-16   0.0000000000E+00   0.1122750000E-02  -0.7065247520E-18   0.0000000000E+00  -0.3518170707E-01  -0.2002085886E-16   0.2375000003E+01   0.2755116493E-13   0.2565240853E-13  -0.6545961608E-15  -0.8514263575E-15  -0.2405637000E-15   0.6812741423E-01  -0.3405895712E-01  -0.3405895712E-01  -0.1864204025E-16  -0.2505246115E-16  -0.7084937609E-16   0.2375000003E+01
   0.0000000000E+00   0.0000000000E+00   0.9659410429E+00   0.0000000000E+00   0.0000000000E+00   0.1122750000E-02   0.0000000000E+00   0.0000000000E+00  -0.3518170707E-01   0.2375000003E+01   0.4684314531E-13   0.5064507949E-13  -0.9816629722E-16  -0.5124268518E-15   0.3076946032E-15   0.6812741423E-01  -0.3405895712E-01  -0.3405895712E-01  -0.9727357841E-17  -0.3822268384E-16  -0.3082381165E-16   0.2375000003E+01
   0.1068127414E+01   0.0000000000E+00   0.9659410429E+00  -0.2250000000E-02   0.0000000000E+00   0.1122750000E-02   0.7037741413E-01   0.0000000000E+00  -0.3518170707E-01   0.2375000003E+01  -0.6411282020E-13  -0.6159284591E-13   0.7115650231E-15   0.6705286226E-15   0.1265330252E-15   0.6812741423E-01  -0.3405895711E-01  -0.3405895711E-01   0.1990625759E-16   0.4895581763E-16  -0.2533397784E-16   0.2375000003E+01
   0.1068127414E+01   0.9659410429E+00   0.9659410429E+00  -0.2250000000E-02   0.1122750000E-02   0.1122750000E-02   0.7037741413E-01  -0.3518170707E-01  -0.3518170707E-01   0.2375000003E+01   0.1324516135E-13   0.1448346891E-13   0.9006362710E-15   0.3605590368E-15  -0.8269579357E-15   0.6812741422E-01  -0.3405895711E-01  -0.3405895711E-01   0.1767432032E-16   0.3992050818E-16  -0.1118663938E-16   0.2375000003E+01
   0.0000000000E+00   0.9659410429E+00   0.9659410429E+00   0.0000000000E+00   0.1122750000E-02   0.1122750000E-02   0.0000000000E+00  -0.3518170707E-01  -0.3518170707E-01   0.2375000003E+01   0.4606779095E-13   0.4593409285E-13  -0.9221981307E-16  -0.1237143804E-14  -0.7047029611E-15   0.6812741422E-01  -0.3405895711E-01  -0.3405895711E-01  -0.2775151583E-16  -0.4167150713E-17   0.1138424864E-16   0.2375000003E+01
   0.2136254828E+01   0.0000000000E+00   0.6993615260E-18  -0.4500000000E-02   0.0000000000E+00  -0.2311437683E-17   0.1407548283E+00   0.0000000000E+00   0.3010799209E-17   0.2375000004E+01   0.2159587775E-12   0.2183287204E-12   0.8209996852E-16   0.1119610183E-14  -0.7270767702E-15   0.6812741423E-01  -0.3405895712E-01  -0.3405895712E-01  -0.1611153083E-15   0.1019452411E-15  -0.1458986567E-16   0.2375000004E+01
   0.2136254828E+01   0.9659410429E+00  -0.1079129945E-16  -0.4500000000E-02   0.1122750000E-02  -0.1728934942E-17   0.1407548283E+00  -0.3518170707E-01  -0.9062364512E-17   0.2375000003E+01  -0.5703267791E-13  -0.5634360123E-13  -0.9600682500E-15  -0.4678538596E-14   0.5842580613E-15   0.6812741423E-01  -0.3405895711E-01  -0.3405895711E-01  -0.2029481593E-15   0.2477266343E-15   0.4039815387E-16   0.2375000003E+01
   0.2136254828E+01   0.0000000000E+00   0.9659410429E+00  -0.4500000000E-02   0.0000000000E+00   0.1122750000E-02   0.1407548283E+00   0.0000000000E+00  -0.3518170707E-01   0.2375000003E+01  -0.6787770026E-13  -0.7129066542E-13  -0.8495696180E-15  -0.1509888298E-14  -0.2741360972E-15   0.6812741423E-01  -0.3405895711E-01  -0.3405895711E-01  -0.1098710084E-16  -0.5275927505E-16  -0.5916220033E-16   0.2375000003E+01
   0.2136254828E+01   0.9659410429E+00   0.9659410429E+00  -0.4500000000E-02   0.1122750000E-02   0.1122750000E-02   0.1407548283E+00  -0.3518170707E-01  -0.3518170707E-01   0.2375000003E+01  -0.4286577886E-14  -0.5783021418E-14  -0.9296866489E-16   0.1647253385E-14   0.6709913368E-15   0.6812741422E-01  -0.3405895711E-01  -0.3405895711E-01   0.1108776371E-15   0.2158614412E-15   0.7985757137E-16   0.2375000003E+01
     1     2     3     4     5     6     7     8
     2     9    10     3     6    11    12     7
 VARIABLES = X,Y,Z,DU1,DU2,DU3,U1,U2,U3,S11,S22,S33,S12,S13,S23,E11,E22,E33,E12,E13,E23,SMISES
 ZONE, T="0.3500D+01" F=FEPOINT, I=   12 J=    2 ET=BRICK
   0.0000000000E+00   0.0000000000E+00   0.0000000000E+00   0.0000000000E+00   0.0000000000E+00   0.0000000000E+00   0.0000000000E+00   0.0000000000E+00   0.0000000000E+00   0.1250000002E+01   0.9277141004E-13   0.8999164568E-13   0.1132733346E-15  -0.5767652542E-15   0.6273458857E-15   0.6587741424E-01  -0.3293620712E-01  -0.3293620712E-01  -0.7879876260E-18  -0.5427280590E-16  -0.3131773690E-16   0.1250000002E+01
   0.1065877414E+01   0.0000000000E+00  -0.1248888754E-16  -0.2250000000E-02   0.0000000000E+00   0.3916912662E-18   0.6812741413E-01   0.0000000000E+00  -0.1288057881E-16   0.1250000002E+01  -0.7170815152E-13  -0.7210888151E-13  -0.2017917901E-15   0.3760900887E-15   0.3158227870E-15   0.6587741423E-01  -0.3293620712E-01  -0.3293620712E-01  -0.2081110757E-16   0.4871562334E-16  -0.3410837405E-16   0.1250000002E+01
   0.1065877414E+01   0.9670637929E+00  -0.2890564839E-16  -0.2250000000E-02   0.1122750000E-02  -0.4931746622E-18   0.6812741413E-01  -0.3405895707E-01  -0.2841247372E-16   0.1250000002E+01  -0.2098238974E-13  -0.2248065669E-13  -0.8670149669E-15   0.2056706318E-14   0.3597285641E-15   0.6587741423E-01  -0.3293620711E-01  -0.3293620711E-01   0.5564661865E-17   0.6414540983E-16  -0.1355181573E-16   0.1250000002E+01
   0.0000000000E+00   0.9670637929E+00  -0.2074042330E-16   0.0000000000E+00   0.1122750000E-02  -0.1303968635E-19   0.0000000000E+00  -0.3405895707E-01  -0.2072738361E-16   0.1250000002E+01  -0.4163391033E-13  -0.4333701662E-13  -0.7251793391E-15  -0.9634772039E-15  -0.4193698682E-15   0.6587741423E-01  -0.3293620711E-01  -0.3293620711E-01  -0.1845565049E-16  -0.2348076312E-16  -0.5631588499E-16   0.1250000002E+01
   0.0000000000E+00   0.0000000000E+00   0.9670637929E+00   0.0000000000E+00   0.0000000000E+00   0.1122750000E-02   0.0000000000E+00   0.0000000000E+00  -0.3405895707E-01   0.1250000002E+01  -0.2420038477E-13  -0.2037105971E-13  -0.8499547313E-16  -0.2977385551E-15   0.3654004861E-15   0.6587741423E-01  -0.3293620711E-01  -0.3293620711E-01  -0.1171626366E-16  -0.3750124796E-16  -0.4317411534E-16   0.1250000002E+01
   0.1065877414E+01   0.0000000000E+00   0.9670637929E+00  -0.2250000000E-02   0.0000000000E+00   0.1122750000E-02   0.6812741413E-01   0.0000000000E+00  -0.3405895707E-01   0.1250000002E+01   0.1090556512E-12   0.1115525849E-12   0.6231769714E-15   0.5396205589E-15  -0.8733534826E-16   0.6587741423E-01  -0.3293620711E-01  -0.3293620711E-01   0.2058496487E-16   0.9680383025E-16  -0.1524424386E-16   0.1250000002E+01
   0.1065877414E+01   0.9670637929E+00   0.9670637929E+00  -0.2250000000E-02   0.1122750000E-02   0.1122750000E-02   0.6812741413E-01  -0.3405895707E-01  -0.3405895707E-01   0.1250000002E+01  -0.3018142702E-14  -0.2118346325E-14   0.9144230363E-15   0.4220130398E-15  -0.9014557319E-15   0.6587741422E-01  -0.3293620711E-01  -0.3293620711E-01  -0.1914134601E-16  -0.3245039728E-16  -0.4108337663E-17   0.1250000002E+01
   0.0000000000E+00   0.9670637929E+00   0.9670637929E+00   0.0000000000E+00   0.1122750000E-02   0.1122750000E-02   0.0000000000E+00  -0.3405895707E-01  -0.3405895707E-01   0.1250000002E+01   0.3737023930E-13   0.3756588952E-13   0.9295956370E-16  -0.1447148578E-14  -0.6635655639E-15   0.6587741422E-01  -0.3293620711E-01  -0.3293620711E-01  -0.1728961755E-16   0.1358647729E-16   0.3592570579E-16   0.1250000002E+01
   0.2131754828E+01   0.0000000000E+00   0.1419607851E-17  -0.4500000000E-02   0.0000000000E+00   0.7202463247E-18   0.1362548283E+00   0.0000000000E+00   0.6993615260E-18   0.1250000002E+01  -0.2647593638E-12  -0.2623914136E-12   0.5759499255E-15   0.1501446424E-14  -0.8979657090E-15   0.6587741423E-01  -0.3293620712E-01  -0.3293620712E-01  -0.1725378665E-15  -0.2793497440E-16  -0.3320392876E-16   0.1250000002E+01
   0.2131754828E+01   0.9670637929E+00  -0.1110483422E-16  -0.4500000000E-02   0.1122750000E-02  -0.3135347656E-18   0.1362548283E+00  -0.3405895707E-01  -0.1079129945E-16   0.1250000002E+01   0.7648688294E-13   0.7741496885E-13  -0.5517172999E-15  -0.5137572313E-14   0.7590911023E-15   0.6587741422E-01  -0.3293620711E-01  -0.3293620711E-01  -0.2193236939E-15   0.2889061052E-15   0.8167957969E-16   0.1250000002E+01
   0.2131754828E+01   0.0000000000E+00   0.9670637929E+00  -0.4500000000E-02   0.0000000000E+00   0.1122750000E-02   0.1362548283E+00   0.0000000000E+00  -0.3405895707E-01   0.1250000002E+01   0.8165276958E-13   0.7771135443E-13  -0.1312431007E-14  -0.1464485541E-14  -0.2851534231E-15   0.6587741422E-01  -0.3293620711E-01  -0.3293620711E-01  -0.5296116775E-19  -0.5280642033E-16  -0.3393870948E-16   0.1250000002E+01
   0.2131754828E+01   0.9670637929E+00   0.9670637929E+00  -0.4500000000E-02   0.1122750000E-02   0.1122750000E-02   0.1362548283E+00  -0.3405895707E-01  -0.3405895707E-01   0.1250000002E+01  -0.7963871316E-13  -0.8130886025E-13  -0.4582305973E-15   0.1386438220E-14   0.9763548955E-15   0.6587741422E-01  -0.3293620711E-01  -0.3293620711E-01   0.9047624519E-16   0.1397893920E-15   0.4793311839E-16   0.1250000002E+01
     1     2     3     4     5     6     7     8
     2     9    10     3     6    11    12     7
 VARIABLES = X,Y,Z,DU1,DU2,DU3,U1,U2,U3,S11,S22,S33,S12,S13,S23,E11,E22,E33,E12,E13,E23,SMISES
 ZONE, T="0.3550D+01" F=FEPOINT, I=   12 J=    2 ET=BRICK
   0.0000000000E+00   0.0000000000E+00   0.0000000000E+00   0.0000000000E+00   0.0000000000E+00   0.0000000000E+00   0.0000000000E+00   0.0000000000E+00   0.0000000000E+00   0.1250000002E+00  -0.9570310043E-13  -0.9860852767E-13   0.1159645670E-15  -0.6739174932E-15   0.7769194098E-15   0.6362741423E-01  -0.3181345712E-01  -0.3181345712E-01  -0.1071977785E-17  -0.3218121675E-16  -0.2682389429E-16   0.1250000002E+00
   0.1063627414E+01   0.0000000000E+00  -0.1298622520E-16  -0.2250000000E-02   0.0000000000E+00  -0.4973376632E-18   0.6587741413E-01   0.0000000000E+00  -0.1248888754E-16   0.1250000002E+00   0.6028525779E-13   0.5937868702E-13  -0.1268467962E-17   0.6310642798E-15   0.4850372099E-15   0.6362741423E-01  -0.3181345712E-01  -0.3181345712E-01  -0.1924201074E-16   0.4375818241E-17  -0.4298438108E-16   0.1250000002E+00
   0.1063627414E+01   0.9681865429E+00  -0.2840609643E-16  -0.2250000000E-02   0.1122750000E-02   0.4995519555E-18   0.6587741413E-01  -0.3293620707E-01  -0.2890564839E-16   0.1250000002E+00   0.4535572138E-13   0.4354642527E-13  -0.7040411593E-15   0.1905114300E-14   0.2035632452E-15   0.6362741422E-01  -0.3181345711E-01  -0.3181345711E-01  -0.3539408101E-16   0.6758140624E-16  -0.1446087966E-16   0.1250000002E+00
   0.0000000000E+00   0.9681865429E+00  -0.1973879277E-16   0.0000000000E+00   0.1122750000E-02   0.1001630534E-17   0.0000000000E+00  -0.3293620707E-01  -0.2074042330E-16   0.1250000002E+00  -0.2472101861E-14  -0.4498550513E-14  -0.5891637944E-15  -0.1015793259E-14  -0.3943057863E-15   0.6362741422E-01  -0.3181345711E-01  -0.3181345711E-01  -0.1121493760E-16  -0.3602445334E-16  -0.3106887150E-16   0.1250000002E+00
   0.0000000000E+00   0.0000000000E+00   0.9681865429E+00   0.0000000000E+00   0.0000000000E+00   0.1122750000E-02   0.0000000000E+00   0.0000000000E+00  -0.3293620707E-01   0.1250000002E+00  -0.7742878111E-14  -0.3766131668E-14  -0.1077633833E-15  -0.7075274757E-15   0.3952614385E-15   0.6362741422E-01  -0.3181345711E-01  -0.3181345711E-01   0.5496202123E-18  -0.1173336471E-16  -0.5165467600E-16   0.1250000002E+00
   0.1063627414E+01   0.0000000000E+00   0.9681865429E+00  -0.2250000000E-02   0.0000000000E+00   0.1122750000E-02   0.6587741413E-01   0.0000000000E+00  -0.3293620707E-01   0.1250000002E+00  -0.4717993662E-13  -0.4445728218E-13   0.6620280300E-15   0.8833290885E-15   0.1872566093E-15   0.6362741422E-01  -0.3181345711E-01  -0.3181345711E-01   0.7821286726E-18   0.2566279598E-16   0.5990317470E-18   0.1250000002E+00
   0.1063627414E+01   0.9681865429E+00   0.9681865429E+00  -0.2250000000E-02   0.1122750000E-02   0.1122750000E-02   0.6587741413E-01  -0.3293620707E-01  -0.3293620707E-01   0.1250000002E+00  -0.8256383512E-14  -0.6964490810E-14   0.8124602612E-15   0.4187415959E-15  -0.9915449517E-15   0.6362741422E-01  -0.3181345711E-01  -0.3181345711E-01   0.1392664150E-16   0.2816500734E-16  -0.3063480237E-17   0.1250000002E+00
   0.0000000000E+00   0.9681865429E+00   0.9681865429E+00   0.0000000000E+00   0.1122750000E-02   0.1122750000E-02   0.0000000000E+00  -0.3293620707E-01  -0.3293620707E-01   0.1250000002E+00   0.1057724341E-13   0.1073685358E-13  -0.6738662402E-16  -0.1326009415E-14  -0.7963204243E-15   0.6362741422E-01  -0.3181345711E-01  -0.3181345711E-01  -0.4021473283E-16  -0.2469762663E-16   0.2875278979E-17   0.1250000002E+00
   0.2127254828E+01   0.0000000000E+00   0.7939695588E-18  -0.4500000000E-02   0.0000000000E+00  -0.6256382919E-18   0.1317548283E+00   0.0000000000E+00   0.1419607851E-17   0.1250000002E+00   0.1643234901E-12   0.1666157775E-12   0.1233231824E-15   0.1098814396E-14  -0.9103002291E-15   0.6362741423E-01  -0.3181345711E-01  -0.3181345711E-01  -0.1922725298E-15   0.9196499937E-16  -0.2515981226E-16   0.1250000002E+00
   0.2127254828E+01   0.9681865429E+00  -0.1195071446E-16  -0.4500000000E-02   0.1122750000E-02  -0.8458802407E-18   0.1317548283E+00  -0.3293620707E-01  -0.1110483422E-16   0.1250000002E+00   0.3850711766E-13   0.3945282106E-13  -0.1192664571E-14  -0.4722771020E-14   0.5239120642E-15   0.6362741422E-01  -0.3181345711E-01  -0.3181345711E-01  -0.2070281936E-15   0.2137674633E-15   0.8251137648E-16   0.1250000002E+00
   0.2127254828E+01   0.0000000000E+00   0.9681865429E+00  -0.4500000000E-02   0.0000000000E+00   0.1122750000E-02   0.1317548283E+00   0.0000000000E+00  -0.3293620707E-01   0.1250000002E+00  -0.5309315475E-13  -0.5683054980E-13  -0.1056713155E-14  -0.1718337022E-14  -0.2919894184E-15   0.6362741422E-01  -0.3181345711E-01  -0.3181345711E-01   0.6594781902E-17   0.6693314234E-16  -0.4890650102E-16   0.1250000002E+00
   0.2127254828E+01   0.9681865429E+00   0.9681865429E+00  -0.4500000000E-02   0.1122750000E-02   0.1122750000E-02   0.1317548283E+00  -0.3293620707E-01  -0.3293620707E-01   0.1250000002E+00   0.2242035530E-13   0.2104852938E-13   0.4361215986E-16   0.1465631093E-14   0.9175702918E-15   0.6362741421E-01  -0.3181345711E-01  -0.3181345711E-01   0.8218041322E-16   0.1077872149E-15   0.3744646738E-16   0.1250000002E+00
     1     2     3     4     5     6     7     8
     2     9    10     3     6    11    12     7
 VARIABLES = X,Y,Z,DU1,DU2,DU3,U1,U2,U3,S11,S22,S33,S12,S13,S23,E11,E22,E33,E12,E13,E23,SMISES
 ZONE, T="0.3600D+01" F=FEPOINT, I=   12 J=    2 ET=BRICK
   0.0000000000E+00   0.0000000000E+00   0.0000000000E+00   0.0000000000E+00   0.0000000000E+00   0.0000000000E+00   0.0000000000E+00   0.0000000000E+00   0.0000000000E+00  -0.1000000002E+01   0.8331860690E-13   0.8074297493E-13   0.1464607528E-15  -0.4108770977E-15   0.7540385308E-15   0.6137741423E-01  -0.3069070711E-01  -0.3069070711E-01   0.9552925231E-18  -0.3069554209E-16  -0.3652805489E-16   0.1000000002E+01
   0.1061377414E+01   0.0000000000E+00  -0.1181877456E-16  -0.2250000000E-02   0.0000000000E+00   0.1167450640E-17   0.6362741413E-01   0.0000000000E+00  -0.1298622520E-16  -0.1000000002E+01  -0.5013638097E-13  -0.5072260181E-13  -0.1254140562E-15   0.3892038579E-15   0.3977511187E-15   0.6137741423E-01  -0.3069070711E-01  -0.3069070711E-01  -0.4213040352E-16  -0.1530594507E-16  -0.3503091316E-16   0.1000000002E+01
   0.1061377414E+01   0.9693092929E+00  -0.2774915470E-16  -0.2250000000E-02   0.1122750000E-02   0.6569417333E-18   0.6362741413E-01  -0.3181345707E-01  -0.2840609643E-16  -0.1000000001E+01   0.5455092672E-13   0.5285256172E-13  -0.8334384751E-15   0.1918114207E-14   0.3851424848E-15   0.6137741422E-01  -0.3069070711E-01  -0.3069070711E-01  -0.5230796311E-16   0.8316522078E-16  -0.3269317470E-16   0.1000000001E+01
   0.0000000000E+00   0.9693092929E+00  -0.1990663772E-16   0.0000000000E+00   0.1122750000E-02  -0.1678449495E-18   0.0000000000E+00  -0.3181345707E-01  -0.1973879277E-16  -0.1000000001E+01   0.2289761046E-13   0.2090932900E-13  -0.6559743964E-15  -0.9300747908E-15  -0.2844181300E-15   0.6137741422E-01  -0.3069070711E-01  -0.3069070711E-01  -0.1239416792E-16  -0.2740783261E-16  -0.2482671674E-16   0.1000000001E+01
   0.0000000000E+00   0.0000000000E+00   0.9693092929E+00   0.0000000000E+00   0.0000000000E+00   0.1122750000E-02   0.0000000000E+00   0.0000000000E+00  -0.3181345707E-01  -0.1000000001E+01   0.4059565618E-13   0.4460358204E-13  -0.1065380907E-15  -0.6928651149E-15   0.1963458376E-15   0.6137741422E-01  -0.3069070711E-01  -0.3069070711E-01   0.6368405312E-17  -0.3952591616E-16  -0.9003949296E-17   0.1000000001E+01
   0.1061377414E+01   0.0000000000E+00   0.9693092929E+00  -0.2250000000E-02   0.0000000000E+00   0.1122750000E-02   0.6362741413E-01   0.0000000000E+00  -0.3181345707E-01  -0.1000000001E+01   0.3082295858E-13   0.3322410879E-13   0.6734669301E-15   0.7999141653E-15  -0.3327632190E-16   0.6137741422E-01  -0.3069070711E-01  -0.3069070711E-01   0.8375355264E-18   0.4350468667E-16   0.1010013538E-16   0.1000000001E+01
   0.1061377414E+01   0.9693092929E+00   0.9693092929E+00  -0.2250000000E-02   0.1122750000E-02   0.1122750000E-02   0.6362741413E-01  -0.3181345707E-01  -0.3181345707E-01  -0.1000000001E+01  -0.2706180054E-13  -0.2615865034E-13   0.7714418912E-15   0.2322941953E-15  -0.1002515662E-14   0.6137741421E-01  -0.3069070711E-01  -0.3069070711E-01   0.3122546977E-16   0.7030007967E-17   0.5255324889E-17   0.1000000001E+01
   0.0000000000E+00   0.9693092929E+00   0.9693092929E+00   0.0000000000E+00   0.1122750000E-02   0.1122750000E-02   0.0000000000E+00  -0.3181345707E-01  -0.3181345707E-01  -0.1000000001E+01   0.1366676880E-13   0.1354762902E-13  -0.6953050176E-16  -0.1226873221E-14  -0.7452173652E-15   0.6137741421E-01  -0.3069070711E-01  -0.3069070711E-01  -0.5866770424E-16  -0.1188579742E-16  -0.8388578221E-17   0.1000000001E+01
   0.2122754828E+01   0.0000000000E+00   0.2354298710E-17  -0.4500000000E-02   0.0000000000E+00   0.1560329152E-17   0.1272548283E+00   0.0000000000E+00   0.7939695588E-18  -0.1000000002E+01  -0.5312030107E-13  -0.5032481278E-13   0.6173473610E-15   0.1177551558E-14  -0.7942940602E-15   0.6137741422E-01  -0.3069070711E-01  -0.3069070711E-01  -0.1777163464E-15   0.6640863657E-16  -0.1941961733E-16   0.1000000002E+01
   0.2122754828E+01   0.9693092929E+00  -0.9699505567E-17  -0.4500000000E-02   0.1122750000E-02   0.2251208894E-17   0.1272548283E+00  -0.3181345707E-01  -0.1195071446E-16  -0.1000000001E+01   0.1058597002E-12   0.1067371723E-12  -0.7305801645E-15  -0.4988061779E-14   0.7567942930E-15   0.6137741422E-01  -0.3069070711E-01  -0.3069070711E-01  -0.2021701530E-15   0.1401678277E-15   0.7624258323E-16   0.1000000001E+01
   0.2122754828E+01   0.0000000000E+00   0.9693092929E+00  -0.4500000000E-02   0.0000000000E+00   0.1122750000E-02   0.1272548283E+00   0.0000000000E+00  -0.3181345707E-01  -0.1000000001E+01   0.7417893745E-13   0.7076442886E-13  -0.1108257685E-14  -0.1798544411E-14  -0.4098803972E-15   0.6137741422E-01  -0.3069070711E-01  -0.3069070711E-01   0.1313676145E-17   0.3377094026E-16  -0.6168145249E-16   0.1000000001E+01
   0.2122754828E+01   0.9693092929E+00   0.9693092929E+00  -0.4500000000E-02   0.1122750000E-02   0.1122750000E-02   0.1272548283E+00  -0.3181345707E-01  -0.3181345707E-01  -0.1000000001E+01  -0.1070168663E-12  -0.1086951310E-12  -0.1636710923E-15   0.1549628590E-14   0.8568115802E-15   0.6137741421E-01  -0.3069070711E-01  -0.3069070711E-01   0.1006636206E-15   0.1455322218E-15   0.6154600695E-16   0.1000000001E+01
     1     2     3     4     5     6     7     8
     2     9    10     3     6    11    12     7
 VARIABLES = X,Y,Z,DU1,DU2,DU3,U1,U2,U3,S11,S22,S33,S12,S13,S23,E11,E22,E33,E12,E13,E23,SMISES
 ZONE, T="0.3650D+01" F=FEPOINT, I=   12 J=    2 ET=BRICK
   0.0000000000E+00   0.0000000000E+00   0.0000000000E+00   0.0000000000E+00   0.0000000000E+00   0.0000000000E+00   0.0000000000E+00   0.0000000000E+00   0.0000000000E+00  -0.2125000003E+01  -0.8651922292E-13  -0.8890088172E-13   0.1404652764E-15  -0.5014494873E-15   0.7224106015E-15   0.5912741422E-01  -0.2956795711E-01  -0.2956795711E-01  -0.2166329007E-17  -0.4809881103E-16  -0.4008909402E-16   0.2125000003E+01
   0.1059127414E+01   0.0000000000E+00  -0.1227691632E-16  -0.2250000000E-02   0.0000000000E+00  -0.4581417611E-18   0.6137741413E-01   0.0000000000E+00  -0.1181877456E-16  -0.2125000003E+01   0.4812046449E-15   0.7575974131E-16  -0.1833268608E-15   0.2635744848E-15   0.5323715996E-15   0.5912741422E-01  -0.2956795711E-01  -0.2956795711E-01  -0.2648990368E-16   0.1715617208E-16  -0.2468633874E-16   0.2125000003E+01
   0.1059127414E+01   0.9704320429E+00  -0.2748599753E-16  -0.2250000000E-02   0.1122750000E-02   0.2631571631E-18   0.6137741413E-01  -0.3069070707E-01  -0.2774915470E-16  -0.2125000003E+01  -0.7247153689E-13  -0.7406595197E-13  -0.8739020388E-15   0.2004107032E-14   0.4595164458E-15   0.5912741422E-01  -0.2956795711E-01  -0.2956795711E-01  -0.4657158186E-16   0.3055587779E-16  -0.2568340232E-16   0.2125000003E+01
   0.0000000000E+00   0.9704320429E+00  -0.1980780391E-16   0.0000000000E+00   0.1122750000E-02   0.9883380965E-19   0.0000000000E+00  -0.3069070707E-01  -0.1990663772E-16  -0.2125000003E+01   0.2297341376E-13   0.2088744075E-13  -0.5752417127E-15  -0.8888153732E-15  -0.7237336642E-16   0.5912741422E-01  -0.2956795711E-01  -0.2956795711E-01  -0.5255365479E-17  -0.2349003152E-16  -0.3566096023E-16   0.2125000003E+01
   0.0000000000E+00   0.0000000000E+00   0.9704320429E+00   0.0000000000E+00   0.0000000000E+00   0.1122750000E-02   0.0000000000E+00   0.0000000000E+00  -0.3069070707E-01  -0.2125000003E+01   0.9563362761E-13   0.9955438588E-13  -0.8086187060E-16  -0.7763998809E-15   0.1841797459E-15   0.5912741422E-01  -0.2956795711E-01  -0.2956795711E-01   0.6204353864E-17  -0.3817570021E-16  -0.2288246452E-16   0.2125000003E+01
   0.1059127414E+01   0.0000000000E+00   0.9704320429E+00  -0.2250000000E-02   0.0000000000E+00   0.1122750000E-02   0.6137741413E-01   0.0000000000E+00  -0.3069070707E-01  -0.2125000003E+01  -0.1811905919E-13  -0.1557405150E-13   0.7123593530E-15   0.9128336267E-15   0.4345875852E-16   0.5912741422E-01  -0.2956795711E-01  -0.2956795711E-01  -0.6252242977E-17   0.1635678951E-16  -0.1289848608E-16   0.2125000003E+01
   0.1059127414E+01   0.9704320429E+00   0.9704320429E+00  -0.2250000000E-02   0.1122750000E-02   0.1122750000E-02   0.6137741413E-01  -0.3069070707E-01  -0.3069070707E-01  -0.2125000003E+01   0.1647933262E-13   0.1733576984E-13   0.9213701632E-15   0.2340821763E-15  -0.9510751490E-15   0.5912741421E-01  -0.2956795710E-01  -0.2956795710E-01   0.2937833892E-16   0.1005907586E-16  -0.1591013157E-16   0.2125000003E+01
   0.0000000000E+00   0.9704320429E+00   0.9704320429E+00   0.0000000000E+00   0.1122750000E-02   0.1122750000E-02   0.0000000000E+00  -0.3069070707E-01  -0.3069070707E-01  -0.2125000003E+01  -0.5863044555E-13  -0.5873031209E-13  -0.1225549337E-15  -0.9794143444E-15  -0.8307012679E-15   0.5912741421E-01  -0.2956795711E-01  -0.2956795711E-01  -0.5451675984E-16  -0.8272020135E-17   0.4539511408E-17   0.2125000003E+01
   0.2118254828E+01   0.0000000000E+00   0.3510826768E-17  -0.4500000000E-02   0.0000000000E+00   0.1156528058E-17   0.1227548283E+00   0.0000000000E+00   0.2354298710E-17  -0.2125000003E+01   0.7909567392E-13   0.8165183713E-13   0.7642410830E-17   0.1033445140E-14  -0.1050910622E-14   0.5912741422E-01  -0.2956795711E-01  -0.2956795711E-01  -0.1486741856E-15  -0.4522897111E-16  -0.2993710202E-16   0.2125000003E+01
   0.2118254828E+01   0.9704320429E+00  -0.1020605026E-16  -0.4500000000E-02   0.1122750000E-02  -0.5065446965E-18   0.1227548283E+00  -0.3069070707E-01  -0.9699505567E-17  -0.2125000003E+01  -0.1803581717E-12  -0.1791433672E-12  -0.1343436091E-14  -0.4524552246E-14   0.5788920833E-15   0.5912741421E-01  -0.2956795711E-01  -0.2956795711E-01  -0.1865761762E-15   0.2203666761E-15   0.7808764804E-16   0.2125000003E+01
   0.2118254828E+01   0.0000000000E+00   0.9704320429E+00  -0.4500000000E-02   0.0000000000E+00   0.1122750000E-02   0.1227548283E+00   0.0000000000E+00  -0.3069070707E-01  -0.2125000003E+01  -0.1100075438E-12  -0.1138480959E-12  -0.6207577856E-15  -0.2382000722E-14  -0.5170788212E-15   0.5912741421E-01  -0.2956795711E-01  -0.2956795711E-01   0.6201811550E-17  -0.1663723607E-16  -0.3667691202E-16   0.2125000003E+01
   0.2118254828E+01   0.9704320429E+00   0.9704320429E+00  -0.4500000000E-02   0.1122750000E-02   0.1122750000E-02   0.1227548283E+00  -0.3069070707E-01  -0.3069070707E-01  -0.2125000003E+01   0.1301655795E-12   0.1283007787E-12   0.4911229360E-15   0.1968215070E-14   0.9804434124E-15   0.5912741421E-01  -0.2956795710E-01  -0.2956795710E-01   0.1237651690E-15   0.1296928528E-15   0.5531050512E-16   0.2125000003E+01
     1     2     3     4     5     6     7     8
     2     9    10     3     6    11    12     7
 VARIABLES = X,Y,Z,DU1,DU2,DU3,U1,U2,U3,S11,S22,S33,S12,S13,S23,E11,E22,E33,E12,E13,E23,SMISES
 ZONE, T="0.3700D+01" F=FEPOINT, I=   12 J=    2 ET=BRICK
   0.0000000000E+00   0.0000000000E+00   0.0000000000E+00   0.0000000000E+00   0.0000000000E+00   0.0000000000E+00   0.0000000000E+00   0.0000000000E+00   0.0000000000E+00  -0.3250000005E+01   0.7437319797E-13   0.7147388012E-13   0.1356562109E-15  -0.5302625843E-15   0.9199979247E-15   0.5687741422E-01  -0.2844520711E-01  -0.2844520711E-01  -0.5404794853E-17  -0.3638301597E-16  -0.3313668638E-16   0.3250000005E+01
   0.1056877414E+01   0.0000000000E+00  -0.1272928604E-16  -0.2250000000E-02   0.0000000000E+00  -0.4523697182E-18   0.5912741413E-01   0.0000000000E+00  -0.1227691632E-16  -0.3250000005E+01   0.4201292757E-13   0.4137654218E-13  -0.5352526984E-15  -0.5392642295E-16   0.6414882994E-15   0.5687741422E-01  -0.2844520711E-01  -0.2844520711E-01  -0.3344565702E-16  -0.2069363138E-16  -0.3513606942E-16   0.3250000005E+01
   0.1056877414E+01   0.9715547929E+00  -0.2719541041E-16  -0.2250000000E-02   0.1122750000E-02   0.2905871194E-18   0.5912741413E-01  -0.2956795707E-01  -0.2748599753E-16  -0.3250000005E+01   0.7677939168E-14   0.5484324091E-14  -0.1080958167E-14   0.2298030291E-14   0.1755735334E-15   0.5687741421E-01  -0.2844520711E-01  -0.2844520711E-01  -0.7963541519E-16   0.6496707273E-16  -0.2385894428E-16   0.3250000005E+01
   0.0000000000E+00   0.9715547929E+00  -0.1871082979E-16   0.0000000000E+00   0.1122750000E-02   0.1096974118E-17   0.0000000000E+00  -0.2956795707E-01  -0.1980780391E-16  -0.3250000005E+01  -0.8856220818E-13  -0.9083748830E-13  -0.4519982085E-15  -0.1011285531E-14  -0.1619715252E-15   0.5687741421E-01  -0.2844520711E-01  -0.2844520711E-01   0.9733255476E-18  -0.2582164212E-16  -0.3885041446E-16   0.3250000005E+01
   0.0000000000E+00   0.0000000000E+00   0.9715547929E+00   0.0000000000E+00   0.0000000000E+00   0.1122750000E-02   0.0000000000E+00   0.0000000000E+00  -0.2956795707E-01  -0.3250000005E+01  -0.9490527653E-13  -0.9046214426E-13  -0.5848244098E-16  -0.7284788880E-15   0.3971765666E-15   0.5687741421E-01  -0.2844520711E-01  -0.2844520711E-01  -0.3341796403E-17  -0.2636817840E-16  -0.1350090411E-16   0.3250000005E+01
   0.1056877414E+01   0.0000000000E+00   0.9715547929E+00  -0.2250000000E-02   0.0000000000E+00   0.1122750000E-02   0.5912741413E-01   0.0000000000E+00  -0.2956795707E-01  -0.3250000005E+01   0.2978560158E-13   0.3285942398E-13   0.8784633831E-15   0.5906575175E-15   0.2456425355E-15   0.5687741421E-01  -0.2844520711E-01  -0.2844520711E-01  -0.3436883996E-17  -0.1494754542E-16  -0.2965300429E-17   0.3250000005E+01
   0.1056877414E+01   0.9715547929E+00   0.9715547929E+00  -0.2250000000E-02   0.1122750000E-02   0.1122750000E-02   0.5912741413E-01  -0.2956795707E-01  -0.2956795707E-01  -0.3250000004E+01  -0.5289604849E-14  -0.3773012139E-14   0.1161284536E-14   0.4709240153E-15  -0.1172568990E-14   0.5687741421E-01  -0.2844520710E-01  -0.2844520710E-01   0.5075840328E-16   0.1564685267E-16   0.4051946828E-17   0.3250000004E+01
   0.0000000000E+00   0.9715547929E+00   0.9715547929E+00   0.0000000000E+00   0.1122750000E-02   0.1122750000E-02   0.0000000000E+00  -0.2956795707E-01  -0.2956795707E-01  -0.3250000004E+01   0.1965855374E-13   0.2026519097E-13  -0.6960473431E-16  -0.1026755616E-14  -0.8080394420E-15   0.5687741421E-01  -0.2844520710E-01  -0.2844520710E-01  -0.7078820945E-16  -0.1868407378E-16  -0.4494776393E-18   0.3250000004E+01
   0.2113754828E+01   0.0000000000E+00   0.9976412800E-18  -0.4500000000E-02   0.0000000000E+00  -0.2513185488E-17   0.1182548283E+00   0.0000000000E+00   0.3510826768E-17  -0.3250000005E+01  -0.6168456160E-13  -0.5959798342E-13   0.1180281005E-15   0.1523786266E-14  -0.8066685472E-15   0.5687741422E-01  -0.2844520711E-01  -0.2844520711E-01  -0.1822060058E-15   0.4443283639E-16  -0.2644680999E-16   0.3250000005E+01
   0.2113754828E+01   0.9715547929E+00  -0.1130744527E-16  -0.4500000000E-02   0.1122750000E-02  -0.1101395003E-17   0.1182548283E+00  -0.2956795707E-01  -0.1020605026E-16  -0.3250000005E+01   0.2910203053E-13   0.2944851276E-13  -0.1093166427E-14  -0.4548257259E-14   0.2404004222E-15   0.5687741421E-01  -0.2844520711E-01  -0.2844520711E-01  -0.1910238391E-15   0.1987624871E-15   0.4713204248E-16   0.3250000005E+01
   0.2113754828E+01   0.0000000000E+00   0.9715547929E+00  -0.4500000000E-02   0.0000000000E+00   0.1122750000E-02   0.1182548283E+00   0.0000000000E+00  -0.2956795707E-01  -0.3250000005E+01   0.1142993769E-12   0.1104687171E-12  -0.1041589933E-14  -0.1991628477E-14  -0.2718108316E-15   0.5687741421E-01  -0.2844520711E-01  -0.2844520711E-01   0.6651913231E-16  -0.7520370165E-17  -0.3789663891E-16   0.3250000005E+01
   0.2113754828E+01   0.9715547929E+00   0.9715547929E+00  -0.4500000000E-02   0.1122750000E-02   0.1122750000E-02   0.1182548283E+00  -0.2956795707E-01  -0.2956795707E-01  -0.3250000004E+01  -0.5427948836E-13  -0.5538971136E-13  -0.1163340083E-15   0.1758905056E-14   0.6141340400E-15   0.5687741420E-01  -0.2844520710E-01  -0.2844520710E-01   0.7927333827E-16   0.2050432432E-15   0.8353649007E-16   0.3250000004E+01
     1     2     3     4     5     6     7     8
     2     9    10     3     6    11    12     7
 VARIABLES = X,Y,Z,DU1,DU2,DU3,U1,U2,U3,S11,S22,S33,S12,S13,S23,E11,E22,E33,E12,E13,E23,SMISES
 ZONE, T="0.3750D+01" F=FEPOINT, I=   12 J=    2 ET=BRICK
   0.0000000000E+00   0.0000000000E+00   0.0000000000E+00   0.0000000000E+00   0.0000000000E+00   0.0000000000E+00   0.0000000000E+00   0.0000000000E+00   0.0000000000E+00  -0.4375000007E+01  -0.1308834455E-14  -0.4380130090E-14   0.1635864758E-15  -0.5195407018E-15   0.9439778558E-15   0.5462741422E-01  -0.2732245711E-01  -0.2732245711E-01   0.2230660745E-17  -0.3072482264E-16  -0.3673397861E-16   0.4375000007E+01
   0.1054627414E+01   0.0000000000E+00  -0.1308422578E-16  -0.2250000000E-02   0.0000000000E+00  -0.3549397413E-18   0.5687741413E-01   0.0000000000E+00  -0.1272928604E-16  -0.4375000007E+01   0.6262185195E-14   0.5585162804E-14  -0.3876147129E-15   0.1470928669E-15   0.5635128823E-15   0.5462741422E-01  -0.2732245711E-01  -0.2732245711E-01  -0.5906923458E-16  -0.3126965610E-16  -0.4354336328E-16   0.4375000007E+01
   0.1054627414E+01   0.9726775429E+00  -0.2793718156E-16  -0.2250000000E-02   0.1122750000E-02  -0.7417711462E-18   0.5687741413E-01  -0.2844520707E-01  -0.2719541041E-16  -0.4375000006E+01   0.2454869234E-13   0.2243635121E-13  -0.8755869150E-15   0.2115197634E-14   0.3785639322E-16   0.5462741421E-01  -0.2732245710E-01  -0.2732245710E-01  -0.8747259391E-16   0.6456140259E-16  -0.2919144659E-16   0.4375000006E+01
   0.0000000000E+00   0.9726775429E+00  -0.1861522764E-16   0.0000000000E+00   0.1122750000E-02   0.9560214938E-19   0.0000000000E+00  -0.2844520707E-01  -0.1871082979E-16  -0.4375000006E+01   0.2870632354E-13   0.2598695426E-13  -0.6358852389E-15  -0.1153953280E-14  -0.3439450568E-15   0.5462741421E-01  -0.2732245711E-01  -0.2732245711E-01  -0.1273805811E-16  -0.2726220749E-16  -0.1569415409E-16   0.4375000006E+01
   0.0000000000E+00   0.0000000000E+00   0.9726775429E+00   0.0000000000E+00   0.0000000000E+00   0.1122750000E-02   0.0000000000E+00   0.0000000000E+00  -0.2844520707E-01  -0.4375000006E+01  -0.1648058741E-13  -0.1237596634E-13  -0.7665258689E-16  -0.8771725006E-15   0.4437508828E-15   0.5462741421E-01  -0.2732245711E-01  -0.2732245711E-01   0.1011120153E-17  -0.3919121268E-16  -0.3718752626E-16   0.4375000006E+01
   0.1054627414E+01   0.0000000000E+00   0.9726775429E+00  -0.2250000000E-02   0.0000000000E+00   0.1122750000E-02   0.5687741413E-01   0.0000000000E+00  -0.2844520707E-01  -0.4375000006E+01   0.1113848753E-13   0.1383860607E-13   0.6306076352E-15   0.8917059228E-15   0.4024880513E-15   0.5462741421E-01  -0.2732245710E-01  -0.2732245710E-01   0.3753956021E-18  -0.5582751843E-17   0.9214746609E-17   0.4375000006E+01
   0.1054627414E+01   0.9726775429E+00   0.9726775429E+00  -0.2250000000E-02   0.1122750000E-02   0.1122750000E-02   0.5687741413E-01  -0.2844520707E-01  -0.2844520707E-01  -0.4375000006E+01  -0.2527205435E-13  -0.2367418769E-13   0.7708868246E-15   0.3112294032E-15  -0.1178685923E-14   0.5462741420E-01  -0.2732245710E-01  -0.2732245710E-01   0.2008034172E-16   0.6129829190E-16   0.1999765619E-17   0.4375000006E+01
   0.0000000000E+00   0.9726775429E+00   0.9726775429E+00   0.0000000000E+00   0.1122750000E-02   0.1122750000E-02   0.0000000000E+00  -0.2844520707E-01  -0.2844520707E-01  -0.4375000006E+01  -0.6727960582E-14  -0.5899278791E-14  -0.5420554104E-16  -0.9984490159E-15  -0.9373327345E-15   0.5462741421E-01  -0.2732245710E-01  -0.2732245710E-01  -0.4608360177E-16  -0.2249336225E-16  -0.1038975578E-16   0.4375000006E+01
   0.2109254828E+01   0.0000000000E+00  -0.9127059403E-18  -0.4500000000E-02   0.0000000000E+00  -0.1910347220E-17   0.1137548283E+00   0.0000000000E+00   0.9976412800E-18  -0.4375000007E+01  -0.5750401393E-13  -0.5585209508E-13   0.1108440086E-15   0.1619387586E-14  -0.7347976373E-15   0.5462741421E-01  -0.2732245711E-01  -0.2732245711E-01  -0.1481499638E-15   0.4249541745E-16  -0.1473437012E-16   0.4375000007E+01
   0.2109254828E+01   0.9726775429E+00  -0.1278694838E-16  -0.4500000000E-02   0.1122750000E-02  -0.1479503118E-17   0.1137548283E+00  -0.2844520707E-01  -0.1130744527E-16  -0.4375000006E+01  -0.4681638523E-15  -0.4040767164E-16  -0.1097305199E-14  -0.4687293767E-14   0.7931112529E-16   0.5462741421E-01  -0.2732245710E-01  -0.2732245710E-01  -0.1733615146E-15   0.1929472895E-15   0.6201075160E-16   0.4375000006E+01
   0.2109254828E+01   0.0000000000E+00   0.9726775429E+00  -0.4500000000E-02   0.0000000000E+00   0.1122750000E-02   0.1137548283E+00   0.0000000000E+00  -0.2844520707E-01  -0.4375000006E+01  -0.5537637126E-13  -0.5947515699E-13  -0.1457329473E-14  -0.1885254942E-14   0.1039776962E-15   0.5462741421E-01  -0.2732245710E-01  -0.2732245710E-01  -0.1905833802E-16   0.4686128300E-16  -0.3528599339E-16   0.4375000006E+01
   0.2109254828E+01   0.9726775429E+00   0.9726775429E+00  -0.4500000000E-02   0.1122750000E-02   0.1122750000E-02   0.1137548283E+00  -0.2844520707E-01  -0.2844520707E-01  -0.4375000006E+01  -0.6785787305E-13  -0.6888682209E-13  -0.5230449411E-15   0.1657453241E-14   0.9197133506E-15   0.5462741420E-01  -0.2732245710E-01  -0.2732245710E-01   0.9928365703E-16   0.1816696230E-15   0.4334091436E-16   0.4375000006E+01
     1     2     3     4     5     6     7     8
     2     9    10     3     6    11    12     7
 VARIABLES = X,Y,Z,DU1,DU2,DU3,U1,U2,U3,S11,S22,S33,S12,S13,S23,E11,E22,E33,E12,E13,E23,SMISES
 ZONE, T="0.3800D+01" F=FEPOINT, I=   12 J=    2 ET=BRICK
   0.0000000000E+00   0.0000000000E+00   0.0000000000E+00   0.0000000000E+00   0.0000000000E+00   0.0000000000E+00   0.0000000000E+00   0.0000000000E+00   0.0000000000E+00  -0.5500000009E+01   0.3541480913E-14   0.1418785113E-14   0.1762968598E-15  -0.3693212701E-15   0.8282887954E-15   0.5237741421E-01  -0.2619970711E-01  -0.2619970711E-01  -0.1702646644E-17  -0.2735660838E-16  -0.4392823964E-16   0.5500000009E+01
   0.1052377414E+01   0.0000000000E+00  -0.1141264997E-16  -0.2250000000E-02   0.0000000000E+00   0.1671575814E-17   0.5462741413E-01   0.0000000000E+00  -0.1308422578E-16  -0.5500000008E+01  -0.9664998372E-13  -0.9665396921E-13  -0.2745950639E-15   0.2081284446E-15   0.3612070498E-15   0.5237741421E-01  -0.2619970711E-01  -0.2619970711E-01  -0.6292995670E-16  -0.3138625973E-16  -0.1956325406E-16   0.5500000008E+01
   0.1052377414E+01   0.9738002929E+00  -0.2754208765E-16  -0.2250000000E-02   0.1122750000E-02   0.3950939079E-18   0.5462741413E-01  -0.2732245707E-01  -0.2793718156E-16  -0.5500000008E+01   0.5149352519E-13   0.4974001376E-13  -0.9642953806E-15   0.1999688637E-14   0.4056597753E-15   0.5237741421E-01  -0.2619970710E-01  -0.2619970710E-01  -0.9235573693E-16   0.8351691834E-16  -0.4731813029E-16   0.5500000008E+01
   0.0000000000E+00   0.9738002929E+00  -0.1921527652E-16   0.0000000000E+00   0.1122750000E-02  -0.6000488769E-18   0.0000000000E+00  -0.2732245707E-01  -0.1861522764E-16  -0.5500000008E+01  -0.1049117316E-12  -0.1077237975E-12  -0.6219808201E-15  -0.1048759347E-14  -0.1595534670E-16   0.5237741421E-01  -0.2619970710E-01  -0.2619970710E-01  -0.1097904032E-16  -0.2732486869E-16  -0.2462458232E-16   0.5500000008E+01
   0.0000000000E+00   0.0000000000E+00   0.9738002929E+00   0.0000000000E+00   0.0000000000E+00   0.1122750000E-02   0.0000000000E+00   0.0000000000E+00  -0.2732245707E-01  -0.5500000008E+01   0.4295740981E-13   0.4672551243E-13  -0.8120832183E-16  -0.8272123486E-15   0.9281897340E-16   0.5237741421E-01  -0.2619970710E-01  -0.2619970710E-01   0.3207842854E-17  -0.4737869190E-16  -0.1946473110E-16   0.5500000008E+01
   0.1052377414E+01   0.0000000000E+00   0.9738002929E+00  -0.2250000000E-02   0.0000000000E+00   0.1122750000E-02   0.5462741413E-01   0.0000000000E+00  -0.2732245707E-01  -0.5500000008E+01   0.1066066541E-13   0.1280965802E-13   0.8028112878E-15   0.9458746387E-15   0.8287856766E-17   0.5237741421E-01  -0.2619970710E-01  -0.2619970710E-01  -0.1215524897E-16   0.1971904683E-16  -0.1773338139E-16   0.5500000008E+01
   0.1052377414E+01   0.9738002929E+00   0.9738002929E+00  -0.2250000000E-02   0.1122750000E-02   0.1122750000E-02   0.5462741413E-01  -0.2732245707E-01  -0.2732245707E-01  -0.5500000007E+01  -0.4805737280E-14  -0.3740136892E-14   0.1003214963E-14   0.3092499984E-15  -0.1082081125E-14   0.5237741420E-01  -0.2619970710E-01  -0.2619970710E-01   0.1899870631E-16   0.8973905548E-17  -0.1779856949E-16   0.5500000007E+01
   0.0000000000E+00   0.9738002929E+00   0.9738002929E+00   0.0000000000E+00   0.1122750000E-02   0.1122750000E-02   0.0000000000E+00  -0.2732245707E-01  -0.2732245707E-01  -0.5500000007E+01  -0.3208994956E-13  -0.3201757139E-13  -0.4666951940E-16  -0.1017608709E-14  -0.8520980632E-15   0.5237741420E-01  -0.2619970710E-01  -0.2619970710E-01  -0.5565247934E-16  -0.5111754925E-17   0.2543413378E-16   0.5500000007E+01
   0.2104754828E+01   0.0000000000E+00   0.3930616548E-17  -0.4500000000E-02   0.0000000000E+00   0.4843322488E-17   0.1092548283E+00   0.0000000000E+00  -0.9127059403E-18  -0.5500000008E+01  -0.5488124343E-13  -0.5178112438E-13   0.7523474971E-15   0.1291744323E-14  -0.8394280674E-15   0.5237741421E-01  -0.2619970711E-01  -0.2619970711E-01  -0.1865806589E-15   0.2597748101E-16  -0.3570008989E-16   0.5500000008E+01
   0.2104754828E+01   0.9738002929E+00  -0.8414797588E-17  -0.4500000000E-02   0.1122750000E-02   0.4372150796E-17   0.1092548283E+00  -0.2732245707E-01  -0.1278694838E-16  -0.5500000008E+01   0.1298866920E-12   0.1308432629E-12  -0.5577496457E-15  -0.4675347543E-14   0.6459364075E-15   0.5237741421E-01  -0.2619970710E-01  -0.2619970710E-01  -0.1938556728E-15   0.2088255858E-15   0.1020480632E-15   0.5500000008E+01
   0.2104754828E+01   0.0000000000E+00   0.9738002929E+00  -0.4500000000E-02   0.0000000000E+00   0.1122750000E-02   0.1092548283E+00   0.0000000000E+00  -0.2732245707E-01  -0.5500000008E+01   0.9752741092E-13   0.9371361803E-13  -0.1082095004E-14  -0.1736985237E-14  -0.3914345049E-15   0.5237741421E-01  -0.2619970710E-01  -0.2619970710E-01   0.3042096473E-16   0.5281983607E-16  -0.1956512913E-16   0.5500000008E+01
   0.2104754828E+01   0.9738002929E+00   0.9738002929E+00  -0.4500000000E-02   0.1122750000E-02   0.1122750000E-02   0.1092548283E+00  -0.2732245707E-01  -0.2732245707E-01  -0.5500000007E+01  -0.5871611494E-13  -0.6033483412E-13  -0.2068061432E-15   0.1417810329E-14   0.1085350649E-14   0.5237741420E-01  -0.2619970710E-01  -0.2619970710E-01   0.1097362779E-15   0.1995952117E-15   0.3001204931E-16   0.5500000007E+01
     1     2     3     4     5     6     7     8
     2     9    10     3     6    11    12     7
 VARIABLES = X,Y,Z,DU1,DU2,DU3,U1,U2,U3,S11,S22,S33,S12,S13,S23,E11,E22,E33,E12,E13,E23,SMISES
 ZONE, T="0.3850D+01" F=FEPOINT, I=   12 J=    2 ET=BRICK
   0.0000000000E+00   0.0000000000E+00   0.0000000000E+00   0.0000000000E+00   0.0000000000E+00   0.0000000000E+00   0.0000000000E+00   0.0000000000E+00   0.0000000000E+00  -0.6625000010E+01   0.2800323035E-13   0.2633750508E-13   0.2137986105E-15  -0.5104128307E-15   0.6821426218E-15   0.5012741421E-01  -0.2507695711E-01  -0.2507695711E-01  -0.1241625749E-17  -0.4305695243E-16  -0.3908209944E-16   0.6625000010E+01
   0.1050127414E+01   0.0000000000E+00  -0.1176132575E-16  -0.2250000000E-02   0.0000000000E+00  -0.3486757755E-18   0.5237741413E-01   0.0000000000E+00  -0.1141264997E-16  -0.6625000010E+01   0.3341969287E-13   0.3304598908E-13  -0.5501589867E-15   0.1684088631E-15   0.4057905626E-15   0.5012741421E-01  -0.2507695710E-01  -0.2507695710E-01  -0.5182972869E-16   0.2506339963E-17  -0.3335808108E-16   0.6625000010E+01
   0.1050127414E+01   0.9749230429E+00  -0.2753458672E-16  -0.2250000000E-02   0.1122750000E-02   0.7500935051E-20   0.5237741413E-01  -0.2619970707E-01  -0.2754208765E-16  -0.6625000009E+01  -0.3326568867E-13  -0.3463859315E-13  -0.1070391677E-14   0.1994577583E-14   0.4514346992E-15   0.5012741420E-01  -0.2507695710E-01  -0.2507695710E-01  -0.6831626360E-16   0.4571638237E-16  -0.4217700330E-16   0.6625000009E+01
   0.0000000000E+00   0.9749230429E+00  -0.2035397612E-16   0.0000000000E+00   0.1122750000E-02  -0.1138699607E-17   0.0000000000E+00  -0.2619970707E-01  -0.1921527652E-16  -0.6625000010E+01   0.4435653314E-13   0.4145974189E-13  -0.6919952225E-15  -0.8215120620E-15  -0.3004951352E-15   0.5012741420E-01  -0.2507695710E-01  -0.2507695710E-01  -0.2904216958E-16  -0.1848402999E-16  -0.2024650281E-16   0.6625000010E+01
   0.0000000000E+00   0.0000000000E+00   0.9749230429E+00   0.0000000000E+00   0.0000000000E+00   0.1122750000E-02   0.0000000000E+00   0.0000000000E+00  -0.2619970707E-01  -0.6625000010E+01   0.2799384680E-13   0.3128320165E-13  -0.1074007457E-15  -0.5997409101E-15   0.2589539490E-15   0.5012741420E-01  -0.2507695710E-01  -0.2507695710E-01   0.3311412538E-17  -0.3499493765E-16  -0.1493886868E-16   0.6625000010E+01
   0.1050127414E+01   0.0000000000E+00   0.9749230429E+00  -0.2250000000E-02   0.0000000000E+00   0.1122750000E-02   0.5237741413E-01   0.0000000000E+00  -0.2619970707E-01  -0.6625000009E+01   0.1167640949E-13   0.1408409810E-13   0.6388543010E-15   0.9068981982E-15   0.1493636473E-15   0.5012741420E-01  -0.2507695710E-01  -0.2507695710E-01  -0.2208435931E-16   0.3625954997E-17  -0.2210089702E-16   0.6625000009E+01
   0.1050127414E+01   0.9749230429E+00   0.9749230429E+00  -0.2250000000E-02   0.1122750000E-02   0.1122750000E-02   0.5237741413E-01  -0.2619970707E-01  -0.2619970707E-01  -0.6625000009E+01  -0.5447350179E-13  -0.5313034564E-13   0.8645651392E-15   0.1622010585E-15  -0.1077751664E-14   0.5012741420E-01  -0.2507695710E-01  -0.2507695710E-01  -0.4991826615E-17   0.2207364785E-16   0.1608808405E-16   0.6625000009E+01
   0.0000000000E+00   0.9749230429E+00   0.9749230429E+00   0.0000000000E+00   0.1122750000E-02   0.1122750000E-02   0.0000000000E+00  -0.2619970707E-01  -0.2619970707E-01  -0.6625000009E+01  -0.5262306121E-14  -0.3902816930E-14  -0.1419442421E-15  -0.8912009570E-15  -0.5608696293E-15   0.5012741420E-01  -0.2507695710E-01  -0.2507695710E-01  -0.4503360640E-16  -0.1433434794E-16   0.6270493111E-17   0.6625000009E+01
   0.2100254828E+01   0.0000000000E+00   0.5342735616E-17  -0.4500000000E-02   0.0000000000E+00   0.1412119068E-17   0.1047548283E+00   0.0000000000E+00   0.3930616548E-17  -0.6625000010E+01   0.7072972041E-13   0.7392798022E-13  -0.2684965540E-15   0.8827086015E-15  -0.1020616094E-14   0.5012741421E-01  -0.2507695710E-01  -0.2507695710E-01  -0.1474238967E-15  -0.1930135475E-17  -0.2065253924E-16   0.6625000010E+01
   0.2100254828E+01   0.9749230429E+00  -0.8249702873E-17  -0.4500000000E-02   0.1122750000E-02   0.1650947153E-18   0.1047548283E+00  -0.2619970707E-01  -0.8414797588E-17  -0.6625000009E+01  -0.7792340497E-13  -0.7828767894E-13  -0.1210848287E-14  -0.3913760071E-14   0.3251001197E-15   0.5012741420E-01  -0.2507695710E-01  -0.2507695710E-01  -0.1773999858E-15   0.2026452070E-15   0.6474026544E-16   0.6625000009E+01
   0.2100254828E+01   0.0000000000E+00   0.9749230429E+00  -0.4500000000E-02   0.0000000000E+00   0.1122750000E-02   0.1047548283E+00   0.0000000000E+00  -0.2619970707E-01  -0.6625000009E+01   0.7007198776E-14   0.1356627719E-14  -0.1143791765E-14  -0.2445279596E-14  -0.3349502128E-15   0.5012741420E-01  -0.2507695710E-01  -0.2507695710E-01   0.1655497903E-16   0.5033648785E-17  -0.3564110060E-16   0.6625000009E+01
   0.2100254828E+01   0.9749230429E+00   0.9749230429E+00  -0.4500000000E-02   0.1122750000E-02   0.1122750000E-02   0.1047548283E+00  -0.2619970707E-01  -0.2619970707E-01  -0.6625000008E+01  -0.7712020216E-13  -0.7884250667E-13  -0.1277170729E-15   0.1582763277E-14   0.1190918491E-14   0.5012741420E-01  -0.2507695710E-01  -0.2507695710E-01   0.1189284022E-15   0.1413914899E-15   0.5512804365E-16   0.6625000008E+01
     1     2     3     4     5     6     7     8
     2     9    10     3     6    11    12     7
 VARIABLES = X,Y,Z,DU1,DU2,DU3,U1,U2,U3,S11,S22,S33,S12,S13,S23,E11,E22,E33,E12,E13,E23,SMISES
 ZONE, T="0.3900D+01" F=FEPOINT, I=   12 J=    2 ET=BRICK
   0.0000000000E+00   0.0000000000E+00   0.0000000000E+00   0.0000000000E+00   0.0000000000E+00   0.0000000000E+00   0.0000000000E+00   0.0000000000E+00   0.0000000000E+00  -0.7749966911E+01  -0.1655082844E-04  -0.1655082844E-04   0.1532394610E-15  -0.6254575508E-15   0.7905204141E-16   0.4347348073E-01  -0.2175224036E-01  -0.2175224036E-01  -0.4402575144E-17  -0.5021539047E-16  -0.5520111616E-16   0.7749950360E+01
   0.1043473481E+01   0.0000000000E+00  -0.1113861800E-16  -0.6653933474E-02   0.0000000000E+00   0.6227077502E-18   0.5012741413E-01   0.0000000000E+00  -0.1176132575E-16  -0.7749966910E+01  -0.1655082809E-04  -0.1655082809E-04  -0.1309032979E-15   0.8069203541E-16   0.1180581649E-15   0.4347348073E-01  -0.2175224036E-01  -0.2175224036E-01  -0.4488536481E-16   0.1422548448E-16  -0.3579802133E-16   0.7749950359E+01
   0.1043473481E+01   0.9782477597E+00  -0.2833135256E-16  -0.6653933474E-02   0.3324716737E-02  -0.7967658440E-18   0.5012741413E-01  -0.2507695707E-01  -0.2753458672E-16  -0.7749966909E+01  -0.1655082798E-04  -0.1655082798E-04  -0.5923292345E-15   0.1473717115E-14   0.1040253678E-14   0.4347348072E-01  -0.2175224036E-01  -0.2175224036E-01  -0.8226434981E-16   0.5456964435E-16  -0.1478751749E-16   0.7749950359E+01
   0.0000000000E+00   0.9782477597E+00  -0.2315166514E-16   0.0000000000E+00   0.3324716737E-02  -0.2797689011E-17   0.0000000000E+00  -0.2507695707E-01  -0.2035397612E-16  -0.7749966910E+01  -0.1655082791E-04  -0.1655082791E-04  -0.5607341288E-15  -0.4258978499E-15   0.2630843955E-15   0.4347348072E-01  -0.2175224036E-01  -0.2175224036E-01  -0.1971029984E-16  -0.2388362008E-16  -0.1919890467E-16   0.7749950359E+01
   0.0000000000E+00   0.0000000000E+00   0.9782477597E+00   0.0000000000E+00   0.0000000000E+00   0.3324716737E-02   0.0000000000E+00   0.0000000000E+00  -0.2507695707E-01  -0.7749966910E+01  -0.1655082788E-04  -0.1655082788E-04  -0.8203673931E-16  -0.6899159540E-15  -0.1480655489E-15   0.4347348072E-01  -0.2175224036E-01  -0.2175224036E-01  -0.9201500323E-17  -0.3828338486E-16  -0.1959766953E-16   0.7749950359E+01
   0.1043473481E+01   0.0000000000E+00   0.9782477597E+00  -0.6653933474E-02   0.0000000000E+00   0.3324716737E-02   0.5012741413E-01   0.0000000000E+00  -0.2507695707E-01  -0.7749966909E+01  -0.1655082798E-04  -0.1655082797E-04   0.7400032701E-15   0.9789185337E-15  -0.2188081348E-15   0.4347348072E-01  -0.2175224036E-01  -0.2175224036E-01   0.6556028830E-17   0.1275845551E-16  -0.1495607239E-16   0.7749950359E+01
   0.1043473481E+01   0.9782477597E+00   0.9782477597E+00  -0.6653933474E-02   0.3324716737E-02   0.3324716737E-02   0.5012741413E-01  -0.2507695707E-01  -0.2507695707E-01  -0.7749966908E+01  -0.1655082787E-04  -0.1655082787E-04   0.8061953949E-15   0.2316067644E-15  -0.6539247454E-15   0.4347348072E-01  -0.2175224036E-01  -0.2175224036E-01   0.9598757550E-17   0.3383173339E-16   0.8694674499E-17   0.7749950358E+01
   0.0000000000E+00   0.9782477597E+00   0.9782477597E+00   0.0000000000E+00   0.3324716737E-02   0.3324716737E-02   0.0000000000E+00  -0.2507695707E-01  -0.2507695707E-01  -0.7749966909E+01  -0.1655082804E-04  -0.1655082804E-04  -0.1281466042E-16  -0.7385871729E-15  -0.5450665081E-15   0.4347348072E-01  -0.2175224036E-01  -0.2175224036E-01  -0.5813055883E-16  -0.2501989099E-16  -0.6890893895E-17   0.7749950358E+01
   0.2086946961E+01   0.0000000000E+00   0.1099231875E-16  -0.1330786695E-01   0.0000000000E+00   0.5649583135E-17   0.1002548283E+00   0.0000000000E+00   0.5342735616E-17  -0.7749966910E+01  -0.1655082735E-04  -0.1655082734E-04   0.1790422575E-15   0.8012809473E-15  -0.1121350110E-14   0.4347348072E-01  -0.2175224036E-01  -0.2175224036E-01  -0.1864963992E-15  -0.4649620660E-16  -0.2311941178E-16   0.7749950359E+01
   0.2086946961E+01   0.9782477597E+00  -0.4258550260E-17  -0.1330786695E-01   0.3324716737E-02   0.3991152613E-17   0.1002548283E+00  -0.2507695707E-01  -0.8249702873E-17  -0.7749966909E+01  -0.1655082780E-04  -0.1655082779E-04  -0.6141699364E-15  -0.3628601979E-14   0.5916029240E-15   0.4347348072E-01  -0.2175224036E-01  -0.2175224036E-01  -0.1937454466E-15   0.2230586954E-15   0.6559189415E-16   0.7749950358E+01
   0.2086946961E+01   0.0000000000E+00   0.9782477597E+00  -0.1330786695E-01   0.0000000000E+00   0.3324716737E-02   0.1002548283E+00   0.0000000000E+00  -0.2507695707E-01  -0.7749966909E+01  -0.1655082805E-04  -0.1655082805E-04  -0.1925003101E-15  -0.2464012618E-14  -0.8085949506E-15   0.4347348072E-01  -0.2175224036E-01  -0.2175224036E-01   0.5340061962E-16  -0.6538956422E-16  -0.5800122547E-16   0.7749950358E+01
   0.2086946961E+01   0.9782477597E+00   0.9782477597E+00  -0.1330786695E-01   0.3324716737E-02   0.3324716737E-02   0.1002548283E+00  -0.2507695707E-01  -0.2507695707E-01  -0.7749966908E+01  -0.1655082777E-04  -0.1655082777E-04   0.2810184112E-15   0.1569107432E-14   0.1091270080E-14   0.4347348071E-01  -0.2175224036E-01  -0.2175224036E-01   0.1521658157E-15   0.1508051418E-15   0.8970786624E-16   0.7749950357E+01
     1     2     3     4     5     6     7     8
     2     9    10     3     6    11    12     7
 VARIABLES = X,Y,Z,DU1,DU2,DU3,U1,U2,U3,S11,S22,S33,S12,S13,S23,E11,E22,E33,E12,E13,E23,SMISES
 ZONE, T="0.3950D+01" F=FEPOINT, I=   12 J=    2 ET=BRICK
   0.0000000000E+00   0.0000000000E+00   0.0000000000E+00   0.0000000000E+00   0.0000000000E+00   0.0000000000E+00   0.0000000000E+00   0.0000000000E+00   0.0000000000E+00  -0.8875012697E+01   0.6341591307E-05   0.6341591307E-05   0.2509911899E-16   0.5883510210E-17   0.1081861748E-14   0.2014475082E-01  -0.1009012541E-01  -0.1009012541E-01  -0.6519463663E-17  -0.4686943514E-16  -0.1861240391E-16   0.8875019039E+01
   0.1020144751E+01   0.0000000000E+00  -0.1109337992E-16  -0.2332872987E-01   0.0000000000E+00   0.4523807534E-19   0.4347348066E-01   0.0000000000E+00  -0.1113861800E-16  -0.8875012697E+01   0.6341592310E-05   0.6341592309E-05  -0.3532945134E-18  -0.3195409524E-15   0.7370696919E-15   0.2014475082E-01  -0.1009012541E-01  -0.1009012541E-01  -0.4570629008E-16   0.1570003263E-16  -0.1653180380E-16   0.8875019038E+01
   0.1020144751E+01   0.9899098746E+00  -0.1993212860E-16  -0.2332872987E-01   0.1166211494E-01   0.8399223964E-17   0.4347348066E-01  -0.2175224033E-01  -0.2833135256E-16  -0.8875012696E+01   0.6341591214E-05   0.6341591212E-05  -0.4995680212E-15   0.1148652165E-14   0.1676176363E-15   0.2014475082E-01  -0.1009012541E-01  -0.1009012541E-01  -0.5627369682E-16   0.2605371015E-16  -0.1834889523E-16   0.8875019037E+01
   0.0000000000E+00   0.9899098746E+00  -0.7461607049E-17   0.0000000000E+00   0.1166211494E-01   0.1569005809E-16   0.0000000000E+00  -0.2175224033E-01  -0.2315166514E-16  -0.8875012696E+01   0.6341591848E-05   0.6341591845E-05  -0.1818285351E-18  -0.7148733282E-15   0.4130216881E-15   0.2014475082E-01  -0.1009012541E-01  -0.1009012541E-01  -0.2783467385E-16  -0.2361205264E-16  -0.2024130377E-16   0.8875019038E+01
   0.0000000000E+00   0.0000000000E+00   0.9899098746E+00   0.0000000000E+00   0.0000000000E+00   0.1166211494E-01   0.0000000000E+00   0.0000000000E+00  -0.2175224033E-01  -0.8875012696E+01   0.6341592211E-05   0.6341592214E-05  -0.4546861778E-16  -0.1000459976E-14   0.3775666601E-15   0.2014475082E-01  -0.1009012541E-01  -0.1009012541E-01   0.7028045613E-17  -0.3200238388E-16  -0.3333255270E-16   0.8875019038E+01
   0.1020144751E+01   0.0000000000E+00   0.9899098746E+00  -0.2332872987E-01   0.0000000000E+00   0.1166211494E-01   0.4347348066E-01   0.0000000000E+00  -0.2175224033E-01  -0.8875012696E+01   0.6341591411E-05   0.6341591414E-05   0.1176404169E-14   0.4966149331E-15   0.3105029358E-15   0.2014475082E-01  -0.1009012541E-01  -0.1009012541E-01   0.7398783234E-18  -0.3896280914E-16   0.8004598069E-17   0.8875019037E+01
   0.1020144751E+01   0.9899098746E+00   0.9899098746E+00  -0.2332872987E-01   0.1166211494E-01   0.1166211494E-01   0.4347348066E-01  -0.2175224033E-01  -0.2175224033E-01  -0.8875012695E+01   0.6341592050E-05   0.6341592051E-05   0.1296298761E-14   0.1994600328E-15  -0.1214331245E-14   0.2014475081E-01  -0.1009012541E-01  -0.1009012541E-01   0.8548016368E-17   0.4367109939E-16  -0.3446213183E-16   0.8875019036E+01
   0.0000000000E+00   0.9899098746E+00   0.9899098746E+00   0.0000000000E+00   0.1166211494E-01   0.1166211494E-01   0.0000000000E+00  -0.2175224033E-01  -0.2175224033E-01  -0.8875012695E+01   0.6341591191E-05   0.6341591192E-05   0.1077899518E-15   0.2057492502E-15  -0.2069225816E-14   0.2014475081E-01  -0.1009012541E-01  -0.1009012541E-01  -0.4488864281E-16  -0.7054502890E-17  -0.1844932157E-17   0.8875019037E+01
   0.2040289502E+01   0.0000000000E+00  -0.2532604583E-17  -0.4665745974E-01   0.0000000000E+00  -0.1352492333E-16   0.8694696132E-01   0.0000000000E+00   0.1099231875E-16  -0.8875012697E+01   0.6341592505E-05   0.6341592506E-05  -0.1175653282E-15   0.1309681377E-14  -0.2607735187E-15   0.2014475082E-01  -0.1009012541E-01  -0.1009012541E-01  -0.1843455801E-15   0.3513022310E-16  -0.1936660801E-16   0.8875019038E+01
   0.2040289502E+01   0.9899098746E+00  -0.1468751213E-16  -0.4665745974E-01   0.1166211494E-01  -0.1042896187E-16   0.8694696132E-01  -0.2175224033E-01  -0.4258550260E-17  -0.8875012696E+01   0.6341589221E-05   0.6341589222E-05  -0.1405900435E-14  -0.3084133419E-14  -0.3587127283E-15   0.2014475081E-01  -0.1009012541E-01  -0.1009012541E-01  -0.2183796683E-15   0.2132861951E-15   0.5930861257E-16   0.8875019037E+01
   0.2040289502E+01   0.0000000000E+00   0.9899098746E+00  -0.4665745974E-01   0.0000000000E+00   0.1166211494E-01   0.8694696132E-01   0.0000000000E+00  -0.2175224033E-01  -0.8875012696E+01   0.6341590753E-05   0.6341590751E-05   0.3089752978E-16  -0.1013350552E-14  -0.2747813025E-15   0.2014475081E-01  -0.1009012541E-01  -0.1009012541E-01   0.6765050636E-16   0.3172603655E-17  -0.4164289188E-16   0.8875019037E+01
   0.2040289502E+01   0.9899098746E+00   0.9899098746E+00  -0.4665745974E-01   0.1166211494E-01   0.1166211494E-01   0.8694696132E-01  -0.2175224033E-01  -0.2175224033E-01  -0.8875012695E+01   0.6341592527E-05   0.6341592525E-05   0.3964903647E-15   0.2960288607E-14   0.8568797733E-15   0.2014475081E-01  -0.1009012541E-01  -0.1009012541E-01   0.1674463921E-15   0.1247663208E-15   0.8261300040E-16   0.8875019036E+01
     1     2     3     4     5     6     7     8
     2     9    10     3     6    11    12     7
 VARIABLES = X,Y,Z,DU1,DU2,DU3,U1,U2,U3,S11,S22,S33,S12,S13,S23,E11,E22,E33,E12,E13,E23,SMISES
 ZONE, T="0.4000D+01" F=FEPOINT, I=   12 J=    2 ET=BRICK
   0.0000000000E+00   0.0000000000E+00   0.0000000000E+00   0.0000000000E+00   0.0000000000E+00   0.0000000000E+00   0.0000000000E+00   0.0000000000E+00   0.0000000000E+00  -0.1000000668E+02   0.3330850394E-05   0.3330850392E-05   0.7817566966E-17   0.4666112442E-15   0.6292123199E-15  -0.4605064035E-02   0.2282532017E-02   0.2282532017E-02   0.2167719008E-17  -0.1949953061E-16  -0.1270068936E-16   0.1000001001E+02
   0.9953949360E+00   0.0000000000E+00  -0.4905847273E-17  -0.2474981481E-01   0.0000000000E+00   0.6187532648E-17   0.2014475079E-01   0.0000000000E+00  -0.1109337992E-16  -0.1000000668E+02   0.3330849437E-05   0.3330849439E-05  -0.8380633665E-15  -0.8755813878E-15   0.6978885657E-16  -0.4605064034E-02   0.2282532017E-02   0.2282532017E-02  -0.7880683107E-16  -0.4145665070E-16  -0.2443249839E-16   0.1000001001E+02
   0.9953949360E+00   0.1002282532E+01  -0.1629341726E-16  -0.2474981481E-01   0.1237265741E-01   0.3638711341E-17   0.2014475079E-01  -0.1009012539E-01  -0.1993212860E-16  -0.1000000668E+02   0.3330850453E-05   0.3330850451E-05  -0.1070197165E-14   0.1221984827E-14   0.7369922086E-15  -0.4605064034E-02   0.2282532017E-02   0.2282532017E-02  -0.9235659494E-16   0.9346953280E-16   0.1174503687E-17   0.1000001001E+02
   0.0000000000E+00   0.1002282532E+01  -0.6719538627E-17   0.0000000000E+00   0.1237265741E-01   0.7420684220E-18   0.0000000000E+00  -0.1009012539E-01  -0.7461607049E-17  -0.1000000668E+02   0.3330850093E-05   0.3330850092E-05  -0.2820855416E-15  -0.4974385790E-15   0.5445172734E-15  -0.4605064034E-02   0.2282532017E-02   0.2282532017E-02  -0.2122474530E-16  -0.4590179650E-16  -0.8841260372E-17   0.1000001001E+02
   0.0000000000E+00   0.0000000000E+00   0.1002282532E+01   0.0000000000E+00   0.0000000000E+00   0.1237265741E-01   0.0000000000E+00   0.0000000000E+00  -0.1009012539E-01  -0.1000000668E+02   0.3330850120E-05   0.3330850122E-05  -0.1205002200E-15   0.3184769772E-15   0.6836197442E-15  -0.4605064034E-02   0.2282532017E-02   0.2282532017E-02  -0.3359469385E-17  -0.2307927102E-16  -0.6588547902E-17   0.1000001001E+02
   0.9953949360E+00   0.0000000000E+00   0.1002282532E+01  -0.2474981481E-01   0.0000000000E+00   0.1237265741E-01   0.2014475079E-01   0.0000000000E+00  -0.1009012539E-01  -0.1000000668E+02   0.3330850459E-05   0.3330850459E-05   0.1430155868E-14  -0.6768603651E-15  -0.6525400963E-15  -0.4605064034E-02   0.2282532017E-02   0.2282532017E-02   0.3156989821E-16  -0.2302892815E-16  -0.3293481166E-16   0.1000001001E+02
   0.9953949360E+00   0.1002282532E+01   0.1002282532E+01  -0.2474981481E-01   0.1237265741E-01   0.1237265741E-01   0.2014475079E-01  -0.1009012539E-01  -0.1009012539E-01  -0.1000000667E+02   0.3330849737E-05   0.3330849736E-05   0.1068481473E-14   0.1351537307E-14  -0.1117135452E-14  -0.4605064033E-02   0.2282532017E-02   0.2282532017E-02   0.3818214286E-16   0.4656222077E-16  -0.1538499247E-16   0.1000001001E+02
   0.0000000000E+00   0.1002282532E+01   0.1002282532E+01   0.0000000000E+00   0.1237265741E-01   0.1237265741E-01   0.0000000000E+00  -0.1009012539E-01  -0.1009012539E-01  -0.1000000668E+02   0.3330849996E-05   0.3330849997E-05   0.2671396465E-15  -0.1050005452E-14  -0.3381688034E-15  -0.4605064034E-02   0.2282532017E-02   0.2282532017E-02  -0.4559132560E-16  -0.2467313504E-16  -0.2640522170E-16   0.1000001001E+02
   0.1990789872E+01   0.0000000000E+00   0.8264526584E-17  -0.4949962963E-01   0.0000000000E+00   0.1079713117E-16   0.4028950157E-01   0.0000000000E+00  -0.2532604583E-17  -0.1000000668E+02   0.3330849295E-05   0.3330849298E-05   0.3264056722E-14  -0.5808671353E-17   0.6770743381E-15  -0.4605064034E-02   0.2282532017E-02   0.2282532017E-02  -0.8113462990E-16   0.5295611294E-16  -0.1251974997E-17   0.1000001001E+02
   0.1990789872E+01   0.1002282532E+01   0.5632239129E-17  -0.4949962963E-01   0.1237265741E-01   0.2031975126E-16   0.4028950157E-01  -0.1009012539E-01  -0.1468751213E-16  -0.1000000668E+02   0.3330851070E-05   0.3330851070E-05   0.2942004483E-14  -0.2844634222E-14   0.1131309382E-14  -0.4605064034E-02   0.2282532017E-02   0.2282532017E-02  -0.1134714949E-15   0.1686665371E-15   0.8560779759E-16   0.1000001001E+02
   0.1990789872E+01   0.0000000000E+00   0.1002282532E+01  -0.4949962963E-01   0.0000000000E+00   0.1237265741E-01   0.4028950157E-01   0.0000000000E+00  -0.1009012539E-01  -0.1000000668E+02   0.3330850819E-05   0.3330850822E-05  -0.1135834624E-14   0.2545326196E-14  -0.1197452291E-14  -0.4605064034E-02   0.2282532017E-02   0.2282532017E-02   0.3845367068E-16   0.1302735561E-16  -0.6151800422E-16   0.1000001001E+02
   0.1990789872E+01   0.1002282532E+01   0.1002282532E+01  -0.4949962963E-01   0.1237265741E-01   0.1237265741E-01   0.4028950157E-01  -0.1009012539E-01  -0.1009012539E-01  -0.1000000667E+02   0.3330848983E-05   0.3330848981E-05  -0.1028671303E-14  -0.1385887140E-14   0.5800215867E-15  -0.4605064033E-02   0.2282532017E-02   0.2282532017E-02   0.1345744600E-15   0.1411429277E-15   0.5374811578E-16   0.1000001001E+02
     1     2     3     4     5     6     7     8
     2     9    10     3     6    11    12     7
 VARIABLES = X,Y,Z,DU1,DU2,DU3,U1,U2,U3,S11,S22,S33,S12,S13,S23,E11,E22,E33,E12,E13,E23,SMISES
 ZONE, T="0.4050D+01" F=FEPOINT, I=   12 J=    2 ET=BRICK
   0.0000000000E+00   0.0000000000E+00   0.0000000000E+00   0.0000000000E+00   0.0000000000E+00   0.0000000000E+00   0.0000000000E+00   0.0000000000E+00   0.0000000000E+00  -0.8875000014E+01   0.1373088958E-11   0.1827678111E-11  -0.7662227652E-17   0.4638786237E-12   0.1325036056E-12  -0.2355044059E-02   0.1159772030E-02   0.1159772030E-02  -0.9252383032E-18   0.5539996332E-14   0.1568104442E-14   0.8875000014E+01
   0.9976449559E+00   0.0000000000E+00   0.2859696010E-14   0.2250019972E-02   0.0000000000E+00   0.2864601857E-14  -0.4605064027E-02   0.0000000000E+00  -0.4905847273E-17  -0.8875000014E+01   0.6716816203E-12   0.7807748647E-12   0.1137886144E-12   0.3082169456E-12  -0.1334578717E-12  -0.2355044059E-02   0.1159772030E-02   0.1159772030E-02   0.1299436395E-14   0.3670101126E-14  -0.1623818389E-14   0.8875000014E+01
   0.9976449559E+00   0.1001159772E+01   0.2047510634E-14   0.2250019972E-02  -0.1122759986E-02   0.2063804051E-14  -0.4605064027E-02   0.2282532014E-02  -0.1629341726E-16  -0.8875000013E+01   0.6305803927E-12   0.5154801175E-12   0.1042098712E-12   0.1871918373E-12   0.6562319849E-13  -0.2355044059E-02   0.1159772029E-02   0.1159772029E-02   0.1161942204E-14   0.2299739729E-14   0.7653453585E-15   0.8875000013E+01
   0.0000000000E+00   0.1001159772E+01   0.7839857852E-15   0.0000000000E+00  -0.1122759986E-02   0.7907053238E-15   0.0000000000E+00   0.2282532014E-02  -0.6719538627E-17  -0.8875000013E+01   0.4335641528E-12   0.6507622257E-12   0.1267254121E-12   0.1260500281E-12   0.3262711242E-12  -0.2355044059E-02   0.1159772029E-02   0.1159772029E-02   0.1504296821E-14   0.1482712864E-14   0.3901826865E-14   0.8875000013E+01
   0.0000000000E+00   0.0000000000E+00   0.1001159772E+01   0.0000000000E+00   0.0000000000E+00  -0.1122759986E-02   0.0000000000E+00   0.0000000000E+00   0.2282532014E-02  -0.8875000013E+01   0.1183279247E-11   0.1253236321E-11  -0.1009888203E-15   0.3254188948E-12   0.1337241345E-13  -0.2355044059E-02   0.1159772029E-02   0.1159772029E-02   0.1325295769E-18   0.3875267001E-14   0.1315683476E-15   0.8875000013E+01
   0.9976449559E+00   0.0000000000E+00   0.1001159772E+01   0.2250019972E-02   0.0000000000E+00  -0.1122759986E-02  -0.4605064027E-02   0.0000000000E+00   0.2282532014E-02  -0.8875000013E+01  -0.1796011750E-12  -0.4696634291E-12   0.1153517360E-12   0.3070696152E-12  -0.2445713483E-12  -0.2355044059E-02   0.1159772029E-02   0.1159772029E-02   0.1386750243E-14   0.3662418413E-14  -0.2953425195E-14   0.8875000013E+01
   0.9976449559E+00   0.1001159772E+01   0.1001159772E+01   0.2250019972E-02  -0.1122759986E-02  -0.1122759986E-02  -0.4605064027E-02   0.2282532014E-02   0.2282532014E-02  -0.8875000012E+01   0.5874134480E-12   0.7704131833E-13   0.1113719787E-12   0.1920038958E-12  -0.4654739852E-13  -0.2355044059E-02   0.1159772029E-02   0.1159772029E-02   0.1367193846E-14   0.2337187933E-14  -0.5625720219E-15   0.8875000012E+01
   0.0000000000E+00   0.1001159772E+01   0.1001159772E+01   0.0000000000E+00  -0.1122759986E-02  -0.1122759986E-02   0.0000000000E+00   0.2282532014E-02   0.2282532014E-02  -0.8875000012E+01  -0.1339586443E-11  -0.1508849112E-11   0.1314500920E-12  -0.2621374123E-14   0.2061955913E-12  -0.2355044059E-02   0.1159772029E-02   0.1159772029E-02   0.1529731212E-14  -0.4244322832E-16   0.2466539388E-14   0.8875000012E+01
   0.1995289912E+01   0.0000000000E+00   0.6081589334E-14   0.4500039944E-02   0.0000000000E+00   0.6073324807E-14  -0.9210128055E-02   0.0000000000E+00   0.8264526584E-17  -0.8875000013E+01   0.7316826240E-12   0.1221232341E-11   0.2196701918E-12   0.1431471364E-12  -0.1127634788E-12  -0.2355044059E-02   0.1159772030E-02   0.1159772030E-02   0.2510263351E-14   0.1753074094E-14  -0.1365833494E-14   0.8875000013E+01
   0.1995289912E+01   0.1001159772E+01   0.5398822974E-14   0.4500039944E-02  -0.1122759986E-02   0.5393190735E-14  -0.9210128055E-02   0.2282532014E-02   0.5632239129E-17  -0.8875000012E+01  -0.1455034802E-11  -0.1182036431E-11   0.7381325594E-13   0.2423599708E-12   0.9249951523E-13  -0.2355044059E-02   0.1159772029E-02   0.1159772029E-02   0.7350839167E-15   0.3117418428E-14   0.1195544409E-14   0.8875000012E+01
   0.1995289912E+01   0.0000000000E+00   0.1001159772E+01   0.4500039944E-02   0.0000000000E+00  -0.1122759986E-02  -0.9210128055E-02   0.0000000000E+00   0.2282532014E-02  -0.8875000012E+01  -0.7036104382E-12  -0.6226368870E-12   0.2257435782E-12   0.2814064001E-12  -0.2213540097E-12  -0.2355044059E-02   0.1159772029E-02   0.1159772029E-02   0.2777497800E-14   0.3372159114E-14  -0.2695530798E-14   0.8875000012E+01
   0.1995289912E+01   0.1001159772E+01   0.1001159772E+01   0.4500039944E-02  -0.1122759986E-02  -0.1122759986E-02  -0.9210128055E-02   0.2282532014E-02   0.2282532014E-02  -0.8875000011E+01   0.3461655973E-12   0.2086459810E-12   0.8712739259E-13   0.3814851596E-12  -0.1474037001E-13  -0.2355044059E-02   0.1159772029E-02   0.1159772029E-02   0.1200014819E-14   0.4746204826E-14  -0.1351211846E-15   0.8875000011E+01
     1     2     3     4     5     6     7     8
     2     9    10     3     6    11    12     7
 VARIABLES = X,Y,Z,DU1,DU2,DU3,U1,U2,U3,S11,S22,S33,S12,S13,S23,E11,E22,E33,E12,E13,E23,SMISES
 ZONE, T="0.4100D+01" F=FEPOINT, I=   12 J=    2 ET=BRICK
   0.0000000000E+00   0.0000000000E+00   0.0000000000E+00   0.0000000000E+00   0.0000000000E+00   0.0000000000E+00   0.0000000000E+00   0.0000000000E+00   0.0000000000E+00  -0.7750000012E+01  -0.7212255835E-14  -0.9663498947E-14   0.3916621114E-16  -0.4931097312E-15   0.9429606627E-15  -0.1050440558E-03   0.3702202786E-04   0.3702202786E-04   0.3378017040E-18  -0.3031747057E-16  -0.9600909589E-17   0.7750000012E+01
   0.9998949559E+00   0.0000000000E+00  -0.9493595537E-17   0.2250000000E-02   0.0000000000E+00  -0.2869189605E-14  -0.2355044056E-02   0.0000000000E+00   0.2859696010E-14  -0.7750000012E+01  -0.1751760925E-13  -0.1691097229E-13  -0.1420359098E-14  -0.5188682260E-15   0.7854124851E-15  -0.1050440558E-03   0.3702202786E-04   0.3702202786E-04  -0.8354021296E-16  -0.2953168815E-16  -0.1438421187E-16   0.7750000012E+01
   0.9998949559E+00   0.1000037022E+01  -0.1690824579E-16   0.2250000000E-02  -0.1122750000E-02  -0.2064418880E-14  -0.2355044056E-02   0.1159772028E-02   0.2047510634E-14  -0.7750000011E+01  -0.1410139615E-13  -0.1632767710E-13  -0.1834921967E-14   0.1538495084E-14   0.2326964312E-15  -0.1050440558E-03   0.3702202785E-04   0.3702202785E-04  -0.1090543514E-15   0.7234453679E-16  -0.1722472609E-16   0.7750000011E+01
   0.0000000000E+00   0.1000037022E+01  -0.4863781363E-17   0.0000000000E+00  -0.1122750000E-02  -0.7888495666E-15   0.0000000000E+00   0.1159772028E-02   0.7839857852E-15  -0.7750000011E+01  -0.5034960301E-13  -0.5098598855E-13  -0.1563143488E-15  -0.5081498542E-15  -0.6539063323E-17  -0.1050440558E-03   0.3702202786E-04   0.3702202786E-04  -0.1767838925E-16  -0.3491551839E-16  -0.1013862699E-16   0.7750000011E+01
   0.0000000000E+00   0.0000000000E+00   0.1000037022E+01   0.0000000000E+00   0.0000000000E+00  -0.1122750000E-02   0.0000000000E+00   0.0000000000E+00   0.1159772028E-02  -0.7750000011E+01   0.4209914530E-13   0.4473179608E-13  -0.1487113765E-15  -0.4210340783E-15   0.1072821773E-14  -0.1050440558E-03   0.3702202786E-04   0.3702202786E-04  -0.1137497200E-17  -0.3231295989E-16  -0.1584725984E-16   0.7750000011E+01
   0.9998949559E+00   0.0000000000E+00   0.1000037022E+01   0.2250000000E-02   0.0000000000E+00  -0.1122750000E-02  -0.2355044056E-02   0.0000000000E+00   0.1159772028E-02  -0.7750000011E+01  -0.3377896083E-13  -0.3331309421E-13   0.1702634004E-14  -0.8620312517E-15   0.4252009607E-15  -0.1050440558E-03   0.3702202785E-04   0.3702202785E-04   0.2610330411E-16  -0.2760813054E-16  -0.1539369336E-16   0.7750000011E+01
   0.9998949559E+00   0.1000037022E+01   0.1000037022E+01   0.2250000000E-02  -0.1122750000E-02  -0.1122750000E-02  -0.2355044056E-02   0.1159772028E-02   0.1159772028E-02  -0.7750000010E+01   0.2035906786E-13   0.2211948235E-13   0.1822239418E-14   0.1848692048E-14  -0.1068168018E-14  -0.1050440557E-03   0.3702202785E-04   0.3702202785E-04   0.5077558084E-16   0.5512290574E-16  -0.1648617986E-16   0.7750000010E+01
   0.0000000000E+00   0.1000037022E+01   0.1000037022E+01   0.0000000000E+00  -0.1122750000E-02  -0.1122750000E-02   0.0000000000E+00   0.1159772028E-02   0.1159772028E-02  -0.7750000010E+01  -0.6701575917E-13  -0.6567260286E-13  -0.2173901745E-15  -0.6269505408E-15  -0.8086635804E-15  -0.1050440557E-03   0.3702202785E-04   0.3702202785E-04  -0.4744939058E-16  -0.1838020624E-16  -0.1620773229E-16   0.7750000010E+01
   0.1999789912E+01   0.0000000000E+00   0.3791545399E-17   0.4500000000E-02   0.0000000000E+00  -0.6077797788E-14  -0.4710088111E-02   0.0000000000E+00   0.6081589334E-14  -0.7750000012E+01   0.7485186581E-13   0.7467045827E-13  -0.1620169831E-14  -0.2245503623E-14  -0.9438634504E-15  -0.1050440558E-03   0.3702202786E-04   0.3702202786E-04  -0.1413150457E-15  -0.1128716746E-17  -0.2474883137E-16   0.7750000012E+01
   0.1999789912E+01   0.1000037022E+01  -0.8494325219E-17   0.4500000000E-02  -0.1122750000E-02  -0.5407317300E-14  -0.4710088111E-02   0.1159772028E-02   0.5398822974E-14  -0.7750000011E+01  -0.4951408803E-13  -0.5025352483E-13  -0.2423295289E-14  -0.2935594951E-15  -0.2199567025E-15  -0.1050440558E-03   0.3702202785E-04   0.3702202785E-04  -0.1788067340E-15   0.2110556892E-15   0.8252555760E-16   0.7750000011E+01
   0.1999789912E+01   0.0000000000E+00   0.1000037022E+01   0.4500000000E-02   0.0000000000E+00  -0.1122750000E-02  -0.4710088111E-02   0.0000000000E+00   0.1159772028E-02  -0.7750000011E+01  -0.3876535048E-13  -0.3738952847E-13   0.1089912951E-14   0.9663912014E-16  -0.1333001565E-14  -0.1050440558E-03   0.3702202785E-04   0.3702202785E-04   0.8033448484E-16  -0.1210022055E-17  -0.5672082085E-16   0.7750000011E+01
   0.1999789912E+01   0.1000037022E+01   0.1000037022E+01   0.4500000000E-02  -0.1122750000E-02  -0.1122750000E-02  -0.4710088111E-02   0.1159772028E-02   0.1159772028E-02  -0.7750000010E+01   0.4121075952E-13   0.3954250761E-13   0.2312209900E-14   0.6962047304E-15   0.5979659688E-15  -0.1050440557E-03   0.3702202785E-04   0.3702202785E-04   0.1848208947E-15   0.1721809763E-15   0.4887248893E-16   0.7750000010E+01
     1     2     3     4     5     6     7     8
     2     9    10     3     6    11    12     7
 VARIABLES = X,Y,Z,DU1,DU2,DU3,U1,U2,U3,S11,S22,S33,S12,S13,S23,E11,E22,E33,E12,E13,E23,SMISES
 ZONE, T="0.4150D+01" F=FEPOINT, I=   12 J=    2 ET=BRICK
   0.0000000000E+00   0.0000000000E+00   0.0000000000E+00   0.0000000000E+00   0.0000000000E+00   0.0000000000E+00   0.0000000000E+00   0.0000000000E+00   0.0000000000E+00  -0.6625000010E+01  -0.3922191959E-14  -0.6090435044E-14   0.3427105188E-16  -0.6667765987E-15   0.7766816513E-15   0.2144955948E-02  -0.1085727974E-02  -0.1085727974E-02  -0.3861667907E-19  -0.3173062193E-16  -0.1152167102E-16   0.6625000010E+01
   0.1002144956E+01   0.0000000000E+00  -0.1049249846E-16   0.2250000000E-02   0.0000000000E+00  -0.9989029193E-18  -0.1050440556E-03   0.0000000000E+00  -0.9493595537E-17  -0.6625000010E+01   0.1146591133E-14   0.1187228013E-14  -0.1412545865E-14  -0.5667288882E-15   0.8357698657E-15   0.2144955948E-02  -0.1085727974E-02  -0.1085727974E-02  -0.8320593012E-16  -0.3090860295E-16  -0.1441609037E-16   0.6625000010E+01
   0.1002144956E+01   0.9989142720E+00  -0.1761106680E-16   0.2250000000E-02  -0.1122750000E-02  -0.7028210038E-18  -0.1050440556E-03   0.3702202780E-04  -0.1690824579E-16  -0.6625000009E+01   0.4639955701E-13   0.4432493531E-13  -0.1766610718E-14   0.1402509258E-14   0.1619282056E-15   0.2144955947E-02  -0.1085727974E-02  -0.1085727974E-02  -0.1087661307E-15   0.6963030592E-16  -0.1819460582E-16   0.6625000009E+01
   0.0000000000E+00   0.9989142720E+00  -0.5766265635E-17   0.0000000000E+00  -0.1122750000E-02  -0.9024842720E-18   0.0000000000E+00   0.3702202780E-04  -0.4863781363E-17  -0.6625000010E+01   0.8732987022E-13   0.8661765506E-13  -0.1486710770E-15  -0.4258879565E-15  -0.2191014989E-15   0.2144955948E-02  -0.1085727974E-02  -0.1085727974E-02  -0.1732006270E-16  -0.3384007141E-16  -0.1234489986E-16   0.6625000010E+01
   0.0000000000E+00   0.0000000000E+00   0.9989142720E+00   0.0000000000E+00   0.0000000000E+00  -0.1122750000E-02   0.0000000000E+00   0.0000000000E+00   0.3702202780E-04  -0.6625000010E+01  -0.4404889618E-13  -0.4149207503E-13  -0.1837302035E-15  -0.2884585083E-15   0.1229333423E-14   0.2144955948E-02  -0.1085727974E-02  -0.1085727974E-02  -0.4195656576E-18  -0.3055286899E-16  -0.1441154157E-16   0.6625000010E+01
   0.1002144956E+01   0.0000000000E+00   0.9989142720E+00   0.2250000000E-02   0.0000000000E+00  -0.1122750000E-02  -0.1050440556E-03   0.0000000000E+00   0.3702202780E-04  -0.6625000009E+01   0.6543589357E-13   0.6605341943E-13   0.1613752199E-14  -0.9798677392E-15   0.4633538505E-15   0.2144955947E-02  -0.1085727974E-02  -0.1085727974E-02   0.2321202057E-16  -0.3021290622E-16  -0.1373846686E-16   0.6625000009E+01
   0.1002144956E+01   0.9989142720E+00   0.9989142720E+00   0.2250000000E-02  -0.1122750000E-02  -0.1122750000E-02  -0.1050440556E-03   0.3702202780E-04   0.3702202780E-04  -0.6625000009E+01  -0.2159961073E-15   0.1503781413E-14   0.1663762489E-14   0.1791803712E-14  -0.1149071687E-14   0.2144955947E-02  -0.1085727974E-02  -0.1085727974E-02   0.4959225539E-16   0.5599418612E-16  -0.1799950840E-16   0.6625000009E+01
   0.0000000000E+00   0.9989142720E+00   0.9989142720E+00   0.0000000000E+00  -0.1122750000E-02  -0.1122750000E-02   0.0000000000E+00   0.3702202780E-04   0.3702202780E-04  -0.6625000009E+01  -0.1014076391E-12  -0.1000441643E-12  -0.1835055244E-15  -0.7123371912E-15  -0.6909972759E-15   0.2144955947E-02  -0.1085727974E-02  -0.1085727974E-02  -0.4766330636E-16  -0.2037924081E-16  -0.1387839557E-16   0.6625000009E+01
   0.2004289912E+01   0.0000000000E+00   0.1508863979E-17   0.4500000000E-02   0.0000000000E+00  -0.2282681420E-17  -0.2100881112E-03   0.0000000000E+00   0.3791545399E-17  -0.6625000010E+01  -0.6381349063E-13  -0.6397457971E-13  -0.1270076405E-14  -0.1704348009E-14  -0.7920807678E-15   0.2144955948E-02  -0.1085727974E-02  -0.1085727974E-02  -0.1376717021E-15   0.4467153959E-17  -0.2260250275E-16   0.6625000010E+01
   0.2004289912E+01   0.9989142720E+00  -0.9927033102E-17   0.4500000000E-02  -0.1122750000E-02  -0.1432707883E-17  -0.2100881112E-03   0.3702202780E-04  -0.8494325219E-17  -0.6625000009E+01  -0.1991584577E-13  -0.2066072689E-13  -0.2111337526E-14  -0.8786854181E-15  -0.2532427944E-15   0.2144955947E-02  -0.1085727974E-02  -0.1085727974E-02  -0.1748840281E-15   0.2114511478E-15   0.8204441778E-16   0.6625000009E+01
   0.2004289912E+01   0.0000000000E+00   0.9989142720E+00   0.4500000000E-02   0.0000000000E+00  -0.1122750000E-02  -0.2100881112E-03   0.0000000000E+00   0.3702202780E-04  -0.6625000009E+01   0.7492861755E-13   0.7629899524E-13   0.6097083591E-15   0.3705372707E-15  -0.1173931141E-14   0.2144955947E-02  -0.1085727974E-02  -0.1085727974E-02   0.7544471223E-16   0.7486492714E-17  -0.5581747079E-16   0.6625000009E+01
   0.2004289912E+01   0.9989142720E+00   0.9989142720E+00   0.4500000000E-02  -0.1122750000E-02  -0.1122750000E-02  -0.2100881112E-03   0.3702202780E-04   0.3702202780E-04  -0.6625000008E+01   0.8024067702E-13   0.7857388391E-13   0.1818016682E-14   0.7156885712E-15   0.7096150253E-15   0.2144955947E-02  -0.1085727974E-02  -0.1085727974E-02   0.1773967371E-15   0.1627361618E-15   0.5112279761E-16   0.6625000008E+01
     1     2     3     4     5     6     7     8
     2     9    10     3     6    11    12     7
 VARIABLES = X,Y,Z,DU1,DU2,DU3,U1,U2,U3,S11,S22,S33,S12,S13,S23,E11,E22,E33,E12,E13,E23,SMISES
 ZONE, T="0.4200D+01" F=FEPOINT, I=   12 J=    2 ET=BRICK
   0.0000000000E+00   0.0000000000E+00   0.0000000000E+00   0.0000000000E+00   0.0000000000E+00   0.0000000000E+00   0.0000000000E+00   0.0000000000E+00   0.0000000000E+00  -0.5500000009E+01  -0.3269125599E-13  -0.3390001059E-13   0.2851078926E-16  -0.4173753394E-15   0.1235712984E-15   0.4394955951E-02  -0.2208477976E-02  -0.2208477976E-02   0.3852860788E-18  -0.2824957191E-16  -0.1926768143E-16   0.5500000009E+01
   0.1004394956E+01   0.0000000000E+00  -0.7636135002E-17   0.2250000000E-02   0.0000000000E+00   0.2856363455E-17   0.2144955944E-02   0.0000000000E+00  -0.1049249846E-16  -0.5500000008E+01  -0.5197585940E-13  -0.5079631915E-13  -0.1552594177E-14  -0.7933171082E-15   0.3183706451E-15   0.4394955951E-02  -0.2208477976E-02  -0.2208477976E-02  -0.8577747543E-16  -0.3504310861E-16  -0.2073358942E-16   0.5500000008E+01
   0.1004394956E+01   0.9977915220E+00  -0.1793664604E-16   0.2250000000E-02  -0.1122750000E-02  -0.3255792468E-18   0.2144955944E-02  -0.1085727972E-02  -0.1761106680E-16  -0.5500000008E+01   0.5665374689E-13   0.5559611760E-13  -0.1779253199E-14   0.1520494963E-14   0.6962454806E-15   0.4394955951E-02  -0.2208477975E-02  -0.2208477975E-02  -0.1105840773E-15   0.7053387932E-16  -0.1136133543E-16   0.5500000008E+01
   0.0000000000E+00   0.9977915220E+00  -0.9637155535E-17   0.0000000000E+00  -0.1122750000E-02  -0.3870889900E-17   0.0000000000E+00  -0.1085727972E-02  -0.5766265635E-17  -0.5500000008E+01   0.1687579013E-13   0.1701748550E-13   0.3173547195E-17  -0.7958805390E-16   0.4869322247E-15   0.4394955951E-02  -0.2208477975E-02  -0.2208477975E-02  -0.1489477459E-16  -0.2924500179E-16  -0.3422726899E-17   0.5500000008E+01
   0.0000000000E+00   0.0000000000E+00   0.9977915220E+00   0.0000000000E+00   0.0000000000E+00  -0.1122750000E-02   0.0000000000E+00   0.0000000000E+00  -0.1085727972E-02  -0.5500000008E+01   0.1007971317E-12   0.1018393529E-12  -0.1850559989E-15  -0.1642774419E-16   0.5981949740E-15   0.4394955951E-02  -0.2208477975E-02  -0.2208477975E-02  -0.3339758576E-18  -0.2718369241E-16  -0.2248211363E-16   0.5500000008E+01
   0.1004394956E+01   0.0000000000E+00   0.9977915220E+00   0.2250000000E-02   0.0000000000E+00  -0.1122750000E-02   0.2144955944E-02   0.0000000000E+00  -0.1085727972E-02  -0.5500000008E+01   0.8394425587E-14   0.7843299757E-14   0.1690109100E-14  -0.1084565450E-14  -0.1826520817E-15   0.4394955951E-02  -0.2208477975E-02  -0.2208477975E-02   0.2398324471E-16  -0.3025282458E-16  -0.2093592973E-16   0.5500000008E+01
   0.1004394956E+01   0.9977915220E+00   0.9977915220E+00   0.2250000000E-02  -0.1122750000E-02  -0.1122750000E-02   0.2144955944E-02  -0.1085727972E-02  -0.1085727972E-02  -0.5500000007E+01   0.7029131845E-14   0.7458346722E-14   0.1623828836E-14   0.1940105661E-14  -0.6387627063E-15   0.4394955950E-02  -0.2208477975E-02  -0.2208477975E-02   0.4888685610E-16   0.5598635680E-16  -0.1280216730E-16   0.5500000007E+01
   0.0000000000E+00   0.9977915220E+00   0.9977915220E+00   0.0000000000E+00  -0.1122750000E-02  -0.1122750000E-02   0.0000000000E+00  -0.1085727972E-02  -0.1085727972E-02  -0.5500000007E+01   0.1298394987E-14   0.1252847744E-14  -0.3065728570E-15  -0.4412532978E-15   0.7053170773E-16   0.4394955950E-02  -0.2208477975E-02  -0.2208477975E-02  -0.4917297240E-16  -0.1682019861E-16  -0.5364329921E-17   0.5500000007E+01
   0.2008789912E+01   0.0000000000E+00   0.1269931964E-16   0.4500000000E-02   0.0000000000E+00   0.1119045566E-16   0.4289911889E-02   0.0000000000E+00   0.1508863979E-17  -0.5500000008E+01  -0.2555387322E-13  -0.2387128095E-13  -0.9985092181E-15  -0.2315864313E-14  -0.1046600719E-14   0.4394955951E-02  -0.2208477976E-02  -0.2208477976E-02  -0.1348067071E-15   0.1621967784E-17  -0.2537070023E-16   0.5500000008E+01
   0.2008789912E+01   0.9977915220E+00  -0.2909474586E-18   0.4500000000E-02  -0.1122750000E-02   0.9636085644E-17   0.4289911889E-02  -0.1085727972E-02  -0.9927033102E-17  -0.5500000008E+01   0.2606535286E-13   0.2635977544E-13  -0.1611213188E-14  -0.1168156962E-14   0.2355385928E-15   0.4394955951E-02  -0.2208477975E-02  -0.2208477975E-02  -0.1686360092E-15   0.2037224655E-15   0.8779532677E-16   0.5500000008E+01
   0.2008789912E+01   0.0000000000E+00   0.9977915220E+00   0.4500000000E-02   0.0000000000E+00  -0.1122750000E-02   0.4289911889E-02   0.0000000000E+00  -0.1085727972E-02  -0.5500000008E+01  -0.1248814982E-13  -0.1141511240E-13   0.9566923946E-15   0.5332769413E-15  -0.1776411961E-14   0.4394955951E-02  -0.2208477975E-02  -0.2208477975E-02   0.8089629672E-16  -0.8880334800E-18  -0.6471968570E-16   0.5500000008E+01
   0.2008789912E+01   0.9977915220E+00   0.9977915220E+00   0.4500000000E-02  -0.1122750000E-02  -0.1122750000E-02   0.4289911889E-02  -0.1085727972E-02  -0.1085727972E-02  -0.5500000007E+01   0.5128249934E-15  -0.2466841969E-14   0.1932955457E-14   0.5513574912E-15   0.8382288693E-15   0.4394955950E-02  -0.2208477975E-02  -0.2208477975E-02   0.1792013053E-15   0.1666001223E-15   0.5314704673E-16   0.5500000007E+01
     1     2     3     4     5     6     7     8
     2     9    10     3     6    11    12     7
 VARIABLES = X,Y,Z,DU1,DU2,DU3,U1,U2,U3,S11,S22,S33,S12,S13,S23,E11,E22,E33,E12,E13,E23,SMISES
 ZONE, T="0.4250D+01" F=FEPOINT, I=   12 J=    2 ET=BRICK
   0.0000000000E+00   0.0000000000E+00   0.0000000000E+00   0.0000000000E+00   0.0000000000E+00   0.0000000000E+00   0.0000000000E+00   0.0000000000E+00   0.0000000000E+00  -0.4375000007E+01  -0.2814831870E-13  -0.2908695465E-13  -0.1058518729E-16  -0.3643627553E-15   0.4419501575E-15   0.6644955955E-02  -0.3331227977E-02  -0.3331227977E-02  -0.6018284675E-18  -0.2832465134E-16  -0.1564294266E-16   0.4375000007E+01
   0.1006644956E+01   0.0000000000E+00  -0.7881787740E-17   0.2250000000E-02   0.0000000000E+00  -0.2456527380E-18   0.4394955944E-02   0.0000000000E+00  -0.7636135002E-17  -0.4375000007E+01   0.2183914564E-13   0.2275998985E-13  -0.1621105806E-14  -0.8355239866E-15   0.4936483633E-15   0.6644955955E-02  -0.3331227977E-02  -0.3331227977E-02  -0.8574992007E-16  -0.3531324626E-16  -0.1923143614E-16   0.4375000007E+01
   0.1006644956E+01   0.9966687720E+00  -0.1697843137E-16   0.2250000000E-02  -0.1122750000E-02   0.9582146720E-18   0.4394955944E-02  -0.2208477972E-02  -0.1793664604E-16  -0.4375000006E+01  -0.3457305020E-13  -0.3603014617E-13  -0.1815221656E-14   0.1632037052E-14   0.5272429834E-15   0.6644955954E-02  -0.3331227977E-02  -0.3331227977E-02  -0.1092711558E-15   0.7547452269E-16  -0.1196862306E-16   0.4375000006E+01
   0.0000000000E+00   0.9966687720E+00  -0.7747557315E-17   0.0000000000E+00  -0.1122750000E-02   0.1889598221E-17   0.0000000000E+00  -0.2208477972E-02  -0.9637155535E-17  -0.4375000006E+01   0.2279322373E-13   0.2269853433E-13  -0.1980473794E-16  -0.1271213943E-15   0.3377841344E-15   0.6644955954E-02  -0.3331227977E-02  -0.3331227977E-02  -0.1568553221E-16  -0.3116860510E-16  -0.5515149753E-17   0.4375000006E+01
   0.0000000000E+00   0.0000000000E+00   0.9966687720E+00   0.0000000000E+00   0.0000000000E+00  -0.1122750000E-02   0.0000000000E+00   0.0000000000E+00  -0.2208477972E-02  -0.4375000006E+01  -0.4393880802E-13  -0.4237321644E-13  -0.1600924280E-15  -0.1099940532E-16   0.8101364799E-15   0.6644955954E-02  -0.3331227977E-02  -0.3331227977E-02   0.2914961699E-18  -0.2862721473E-16  -0.1930996283E-16   0.4375000006E+01
   0.1006644956E+01   0.0000000000E+00   0.9966687720E+00   0.2250000000E-02   0.0000000000E+00  -0.1122750000E-02   0.4394955944E-02   0.0000000000E+00  -0.2208477972E-02  -0.4375000006E+01   0.2901104631E-13   0.2909232038E-13   0.1863974532E-14  -0.1452828560E-14   0.1643270355E-16   0.6644955954E-02  -0.3331227977E-02  -0.3331227977E-02   0.2670919044E-16  -0.3140645545E-16  -0.1754312891E-16   0.4375000006E+01
   0.1006644956E+01   0.9966687720E+00   0.9966687720E+00   0.2250000000E-02  -0.1122750000E-02  -0.1122750000E-02   0.4394955944E-02  -0.2208477972E-02  -0.2208477972E-02  -0.4375000006E+01  -0.2914932070E-13  -0.2847229840E-13   0.1877760814E-14   0.2251327387E-14  -0.8702273918E-15   0.6644955953E-02  -0.3331227977E-02  -0.3331227977E-02   0.5336722058E-16   0.5757839778E-16  -0.1566908537E-16   0.4375000006E+01
   0.0000000000E+00   0.9966687720E+00   0.9966687720E+00   0.0000000000E+00  -0.1122750000E-02  -0.1122750000E-02   0.0000000000E+00  -0.2208477972E-02  -0.2208477972E-02  -0.4375000006E+01  -0.3331671933E-13  -0.3264659995E-13  -0.2326064274E-15  -0.5941912057E-15  -0.1463722768E-15   0.6644955953E-02  -0.3331227977E-02  -0.3331227977E-02  -0.4883641661E-16  -0.1629997846E-16  -0.1089539256E-16   0.4375000006E+01
   0.2013289912E+01   0.0000000000E+00   0.1005109572E-16   0.4500000000E-02   0.0000000000E+00  -0.2648223918E-17   0.8789911889E-02   0.0000000000E+00   0.1269931964E-16  -0.4375000007E+01   0.1175331996E-12   0.1186721029E-12  -0.1357597168E-14  -0.2130177431E-14  -0.9585688739E-15   0.6644955954E-02  -0.3331227977E-02  -0.3331227977E-02  -0.1435023512E-15   0.7298548956E-17  -0.2484749320E-16   0.4375000007E+01
   0.2013289912E+01   0.9966687720E+00  -0.2637150602E-17   0.4500000000E-02  -0.1122750000E-02  -0.2346203144E-17   0.8789911889E-02  -0.2208477972E-02  -0.2909474586E-18  -0.4375000006E+01   0.2309517847E-15  -0.2809960557E-15  -0.1789620507E-14  -0.9763117105E-15  -0.3254066366E-15   0.6644955954E-02  -0.3331227977E-02  -0.3331227977E-02  -0.1754212436E-15   0.2051580168E-15   0.8110968190E-16   0.4375000006E+01
   0.2013289912E+01   0.0000000000E+00   0.9966687720E+00   0.4500000000E-02   0.0000000000E+00  -0.1122750000E-02   0.8789911889E-02   0.0000000000E+00  -0.2208477972E-02  -0.4375000006E+01   0.1094440467E-13   0.1184891592E-13   0.6386313550E-15   0.4816657369E-15  -0.1383640983E-14   0.6644955954E-02  -0.3331227977E-02  -0.3331227977E-02   0.7503299024E-16  -0.6429051087E-17  -0.5923673308E-16   0.4375000006E+01
   0.2013289912E+01   0.9966687720E+00   0.9966687720E+00   0.4500000000E-02  -0.1122750000E-02  -0.1122750000E-02   0.8789911889E-02  -0.2208477972E-02  -0.2208477972E-02  -0.4375000006E+01  -0.3722896578E-13  -0.3951872898E-13   0.1587425939E-14   0.8401179729E-15   0.7701327116E-15   0.6644955953E-02  -0.3331227976E-02  -0.3331227976E-02   0.1754042092E-15   0.1698356733E-15   0.5075442805E-16   0.4375000006E+01
     1     2     3     4     5     6     7     8
     2     9    10     3     6    11    12     7
 VARIABLES = X,Y,Z,DU1,DU2,DU3,U1,U2,U3,S11,S22,S33,S12,S13,S23,E11,E22,E33,E12,E13,E23,SMISES
 ZONE, T="0.4300D+01" F=FEPOINT, I=   12 J=    2 ET=BRICK
   0.0000000000E+00   0.0000000000E+00   0.0000000000E+00   0.0000000000E+00   0.0000000000E+00   0.0000000000E+00   0.0000000000E+00   0.0000000000E+00   0.0000000000E+00  -0.3250000005E+01   0.7210241901E-13   0.7039532746E-13  -0.2324641170E-16  -0.3862758197E-15   0.6205014359E-15   0.8894955958E-02  -0.4453977979E-02  -0.4453977979E-02  -0.9027692305E-18  -0.3026273370E-16  -0.1320738547E-16   0.3250000005E+01
   0.1008894956E+01   0.0000000000E+00  -0.8256730987E-17   0.2250000000E-02   0.0000000000E+00  -0.3749432476E-18   0.6644955944E-02   0.0000000000E+00  -0.7881787740E-17  -0.3250000005E+01  -0.3226314990E-13  -0.3117032795E-13  -0.1606649413E-14  -0.8054066401E-15   0.4869727057E-15   0.8894955958E-02  -0.4453977979E-02  -0.4453977979E-02  -0.8511724377E-16  -0.3151128194E-16  -0.1832189329E-16   0.3250000005E+01
   0.1008894956E+01   0.9955460220E+00  -0.1739917096E-16   0.2250000000E-02  -0.1122750000E-02  -0.4207395871E-18   0.6644955944E-02  -0.3331227972E-02  -0.1697843137E-16  -0.3250000005E+01  -0.1887983657E-13  -0.2052378447E-13  -0.2035969492E-14   0.1692367903E-14   0.4266439759E-15   0.8894955957E-02  -0.4453977979E-02  -0.4453977979E-02  -0.1098257646E-15   0.7677707019E-16  -0.1341567740E-16   0.3250000005E+01
   0.0000000000E+00   0.9955460220E+00  -0.6580089374E-17   0.0000000000E+00  -0.1122750000E-02   0.1167467941E-17   0.0000000000E+00  -0.3331227972E-02  -0.7747557315E-17  -0.3250000005E+01   0.4079670793E-13   0.3994644431E-13  -0.1676801080E-15  -0.3788135950E-15   0.2921420345E-15   0.8894955957E-02  -0.4453977979E-02  -0.4453977979E-02  -0.1836745284E-16  -0.3463812186E-16  -0.7259961966E-17   0.3250000005E+01
   0.0000000000E+00   0.0000000000E+00   0.9955460220E+00   0.0000000000E+00   0.0000000000E+00  -0.1122750000E-02   0.0000000000E+00   0.0000000000E+00  -0.3331227972E-02  -0.3250000005E+01  -0.7763375091E-14  -0.6017639285E-14  -0.1638241010E-15  -0.1266260082E-15   0.9280287037E-15   0.8894955957E-02  -0.4453977979E-02  -0.4453977979E-02   0.1131172570E-18  -0.3130532412E-16  -0.1783030154E-16   0.3250000005E+01
   0.1008894956E+01   0.0000000000E+00   0.9955460220E+00   0.2250000000E-02   0.0000000000E+00  -0.1122750000E-02   0.6644955944E-02   0.0000000000E+00  -0.3331227972E-02  -0.3250000005E+01   0.6578916975E-13   0.6587588814E-13   0.1938538582E-14  -0.1394014852E-14  -0.9860270638E-17   0.8894955957E-02  -0.4453977979E-02  -0.4453977979E-02   0.2937586011E-16  -0.3180692172E-16  -0.1808351592E-16   0.3250000005E+01
   0.1008894956E+01   0.9955460220E+00   0.9955460220E+00   0.2250000000E-02  -0.1122750000E-02  -0.1122750000E-02   0.6644955944E-02  -0.3331227972E-02  -0.3331227972E-02  -0.3250000004E+01  -0.8477924793E-13  -0.8400063319E-13   0.2110331987E-14   0.2239758075E-14  -0.9012140011E-15   0.8894955956E-02  -0.4453977978E-02  -0.4453977978E-02   0.5683620789E-16   0.5936683727E-16  -0.1602390268E-16   0.3250000004E+01
   0.0000000000E+00   0.9955460220E+00   0.9955460220E+00   0.0000000000E+00  -0.1122750000E-02  -0.1122750000E-02   0.0000000000E+00  -0.3331227972E-02  -0.3331227972E-02  -0.3250000004E+01   0.2501281186E-14   0.3348093235E-14  -0.3002093963E-15  -0.7333165234E-15  -0.3870707632E-15   0.8894955956E-02  -0.4453977978E-02  -0.4453977978E-02  -0.4858631233E-16  -0.1849521185E-16  -0.1363086761E-16   0.3250000004E+01
   0.2017789912E+01   0.0000000000E+00   0.8611031663E-17   0.4500000000E-02   0.0000000000E+00  -0.1440064062E-17   0.1328991189E-01   0.0000000000E+00   0.1005109572E-16  -0.3250000005E+01  -0.1558967866E-12  -0.1547477240E-12  -0.8228518709E-15  -0.1850572926E-14  -0.1084207288E-14   0.8894955958E-02  -0.4453977979E-02  -0.4453977979E-02  -0.1423361347E-15   0.1485911105E-16  -0.2650558022E-16   0.3250000005E+01
   0.2017789912E+01   0.9955460220E+00  -0.4886663209E-17   0.4500000000E-02  -0.1122750000E-02  -0.2249512607E-17   0.1328991189E-01  -0.3331227972E-02  -0.2637150602E-17  -0.3250000005E+01   0.5655289947E-13   0.5623052570E-13  -0.1649602485E-14  -0.1580812633E-14  -0.1209590082E-15   0.8894955957E-02  -0.4453977978E-02  -0.4453977978E-02  -0.1767954491E-15   0.1964888221E-15   0.8258008853E-16   0.3250000005E+01
   0.2017789912E+01   0.0000000000E+00   0.9955460220E+00   0.4500000000E-02   0.0000000000E+00  -0.1122750000E-02   0.1328991189E-01   0.0000000000E+00  -0.3331227972E-02  -0.3250000005E+01   0.3730739224E-13   0.3785035163E-13   0.4289171858E-15   0.7919469535E-15  -0.1420126264E-14   0.8894955957E-02  -0.4453977978E-02  -0.4453977978E-02   0.7288152119E-16  -0.1295309896E-16  -0.5897453474E-16   0.3250000005E+01
   0.2017789912E+01   0.9955460220E+00   0.9955460220E+00   0.4500000000E-02  -0.1122750000E-02  -0.1122750000E-02   0.1328991189E-01  -0.3331227972E-02  -0.3331227972E-02  -0.3250000004E+01  -0.8741098515E-13  -0.9011037426E-13   0.1739124781E-14   0.2522205249E-15   0.1141748648E-14   0.8894955956E-02  -0.4453977978E-02  -0.4453977978E-02   0.1746988997E-15   0.1728945004E-15   0.5771495918E-16   0.3250000004E+01
     1     2     3     4     5     6     7     8
     2     9    10     3     6    11    12     7
 VARIABLES = X,Y,Z,DU1,DU2,DU3,U1,U2,U3,S11,S22,S33,S12,S13,S23,E11,E22,E33,E12,E13,E23,SMISES
 ZONE, T="0.4350D+01" F=FEPOINT, I=   12 J=    2 ET=BRICK
   0.0000000000E+00   0.0000000000E+00   0.0000000000E+00   0.0000000000E+00   0.0000000000E+00   0.0000000000E+00   0.0000000000E+00   0.0000000000E+00   0.0000000000E+00  -0.2125000003E+01  -0.5384392752E-13  -0.5540852269E-13  -0.4043995790E-16  -0.3459412588E-15   0.6368853102E-15   0.1114495596E-01  -0.5576727981E-02  -0.5576727981E-02  -0.5601049256E-18  -0.3045076736E-16  -0.1038709519E-16   0.2125000003E+01
   0.1011144956E+01   0.0000000000E+00  -0.8631628518E-17   0.2250000000E-02   0.0000000000E+00  -0.3748975305E-18   0.8894955944E-02   0.0000000000E+00  -0.8256730987E-17  -0.2125000003E+01   0.2683819906E-13   0.2739277649E-13  -0.1442175653E-14  -0.8594892798E-15   0.5039207917E-15   0.1114495596E-01  -0.5576727981E-02  -0.5576727981E-02  -0.8419118077E-16  -0.2975799597E-16  -0.1859966055E-16   0.2125000003E+01
   0.1011144956E+01   0.9944232720E+00  -0.1760368260E-16   0.2250000000E-02  -0.1122750000E-02  -0.2045116414E-18   0.8894955944E-02  -0.4453977972E-02  -0.1739917096E-16  -0.2125000003E+01   0.1141073326E-12   0.1122933997E-12  -0.1844535674E-14   0.1732070931E-14   0.2394842928E-15   0.1114495596E-01  -0.5576727980E-02  -0.5576727980E-02  -0.1132041703E-15   0.7128032585E-16  -0.1651106662E-16   0.2125000003E+01
   0.0000000000E+00   0.9944232720E+00  -0.6472708896E-17   0.0000000000E+00  -0.1122750000E-02   0.1073804779E-18   0.0000000000E+00  -0.4453977972E-02  -0.6580089374E-17  -0.2125000003E+01  -0.5563729663E-13  -0.5638497143E-13   0.2026161686E-15  -0.4155639687E-15   0.4109283626E-15   0.1114495596E-01  -0.5576727980E-02  -0.5576727980E-02  -0.1018359738E-16  -0.3206737258E-16  -0.8224708889E-17   0.2125000003E+01
   0.0000000000E+00   0.0000000000E+00   0.9944232720E+00   0.0000000000E+00   0.0000000000E+00  -0.1122750000E-02   0.0000000000E+00   0.0000000000E+00  -0.4453977972E-02  -0.2125000003E+01  -0.1049072040E-13  -0.8690469845E-14  -0.1433506769E-15  -0.3568281763E-15   0.8237396121E-15   0.1114495596E-01  -0.5576727980E-02  -0.5576727980E-02   0.3851143754E-18  -0.3235922358E-16  -0.1909499065E-16   0.2125000003E+01
   0.1011144956E+01   0.0000000000E+00   0.9944232720E+00   0.2250000000E-02   0.0000000000E+00  -0.1122750000E-02   0.8894955944E-02   0.0000000000E+00  -0.4453977972E-02  -0.2125000003E+01   0.6038461913E-14   0.6173254376E-14   0.1900946602E-14  -0.1201945067E-14   0.2040752645E-15   0.1114495596E-01  -0.5576727980E-02  -0.5576727980E-02   0.2600329255E-16  -0.3561997318E-16  -0.1505330346E-16   0.2125000003E+01
   0.1011144956E+01   0.9944232720E+00   0.9944232720E+00   0.2250000000E-02  -0.1122750000E-02  -0.1122750000E-02   0.8894955944E-02  -0.4453977972E-02  -0.4453977972E-02  -0.2125000003E+01   0.3783008214E-13   0.3885849703E-13   0.2016731465E-14   0.2220735767E-14  -0.9918790591E-15   0.1114495596E-01  -0.5576727979E-02  -0.5576727979E-02   0.5547678930E-16   0.6639349143E-16  -0.1884233347E-16   0.2125000003E+01
   0.0000000000E+00   0.9944232720E+00   0.9944232720E+00   0.0000000000E+00  -0.1122750000E-02  -0.1122750000E-02   0.0000000000E+00  -0.4453977972E-02  -0.4453977972E-02  -0.2125000003E+01  -0.2455680640E-13  -0.2400614277E-13  -0.4339902071E-15  -0.6079423225E-15  -0.3537726137E-15   0.1114495596E-01  -0.5576727980E-02  -0.5576727980E-02  -0.5261046988E-16  -0.2004628588E-16  -0.9681952671E-17   0.2125000003E+01
   0.2022289912E+01   0.0000000000E+00   0.6085542637E-17   0.4500000000E-02   0.0000000000E+00  -0.2525489025E-17   0.1778991189E-01   0.0000000000E+00   0.8611031663E-17  -0.2125000003E+01   0.9037180284E-13   0.9187796937E-13  -0.7879977805E-15  -0.2086263485E-14  -0.7565283270E-15   0.1114495596E-01  -0.5576727981E-02  -0.5576727981E-02  -0.1371445568E-15  -0.5521937414E-17  -0.2295658382E-16   0.2125000003E+01
   0.2022289912E+01   0.9944232720E+00  -0.5670652660E-17   0.4500000000E-02  -0.1122750000E-02  -0.7839894508E-18   0.1778991189E-01  -0.4453977972E-02  -0.4886663209E-17  -0.2125000003E+01   0.9646251168E-13   0.9594140099E-13  -0.1820945046E-14  -0.9749538142E-15  -0.2268417820E-15   0.1114495596E-01  -0.5576727980E-02  -0.5576727980E-02  -0.1782036098E-15   0.2061624234E-15   0.8358363559E-16   0.2125000003E+01
   0.2022289912E+01   0.0000000000E+00   0.9944232720E+00   0.4500000000E-02   0.0000000000E+00  -0.1122750000E-02   0.1778991189E-01   0.0000000000E+00  -0.4453977972E-02  -0.2125000003E+01   0.8631060504E-13   0.8780515344E-13   0.8539381136E-15   0.8794828281E-15  -0.1481731786E-14   0.1114495596E-01  -0.5576727980E-02  -0.5576727980E-02   0.7712007085E-16  -0.5557390367E-17  -0.6000336505E-16   0.2125000003E+01
   0.2022289912E+01   0.9944232720E+00   0.9944232720E+00   0.4500000000E-02  -0.1122750000E-02  -0.1122750000E-02   0.1778991189E-01  -0.4453977972E-02  -0.4453977972E-02  -0.2125000003E+01   0.2544788145E-13   0.2312192926E-13   0.2051952891E-14   0.4384351284E-15   0.8801801499E-15   0.1114495596E-01  -0.5576727979E-02  -0.5576727979E-02   0.1835894636E-15   0.1699933165E-15   0.5006566875E-16   0.2125000003E+01
     1     2     3     4     5     6     7     8
     2     9    10     3     6    11    12     7
 VARIABLES = X,Y,Z,DU1,DU2,DU3,U1,U2,U3,S11,S22,S33,S12,S13,S23,E11,E22,E33,E12,E13,E23,SMISES
 ZONE, T="0.4400D+01" F=FEPOINT, I=   12 J=    2 ET=BRICK
   0.0000000000E+00   0.0000000000E+00   0.0000000000E+00   0.0000000000E+00   0.0000000000E+00   0.0000000000E+00   0.0000000000E+00   0.0000000000E+00   0.0000000000E+00  -0.1000000002E+01  -0.5746766458E-13  -0.5892155328E-13  -0.4943157541E-16  -0.2952906084E-15   0.5563357415E-15   0.1339495597E-01  -0.6699477983E-02  -0.6699477983E-02   0.9957636949E-18  -0.2772174929E-16  -0.1351285947E-16   0.1000000002E+01
   0.1013394956E+01   0.0000000000E+00  -0.8676914324E-17   0.2250000000E-02   0.0000000000E+00  -0.4528580599E-19   0.1114495594E-01   0.0000000000E+00  -0.8631628518E-17  -0.1000000002E+01  -0.8898806176E-13  -0.8823039716E-13  -0.1426034822E-14  -0.8118744426E-15   0.5342141267E-15   0.1339495597E-01  -0.6699477983E-02  -0.6699477983E-02  -0.8566912375E-16  -0.3440885353E-16  -0.1993561140E-16   0.1000000002E+01
   0.1013394956E+01   0.9933005220E+00  -0.1750425278E-16   0.2250000000E-02  -0.1122750000E-02   0.9942981676E-19   0.1114495594E-01  -0.5576727972E-02  -0.1760368260E-16  -0.1000000001E+01  -0.7413696971E-14  -0.9070890986E-14  -0.1776478197E-14   0.1590719677E-14   0.3411312613E-15   0.1339495596E-01  -0.6699477982E-02  -0.6699477982E-02  -0.1089526172E-15   0.7858789475E-16  -0.1623226986E-16   0.1000000001E+01
   0.0000000000E+00   0.9933005220E+00  -0.6824945078E-17   0.0000000000E+00  -0.1122750000E-02  -0.3522361820E-18   0.0000000000E+00  -0.5576727972E-02  -0.6472708896E-17  -0.1000000001E+01   0.1487728766E-13   0.1433560457E-13   0.3852048480E-17  -0.2801332901E-15   0.3393571075E-15   0.1339495596E-01  -0.6699477982E-02  -0.6699477982E-02  -0.1274733628E-16  -0.3375607236E-16  -0.8846495907E-17   0.1000000001E+01
   0.0000000000E+00   0.0000000000E+00   0.9933005220E+00   0.0000000000E+00   0.0000000000E+00  -0.1122750000E-02   0.0000000000E+00   0.0000000000E+00  -0.5576727972E-02  -0.1000000001E+01   0.4623022899E-13   0.4803129359E-13  -0.1434026215E-15  -0.4301357878E-15   0.8258587552E-15   0.1339495596E-01  -0.6699477982E-02  -0.6699477982E-02  -0.1065085072E-17  -0.3115342582E-16  -0.1858989950E-16   0.1000000001E+01
   0.1013394956E+01   0.0000000000E+00   0.9933005220E+00   0.2250000000E-02   0.0000000000E+00  -0.1122750000E-02   0.1114495594E-01   0.0000000000E+00  -0.5576727972E-02  -0.1000000001E+01   0.6546358304E-13   0.6552762549E-13   0.1656582927E-14  -0.1141831125E-14   0.2090351281E-15   0.1339495596E-01  -0.6699477982E-02  -0.6699477982E-02   0.2826587391E-16  -0.3172032644E-16  -0.1353928539E-16   0.1000000001E+01
   0.1013394956E+01   0.9933005220E+00   0.9933005220E+00   0.2250000000E-02  -0.1122750000E-02  -0.1122750000E-02   0.1114495594E-01  -0.5576727972E-02  -0.5576727972E-02  -0.1000000001E+01   0.3732332567E-13   0.3820416454E-13   0.1800457876E-14   0.2002257760E-14  -0.9708900740E-15   0.1339495596E-01  -0.6699477981E-02  -0.6699477981E-02   0.4997435782E-16   0.6171574703E-16  -0.1962154112E-16   0.1000000001E+01
   0.0000000000E+00   0.9933005220E+00   0.9933005220E+00   0.0000000000E+00  -0.1122750000E-02  -0.1122750000E-02   0.0000000000E+00  -0.5576727972E-02  -0.5576727972E-02  -0.1000000001E+01  -0.2900186232E-13  -0.2814284939E-13  -0.4086418586E-15  -0.6791454336E-15  -0.2936103333E-15   0.1339495596E-01  -0.6699477981E-02  -0.6699477981E-02  -0.5017330869E-16  -0.2314746009E-16  -0.1820170623E-17   0.1000000001E+01
   0.2026789912E+01   0.0000000000E+00   0.5259578606E-17   0.4500000000E-02   0.0000000000E+00  -0.8259640311E-18   0.2228991189E-01   0.0000000000E+00   0.6085542637E-17  -0.1000000002E+01  -0.6311445767E-13  -0.6206222371E-13  -0.9437429471E-15  -0.2126021762E-14  -0.7450666065E-15   0.1339495596E-01  -0.6699477982E-02  -0.6699477982E-02  -0.1346995441E-15   0.1406326293E-16  -0.2254240217E-16   0.1000000002E+01
   0.2026789912E+01   0.9933005220E+00  -0.6508665010E-17   0.4500000000E-02  -0.1122750000E-02  -0.8380123498E-18   0.2228991189E-01  -0.5576727972E-02  -0.5670652660E-17  -0.1000000001E+01   0.1975753018E-13   0.1903314995E-13  -0.1794568943E-14  -0.8825029518E-15  -0.3754077631E-15   0.1339495596E-01  -0.6699477982E-02  -0.6699477982E-02  -0.1758446497E-15   0.2003338528E-15   0.8194892791E-16   0.1000000001E+01
   0.2026789912E+01   0.0000000000E+00   0.9933005220E+00   0.4500000000E-02   0.0000000000E+00  -0.1122750000E-02   0.2228991189E-01   0.0000000000E+00  -0.5576727972E-02  -0.1000000001E+01   0.5428808263E-14   0.6803353843E-14   0.6348347371E-15   0.8699249503E-15  -0.1341344783E-14   0.1339495596E-01  -0.6699477982E-02  -0.6699477982E-02   0.7455017842E-16   0.6713478840E-17  -0.5747361107E-16   0.1000000001E+01
   0.2026789912E+01   0.9933005220E+00   0.9933005220E+00   0.4500000000E-02  -0.1122750000E-02  -0.1122750000E-02   0.2228991189E-01  -0.5576727972E-02  -0.5576727972E-02  -0.1000000001E+01   0.4846591693E-13   0.4628586381E-13   0.1910663370E-14   0.2883747111E-15   0.9357646802E-15   0.1339495596E-01  -0.6699477981E-02  -0.6699477981E-02   0.1917815914E-15   0.1658781933E-15   0.5562396033E-16   0.1000000001E+01
     1     2     3     4     5     6     7     8
     2     9    10     3     6    11    12     7
 VARIABLES = X,Y,Z,DU1,DU2,DU3,U1,U2,U3,S11,S22,S33,S12,S13,S23,E11,E22,E33,E12,E13,E23,SMISES
 ZONE, T="0.4450D+01" F=FEPOINT, I=   12 J=    2 ET=BRICK
   0.0000000000E+00   0.0000000000E+00   0.0000000000E+00   0.0000000000E+00   0.0000000000E+00   0.0000000000E+00   0.0000000000E+00   0.0000000000E+00   0.0000000000E+00   0.1250000002E+00   0.6239409494E-13   0.6095813672E-13  -0.4981861389E-16  -0.3117487354E-15   0.5256426124E-15   0.1564495597E-01  -0.7822227984E-02  -0.7822227984E-02   0.2170172163E-17  -0.2792365628E-16  -0.1623813354E-16   0.1250000002E+00
   0.1015644956E+01   0.0000000000E+00  -0.8447776176E-17   0.2250000000E-02   0.0000000000E+00   0.2291381480E-18   0.1339495594E-01   0.0000000000E+00  -0.8676914324E-17   0.1250000002E+00  -0.4215999118E-13  -0.4149828014E-13  -0.1570880299E-14  -0.9377855075E-15   0.5960683227E-15   0.1564495597E-01  -0.7822227984E-02  -0.7822227984E-02  -0.8572948629E-16  -0.2916816543E-16  -0.1800454649E-16   0.1250000002E+00
   0.1015644956E+01   0.9921777720E+00  -0.1696275950E-16   0.2250000000E-02  -0.1122750000E-02   0.5414932813E-18   0.1339495594E-01  -0.6699477972E-02  -0.1750425278E-16   0.1250000002E+00   0.4087439342E-13   0.3908835285E-13  -0.1901479028E-14   0.1660965784E-14   0.2726120999E-15   0.1564495597E-01  -0.7822227983E-02  -0.7822227983E-02  -0.1118559338E-15   0.6947587564E-16  -0.1645133301E-16   0.1250000002E+00
   0.0000000000E+00   0.9921777720E+00  -0.7000724739E-17   0.0000000000E+00  -0.1122750000E-02  -0.1757796610E-18   0.0000000000E+00  -0.6699477972E-02  -0.6824945078E-17   0.1250000002E+00   0.4024862839E-13   0.3974132229E-13   0.1283694694E-15  -0.1993422472E-15   0.3928172270E-15   0.1564495597E-01  -0.7822227984E-02  -0.7822227984E-02  -0.1431502287E-16  -0.2955663122E-16   0.3246193159E-18   0.1250000002E+00
   0.0000000000E+00   0.0000000000E+00   0.9921777720E+00   0.0000000000E+00   0.0000000000E+00  -0.1122750000E-02   0.0000000000E+00   0.0000000000E+00  -0.6699477972E-02   0.1250000002E+00   0.3402818037E-13   0.3578548046E-13  -0.1590348210E-15  -0.4571630840E-15   0.8069245591E-15   0.1564495597E-01  -0.7822227984E-02  -0.7822227984E-02  -0.1863483137E-17  -0.3502568622E-16  -0.1367677528E-16   0.1250000002E+00
   0.1015644956E+01   0.0000000000E+00   0.9921777720E+00   0.2250000000E-02   0.0000000000E+00  -0.1122750000E-02   0.1339495594E-01   0.0000000000E+00  -0.6699477972E-02   0.1250000002E+00  -0.1875590467E-13  -0.1858823143E-13   0.1685837039E-14  -0.1212278395E-14   0.1952538483E-15   0.1564495597E-01  -0.7822227983E-02  -0.7822227983E-02   0.2519622590E-16  -0.2636309544E-16  -0.1178099930E-16   0.1250000002E+00
   0.1015644956E+01   0.9921777720E+00   0.9921777720E+00   0.2250000000E-02  -0.1122750000E-02  -0.1122750000E-02   0.1339495594E-01  -0.6699477972E-02  -0.6699477972E-02   0.1250000002E+00  -0.9935460253E-13  -0.9841724392E-13   0.1887575346E-14   0.2194990980E-14  -0.1044317057E-14   0.1564495596E-01  -0.7822227982E-02  -0.7822227982E-02   0.5155185431E-16   0.5507225610E-16  -0.2095131197E-16   0.1250000002E+00
   0.0000000000E+00   0.9921777720E+00   0.9921777720E+00   0.0000000000E+00  -0.1122750000E-02  -0.1122750000E-02   0.0000000000E+00  -0.6699477972E-02  -0.6699477972E-02   0.1250000002E+00  -0.1086691145E-12  -0.1078303105E-12  -0.5440129187E-15  -0.6716567995E-15  -0.2486934839E-15   0.1564495597E-01  -0.7822227983E-02  -0.7822227983E-02  -0.5104083771E-16  -0.1613351443E-16  -0.1302607357E-16   0.1250000002E+00
   0.2031289912E+01   0.0000000000E+00   0.7609125976E-17   0.4500000000E-02   0.0000000000E+00   0.2349547370E-17   0.2678991189E-01   0.0000000000E+00   0.5259578606E-17   0.1250000002E+00  -0.4995600446E-13  -0.4867044858E-13  -0.1244163289E-14  -0.2298984421E-14  -0.7392800373E-15   0.1564495597E-01  -0.7822227984E-02  -0.7822227984E-02  -0.1414109083E-15   0.2212846928E-17  -0.2326344889E-16   0.1250000002E+00
   0.2031289912E+01   0.9921777720E+00  -0.4003421334E-17   0.4500000000E-02  -0.1122750000E-02   0.2505243676E-17   0.2678991189E-01  -0.6699477972E-02  -0.6508665010E-17   0.1250000002E+00   0.7646716881E-13   0.7565727509E-13  -0.2195123220E-14  -0.7234848782E-15  -0.2498694909E-15   0.1564495597E-01  -0.7822227983E-02  -0.7822227983E-02  -0.1786439981E-15   0.2128463956E-15   0.8588296269E-16   0.1250000002E+00
   0.2031289912E+01   0.0000000000E+00   0.9921777720E+00   0.4500000000E-02   0.0000000000E+00  -0.1122750000E-02   0.2678991189E-01   0.0000000000E+00  -0.6699477972E-02   0.1250000002E+00   0.5198117152E-13   0.5337614956E-13   0.6236081148E-15   0.8604601963E-15  -0.1404628070E-14   0.1564495597E-01  -0.7822227983E-02  -0.7822227983E-02   0.7666619976E-16  -0.1938686690E-16  -0.5879724975E-16   0.1250000002E+00
   0.2031289912E+01   0.9921777720E+00   0.9921777720E+00   0.4500000000E-02  -0.1122750000E-02  -0.1122750000E-02   0.2678991189E-01  -0.6699477972E-02  -0.6699477972E-02   0.1250000002E+00   0.2950163371E-14   0.4722177203E-15   0.2190485926E-14   0.4965517693E-15   0.9660473744E-15   0.1564495596E-01  -0.7822227982E-02  -0.7822227982E-02   0.1944129827E-15   0.1849650540E-15   0.5164499583E-16   0.1250000002E+00
     1     2     3     4     5     6     7     8
     2     9    10     3     6    11    12     7
 VARIABLES = X,Y,Z,DU1,DU2,DU3,U1,U2,U3,S11,S22,S33,S12,S13,S23,E11,E22,E33,E12,E13,E23,SMISES
 ZONE, T="0.4500D+01" F=FEPOINT, I=   12 J=    2 ET=BRICK
   0.0000000000E+00   0.0000000000E+00   0.0000000000E+00   0.0000000000E+00   0.0000000000E+00   0.0000000000E+00   0.0000000000E+00   0.0000000000E+00   0.0000000000E+00   0.1250000002E+01  -0.8261799643E-13  -0.8396712119E-13  -0.4406700471E-16  -0.4321559907E-15   0.4315460478E-15   0.1789495597E-01  -0.8944977986E-02  -0.8944977986E-02  -0.2595366644E-18  -0.3102174128E-16  -0.1707030772E-16   0.1250000002E+01
   0.1017894956E+01   0.0000000000E+00  -0.8911687775E-17   0.2250000000E-02   0.0000000000E+00  -0.4639115994E-18   0.1564495594E-01   0.0000000000E+00  -0.8447776176E-17   0.1250000002E+01   0.6011931981E-13   0.6097349723E-13  -0.1506958760E-14  -0.9967707720E-15   0.6296929313E-15   0.1789495597E-01  -0.8944977986E-02  -0.8944977986E-02  -0.8928456698E-16  -0.3714960573E-16  -0.1722186724E-16   0.1250000002E+01
   0.1017894956E+01   0.9910550220E+00  -0.1723432170E-16   0.2250000000E-02  -0.1122750000E-02  -0.2715621987E-18   0.1564495594E-01  -0.7822227972E-02  -0.1696275950E-16   0.1250000002E+01  -0.2486286783E-13  -0.2647806378E-13  -0.1804916967E-14   0.1848326278E-14   0.4454142367E-15   0.1789495597E-01  -0.8944977985E-02  -0.8944977985E-02  -0.1164202330E-15   0.7444536620E-16  -0.1996940348E-16   0.1250000002E+01
   0.0000000000E+00   0.9910550220E+00  -0.7476647875E-17   0.0000000000E+00  -0.1122750000E-02  -0.4759231362E-18   0.0000000000E+00  -0.7822227972E-02  -0.7000724739E-17   0.1250000002E+01   0.3869239436E-13   0.3832436594E-13   0.1286562041E-15  -0.1885926450E-15   0.5927073998E-15   0.1789495597E-01  -0.8944977985E-02  -0.8944977985E-02  -0.9843491268E-17  -0.2868522268E-16   0.3644839416E-17   0.1250000002E+01
   0.0000000000E+00   0.0000000000E+00   0.9910550220E+00   0.0000000000E+00   0.0000000000E+00  -0.1122750000E-02   0.0000000000E+00   0.0000000000E+00  -0.7822227972E-02   0.1250000002E+01   0.4841305659E-13   0.5001370731E-13  -0.1840288546E-15  -0.4645804306E-15   0.6812066136E-15   0.1789495597E-01  -0.8944977985E-02  -0.8944977985E-02   0.1944641505E-19  -0.2578223213E-16  -0.1800092455E-16   0.1250000002E+01
   0.1017894956E+01   0.0000000000E+00   0.9910550220E+00   0.2250000000E-02   0.0000000000E+00  -0.1122750000E-02   0.1564495594E-01   0.0000000000E+00  -0.7822227972E-02   0.1250000002E+01  -0.4163153437E-13  -0.4152077894E-13   0.2021231624E-14  -0.1288007662E-14   0.1566299465E-15   0.1789495597E-01  -0.8944977985E-02  -0.8944977985E-02   0.3065843073E-16  -0.3795598762E-16  -0.1868029988E-16   0.1250000002E+01
   0.1017894956E+01   0.9910550220E+00   0.9910550220E+00   0.2250000000E-02  -0.1122750000E-02  -0.1122750000E-02   0.1564495594E-01  -0.7822227972E-02  -0.7822227972E-02   0.1250000002E+01   0.3437174467E-13   0.3527525948E-13   0.2117880596E-14   0.2316119168E-14  -0.9165264900E-15   0.1789495597E-01  -0.8944977984E-02  -0.8944977984E-02   0.5987748263E-16   0.6447624640E-16  -0.1389015824E-16   0.1250000002E+01
   0.0000000000E+00   0.9910550220E+00   0.9910550220E+00   0.0000000000E+00  -0.1122750000E-02  -0.1122750000E-02   0.0000000000E+00  -0.7822227972E-02  -0.7822227972E-02   0.1250000002E+01   0.4916645613E-13   0.4968169590E-13  -0.6226262801E-15  -0.5219789030E-15  -0.1410061362E-15   0.1789495597E-01  -0.8944977984E-02  -0.8944977984E-02  -0.5540087708E-16  -0.1904361629E-16  -0.6979232042E-17   0.1250000002E+01
   0.2035789912E+01   0.0000000000E+00   0.8390977719E-17   0.4500000000E-02   0.0000000000E+00   0.7818517431E-18   0.3128991189E-01   0.0000000000E+00   0.7609125976E-17   0.1250000002E+01   0.1747735536E-12   0.1758144495E-12  -0.1694124112E-14  -0.2380671978E-14  -0.1003566759E-14   0.1789495597E-01  -0.8944977986E-02  -0.8944977986E-02  -0.1450504875E-15   0.1386931173E-16  -0.2326514000E-16   0.1250000002E+01
   0.2035789912E+01   0.9910550220E+00  -0.4804159550E-17   0.4500000000E-02  -0.1122750000E-02  -0.8007382161E-18   0.3128991189E-01  -0.7822227972E-02  -0.4003421334E-17   0.1250000002E+01  -0.1245995354E-12  -0.1254522184E-12  -0.2593851419E-14  -0.5754190671E-15  -0.5047415509E-15   0.1789495597E-01  -0.8944977985E-02  -0.8944977985E-02  -0.1745619622E-15   0.2181899664E-15   0.7944120738E-16   0.1250000002E+01
   0.2035789912E+01   0.0000000000E+00   0.9910550220E+00   0.4500000000E-02   0.0000000000E+00  -0.1122750000E-02   0.3128991189E-01   0.0000000000E+00  -0.7822227972E-02   0.1250000002E+01  -0.1875084753E-12  -0.1863783344E-12   0.1048244221E-14   0.2614643427E-15  -0.1562379299E-14   0.1789495597E-01  -0.8944977985E-02  -0.8944977985E-02   0.9558359127E-16  -0.2675454372E-16  -0.6057709284E-16   0.1250000002E+01
   0.2035789912E+01   0.9910550220E+00   0.9910550220E+00   0.4500000000E-02  -0.1122750000E-02  -0.1122750000E-02   0.3128991189E-01  -0.7822227972E-02  -0.7822227972E-02   0.1250000002E+01  -0.1233631812E-13  -0.1489297961E-13   0.2515343805E-14   0.4896829871E-15   0.8035289955E-15   0.1789495597E-01  -0.8944977984E-02  -0.8944977984E-02   0.1874356432E-15   0.1949784971E-15   0.4365914120E-16   0.1250000002E+01
     1     2     3     4     5     6     7     8
     2     9    10     3     6    11    12     7
 VARIABLES = X,Y,Z,DU1,DU2,DU3,U1,U2,U3,S11,S22,S33,S12,S13,S23,E11,E22,E33,E12,E13,E23,SMISES
 ZONE, T="0.4550D+01" F=FEPOINT, I=   12 J=    2 ET=BRICK
   0.0000000000E+00   0.0000000000E+00   0.0000000000E+00   0.0000000000E+00   0.0000000000E+00   0.0000000000E+00   0.0000000000E+00   0.0000000000E+00   0.0000000000E+00   0.2375000004E+01   0.2741709498E-13   0.2578819054E-13  -0.4951165709E-16  -0.2883010807E-15   0.5437053099E-15   0.2014495598E-01  -0.1006772799E-01  -0.1006772799E-01  -0.4248867935E-18  -0.3510070170E-16  -0.1286375034E-16   0.2375000004E+01
   0.1020144956E+01   0.0000000000E+00  -0.8568668885E-17   0.2250000000E-02   0.0000000000E+00   0.3430188896E-18   0.1789495594E-01   0.0000000000E+00  -0.8911687775E-17   0.2375000004E+01  -0.3228661937E-13  -0.3121883083E-13  -0.1488117052E-14  -0.1031037809E-14   0.5655691762E-15   0.2014495598E-01  -0.1006772799E-01  -0.1006772799E-01  -0.8781502840E-16  -0.1959973769E-16  -0.1904217860E-16   0.2375000004E+01
   0.1020144956E+01   0.9899322720E+00  -0.1720424153E-16   0.2250000000E-02  -0.1122750000E-02   0.3008017384E-19   0.1789495594E-01  -0.8944977972E-02  -0.1723432170E-16   0.2375000003E+01   0.8289716938E-14   0.6319409864E-14  -0.1922154601E-14   0.1699844592E-14   0.4659632671E-15   0.2014495597E-01  -0.1006772799E-01  -0.1006772799E-01  -0.1151862973E-15   0.6571563216E-16  -0.1357515087E-16   0.2375000003E+01
   0.0000000000E+00   0.9899322720E+00  -0.6930944589E-17   0.0000000000E+00  -0.1122750000E-02   0.5457032860E-18   0.0000000000E+00  -0.8944977972E-02  -0.7476647875E-17   0.2375000003E+01   0.1002646770E-12   0.9995401901E-13   0.5507853382E-16  -0.2713711184E-15   0.3914317145E-15   0.2014495597E-01  -0.1006772799E-01  -0.1006772799E-01  -0.1059205827E-16  -0.2433966023E-16   0.5575518656E-18   0.2375000003E+01
   0.0000000000E+00   0.0000000000E+00   0.9899322720E+00   0.0000000000E+00   0.0000000000E+00  -0.1122750000E-02   0.0000000000E+00   0.0000000000E+00  -0.8944977972E-02   0.2375000003E+01  -0.2901656367E-13  -0.2707717054E-13  -0.1757601441E-15  -0.3096181822E-15   0.7531004962E-15   0.2014495597E-01  -0.1006772799E-01  -0.1006772799E-01  -0.7555132992E-18  -0.2311016218E-16  -0.2673294035E-16   0.2375000003E+01
   0.1020144956E+01   0.0000000000E+00   0.9899322720E+00   0.2250000000E-02   0.0000000000E+00  -0.1122750000E-02   0.1789495594E-01   0.0000000000E+00  -0.8944977972E-02   0.2375000003E+01   0.8666176540E-13   0.8678095430E-13   0.1833902125E-14  -0.1310819749E-14  -0.1281678551E-16   0.2014495597E-01  -0.1006772799E-01  -0.1006772799E-01   0.2950882569E-16  -0.3672927514E-16  -0.1781303826E-16   0.2375000003E+01
   0.1020144956E+01   0.9899322720E+00   0.9899322720E+00   0.2250000000E-02  -0.1122750000E-02  -0.1122750000E-02   0.1789495594E-01  -0.8944977972E-02  -0.8944977972E-02   0.2375000003E+01  -0.9089794918E-13  -0.9003878990E-13   0.2123343825E-14   0.2231550868E-14  -0.1114535350E-14   0.2014495597E-01  -0.1006772799E-01  -0.1006772799E-01   0.5951868899E-16   0.6892789421E-16  -0.2324823157E-16   0.2375000003E+01
   0.0000000000E+00   0.9899322720E+00   0.9899322720E+00   0.0000000000E+00  -0.1122750000E-02  -0.1122750000E-02   0.0000000000E+00  -0.8944977972E-02  -0.8944977972E-02   0.2375000003E+01  -0.4919407977E-13  -0.4854935848E-13  -0.5129426251E-15  -0.7087713464E-15  -0.1932525792E-15   0.2014495597E-01  -0.1006772799E-01  -0.1006772799E-01  -0.5533061404E-16  -0.2080672811E-16   0.4228948011E-17   0.2375000003E+01
   0.2040289912E+01   0.0000000000E+00   0.7380566235E-17   0.4500000000E-02   0.0000000000E+00  -0.1010411484E-17   0.3578991189E-01   0.0000000000E+00   0.8390977719E-17   0.2375000004E+01  -0.1858489997E-12  -0.1843285906E-12  -0.9322594478E-15  -0.1749648071E-14  -0.8270657324E-15   0.2014495597E-01  -0.1006772799E-01  -0.1006772799E-01  -0.1359848959E-15   0.1535448529E-16  -0.2562701440E-16   0.2375000004E+01
   0.2040289912E+01   0.9899322720E+00  -0.4870587002E-17   0.4500000000E-02  -0.1122750000E-02  -0.6642745187E-19   0.3578991189E-01  -0.8944977972E-02  -0.4804159550E-17   0.2375000003E+01  -0.2395460540E-13  -0.2427090317E-13  -0.2064802706E-14  -0.1004142085E-14  -0.1872163895E-15   0.2014495597E-01  -0.1006772799E-01  -0.1006772799E-01  -0.1761595518E-15   0.2054999395E-15   0.9238281079E-16   0.2375000003E+01
   0.2040289912E+01   0.0000000000E+00   0.9899322720E+00   0.4500000000E-02   0.0000000000E+00  -0.1122750000E-02   0.3578991189E-01   0.0000000000E+00  -0.8944977972E-02   0.2375000003E+01   0.8088236148E-13   0.8182887079E-13   0.4551006249E-15   0.6651193594E-15  -0.1522807484E-14   0.2014495597E-01  -0.1006772799E-01  -0.1006772799E-01   0.7981275536E-16   0.1657451114E-17  -0.6135363881E-16   0.2375000003E+01
   0.2040289912E+01   0.9899322720E+00   0.9899322720E+00   0.4500000000E-02  -0.1122750000E-02  -0.1122750000E-02   0.3578991189E-01  -0.8944977972E-02  -0.8944977972E-02   0.2375000003E+01  -0.6758759329E-13  -0.7042340278E-13   0.2025003080E-14   0.3017434692E-16   0.1190856148E-14   0.2014495597E-01  -0.1006772799E-01  -0.1006772799E-01   0.1810622058E-15   0.1734808119E-15   0.5815532716E-16   0.2375000003E+01
     1     2     3     4     5     6     7     8
     2     9    10     3     6    11    12     7
 VARIABLES = X,Y,Z,DU1,DU2,DU3,U1,U2,U3,S11,S22,S33,S12,S13,S23,E11,E22,E33,E12,E13,E23,SMISES
 ZONE, T="0.4600D+01" F=FEPOINT, I=   12 J=    2 ET=BRICK
   0.0000000000E+00   0.0000000000E+00   0.0000000000E+00   0.0000000000E+00   0.0000000000E+00   0.0000000000E+00   0.0000000000E+00   0.0000000000E+00   0.0000000000E+00   0.3500000005E+01  -0.4018216227E-13  -0.4099217960E-13  -0.6088125972E-16  -0.2226061471E-15   0.3965101103E-15   0.2239495598E-01  -0.1119047799E-01  -0.1119047799E-01   0.4216781502E-18  -0.3212162265E-16  -0.1654024542E-16   0.3500000005E+01
   0.1022394956E+01   0.0000000000E+00  -0.8354763307E-17   0.2250000000E-02   0.0000000000E+00   0.2139055783E-18   0.2014495594E-01   0.0000000000E+00  -0.8568668885E-17   0.3500000005E+01   0.4997284157E-14   0.5731276433E-14  -0.1630143217E-14  -0.1178500545E-14   0.4433037463E-15   0.2239495598E-01  -0.1119047799E-01  -0.1119047799E-01  -0.9533175392E-16  -0.3270817597E-16  -0.1808920289E-16   0.3500000005E+01
   0.1022394956E+01   0.9888095220E+00  -0.1775410807E-16   0.2250000000E-02  -0.1122750000E-02  -0.5498665458E-18   0.2014495594E-01  -0.1006772797E-01  -0.1720424153E-16   0.3500000005E+01   0.6479438021E-13   0.6324658045E-13  -0.1829655915E-14   0.1781689512E-14   0.4149827116E-15   0.2239495598E-01  -0.1119047799E-01  -0.1119047799E-01  -0.1215724288E-15   0.8417868050E-16  -0.1659650943E-16   0.3500000005E+01
   0.0000000000E+00   0.9888095220E+00  -0.7790914708E-17   0.0000000000E+00  -0.1122750000E-02  -0.8599701189E-18   0.0000000000E+00  -0.1006772797E-01  -0.6930944589E-17   0.3500000005E+01  -0.3136274906E-13  -0.3096653860E-13   0.2708533607E-15  -0.3184202179E-15   0.7279406684E-15   0.2239495598E-01  -0.1119047799E-01  -0.1119047799E-01  -0.1537800775E-17  -0.3257557192E-16   0.4703261966E-17   0.3500000005E+01
   0.0000000000E+00   0.0000000000E+00   0.9888095220E+00   0.0000000000E+00   0.0000000000E+00  -0.1122750000E-02   0.0000000000E+00   0.0000000000E+00  -0.1006772797E-01   0.3500000005E+01   0.1373516761E-12   0.1384372564E-12  -0.1992380518E-15  -0.6249683750E-15   0.5097709324E-15   0.2239495598E-01  -0.1119047799E-01  -0.1119047799E-01  -0.2000895675E-17  -0.2985362952E-16  -0.1113898563E-16   0.3500000005E+01
   0.1022394956E+01   0.0000000000E+00   0.9888095220E+00   0.2250000000E-02   0.0000000000E+00  -0.1122750000E-02   0.2014495594E-01   0.0000000000E+00  -0.1006772797E-01   0.3500000005E+01  -0.2611933649E-13  -0.2625067717E-13   0.1867311982E-14  -0.1414604113E-14   0.1556421195E-15   0.2239495598E-01  -0.1119047799E-01  -0.1119047799E-01   0.3212195269E-16  -0.3800860256E-16  -0.2434104856E-16   0.3500000005E+01
   0.1022394956E+01   0.9888095220E+00   0.9888095220E+00   0.2250000000E-02  -0.1122750000E-02  -0.1122750000E-02   0.2014495594E-01  -0.1006772797E-01  -0.1006772797E-01   0.3500000005E+01   0.3374949945E-13   0.3476503294E-13   0.2022261532E-14   0.2345971965E-14  -0.8047651313E-15   0.2239495597E-01  -0.1119047799E-01  -0.1119047799E-01   0.5081470577E-16   0.6202800034E-16  -0.1467204230E-16   0.3500000005E+01
   0.0000000000E+00   0.9888095220E+00   0.9888095220E+00   0.0000000000E+00  -0.1122750000E-02  -0.1122750000E-02   0.0000000000E+00  -0.1006772797E-01  -0.1006772797E-01   0.3500000005E+01  -0.5592961009E-13  -0.5539355364E-13  -0.6137444413E-15  -0.3518038393E-15   0.8704558924E-16   0.2239495597E-01  -0.1119047799E-01  -0.1119047799E-01  -0.4890405457E-16  -0.2041068591E-16  -0.2537784620E-16   0.3500000005E+01
   0.2044789912E+01   0.0000000000E+00   0.8861866579E-17   0.4500000000E-02   0.0000000000E+00   0.1481300344E-17   0.4028991189E-01   0.0000000000E+00   0.7380566235E-17   0.3500000005E+01   0.1607549264E-12   0.1618653448E-12  -0.1483821432E-14  -0.1952647937E-14  -0.9355205284E-15   0.2239495598E-01  -0.1119047799E-01  -0.1119047799E-01  -0.1400482810E-15  -0.2658079042E-16  -0.2529325946E-16   0.3500000005E+01
   0.2044789912E+01   0.9888095220E+00  -0.4058934018E-17   0.4500000000E-02  -0.1122750000E-02   0.8116529836E-18   0.4028991189E-01  -0.1006772797E-01  -0.4870587002E-17   0.3500000005E+01   0.1018090875E-12   0.1013424915E-12  -0.2411193907E-14  -0.6263742420E-15  -0.5442082602E-15   0.2239495598E-01  -0.1119047799E-01  -0.1119047799E-01  -0.1792481333E-15   0.2563522622E-15   0.7956803878E-16   0.3500000005E+01
   0.2044789912E+01   0.0000000000E+00   0.9888095220E+00   0.4500000000E-02   0.0000000000E+00  -0.1122750000E-02   0.4028991189E-01   0.0000000000E+00  -0.1006772797E-01   0.3500000005E+01  -0.1581385856E-12  -0.1571277670E-12   0.6811833492E-15   0.2851073848E-15  -0.1521062686E-14   0.2239495598E-01  -0.1119047799E-01  -0.1119047799E-01   0.7672465841E-16  -0.2453628023E-17  -0.5717627522E-16   0.3500000005E+01
   0.2044789912E+01   0.9888095220E+00   0.9888095220E+00   0.4500000000E-02  -0.1122750000E-02  -0.1122750000E-02   0.4028991189E-01  -0.1006772797E-01  -0.1006772797E-01   0.3500000004E+01   0.1285041112E-13   0.1051330328E-13   0.2292875452E-14   0.3280601214E-15   0.9268096527E-15   0.2239495597E-01  -0.1119047799E-01  -0.1119047799E-01   0.1986023681E-15   0.1608977860E-15   0.5599985028E-16   0.3500000004E+01
     1     2     3     4     5     6     7     8
     2     9    10     3     6    11    12     7
 VARIABLES = X,Y,Z,DU1,DU2,DU3,U1,U2,U3,S11,S22,S33,S12,S13,S23,E11,E22,E33,E12,E13,E23,SMISES
 ZONE, T="0.4650D+01" F=FEPOINT, I=   12 J=    2 ET=BRICK
   0.0000000000E+00   0.0000000000E+00   0.0000000000E+00   0.0000000000E+00   0.0000000000E+00   0.0000000000E+00   0.0000000000E+00   0.0000000000E+00   0.0000000000E+00   0.4625000007E+01   0.3237231564E-14   0.1418388267E-14  -0.9631275259E-16  -0.4299714011E-15   0.9283457290E-15   0.2464495598E-01  -0.1231322799E-01  -0.1231322799E-01  -0.3746318482E-17  -0.3816612988E-16  -0.7857608660E-17   0.4625000007E+01
   0.1024644956E+01   0.0000000000E+00  -0.1111368904E-16   0.2250000000E-02   0.0000000000E+00  -0.2758925729E-17   0.2239495594E-01   0.0000000000E+00  -0.8354763307E-17   0.4625000007E+01  -0.2201654048E-13  -0.2223858515E-13  -0.1408454863E-14  -0.1254432637E-14   0.1009321517E-14   0.2464495598E-01  -0.1231322799E-01  -0.1231322799E-01  -0.8697563450E-16  -0.3807619187E-16  -0.1143736786E-16   0.4625000007E+01
   0.1024644956E+01   0.9876867720E+00  -0.1718107044E-16   0.2250000000E-02  -0.1122750000E-02   0.5730376364E-18   0.2239495594E-01  -0.1119047797E-01  -0.1775410807E-16   0.4625000007E+01  -0.3595161257E-13  -0.3900657523E-13  -0.1901338280E-14   0.1742584798E-14  -0.3141032088E-16   0.2464495598E-01  -0.1231322799E-01  -0.1231322799E-01  -0.1233936590E-15   0.7765558353E-16  -0.2553866197E-16   0.4625000007E+01
   0.0000000000E+00   0.9876867720E+00  -0.4646911012E-17   0.0000000000E+00  -0.1122750000E-02   0.3144003696E-17   0.0000000000E+00  -0.1119047797E-01  -0.7790914708E-17   0.4625000007E+01   0.3210754587E-13   0.3119360459E-13   0.1752158904E-15  -0.4449553107E-15   0.1531637838E-15   0.2464495598E-01  -0.1231322799E-01  -0.1231322799E-01  -0.8990621458E-17  -0.2633803984E-16  -0.8171143778E-17   0.4625000007E+01
   0.0000000000E+00   0.0000000000E+00   0.9876867720E+00   0.0000000000E+00   0.0000000000E+00  -0.1122750000E-02   0.0000000000E+00   0.0000000000E+00  -0.1119047797E-01   0.4625000007E+01  -0.6222725633E-13  -0.6031080610E-13  -0.1685404461E-15  -0.6647054260E-15   0.1093177167E-14   0.2464495598E-01  -0.1231322799E-01  -0.1231322799E-01   0.3001347632E-17  -0.2511856582E-16  -0.2734046295E-16   0.4625000007E+01
   0.1024644956E+01   0.0000000000E+00   0.9876867720E+00   0.2250000000E-02   0.0000000000E+00  -0.1122750000E-02   0.2239495594E-01   0.0000000000E+00  -0.1119047797E-01   0.4625000007E+01   0.2311230382E-13   0.2411442215E-13   0.2079580097E-14  -0.1476797610E-14   0.4424205031E-15   0.2464495598E-01  -0.1231322799E-01  -0.1231322799E-01   0.2338333892E-16  -0.5420170344E-16  -0.1274597116E-16   0.4625000007E+01
   0.1024644956E+01   0.9876867720E+00   0.9876867720E+00   0.2250000000E-02  -0.1122750000E-02  -0.1122750000E-02   0.2239495594E-01  -0.1119047797E-01  -0.1119047797E-01   0.4625000006E+01  -0.4491901532E-13  -0.4344305970E-13   0.2434554223E-14   0.2200523636E-14  -0.1484014875E-14   0.2464495598E-01  -0.1231322799E-01  -0.1231322799E-01   0.6238911612E-16   0.7403473127E-16  -0.2453192034E-16   0.4625000006E+01
   0.0000000000E+00   0.9876867720E+00   0.9876867720E+00   0.0000000000E+00  -0.1122750000E-02  -0.1122750000E-02   0.0000000000E+00  -0.1119047797E-01  -0.1119047797E-01   0.4625000006E+01  -0.4629200245E-13  -0.4516544645E-13  -0.6546344009E-15  -0.6933187931E-15  -0.4785727774E-15   0.2464495598E-01  -0.1231322799E-01  -0.1231322799E-01  -0.5105454285E-16  -0.2927732506E-16  -0.1192133901E-16   0.4625000006E+01
   0.2049289912E+01   0.0000000000E+00  -0.2919404412E-17   0.4500000000E-02   0.0000000000E+00  -0.1178127099E-16   0.4478991189E-01   0.0000000000E+00   0.8861866579E-17   0.4625000007E+01  -0.9980563212E-13  -0.9849620982E-13  -0.1079620319E-14  -0.1217653471E-14  -0.4806900238E-15   0.2464495598E-01  -0.1231322799E-01  -0.1231322799E-01  -0.1546278704E-15  -0.2860807288E-16  -0.2348566756E-16   0.4625000007E+01
   0.2049289912E+01   0.9876867720E+00  -0.1293921444E-16   0.4500000000E-02  -0.1122750000E-02  -0.8880280422E-17   0.4478991189E-01  -0.1119047797E-01  -0.4058934018E-17   0.4625000006E+01  -0.1095294289E-12  -0.1108417689E-12  -0.2303280032E-14  -0.4901565314E-15  -0.5825432709E-15   0.2464495598E-01  -0.1231322799E-01  -0.1231322799E-01  -0.1947419067E-15   0.2524108634E-15   0.8945884691E-16   0.4625000006E+01
   0.2049289912E+01   0.0000000000E+00   0.9876867720E+00   0.4500000000E-02   0.0000000000E+00  -0.1122750000E-02   0.4478991189E-01   0.0000000000E+00  -0.1119047797E-01   0.4625000006E+01   0.8627986318E-13   0.8825289252E-13   0.8594417227E-15   0.6731589293E-15  -0.1246695389E-14   0.2464495598E-01  -0.1231322799E-01  -0.1231322799E-01   0.8307962310E-16  -0.1139063398E-17  -0.5123927256E-16   0.4625000006E+01
   0.2049289912E+01   0.9876867720E+00   0.9876867720E+00   0.4500000000E-02  -0.1122750000E-02  -0.1122750000E-02   0.4478991189E-01  -0.1119047797E-01  -0.1119047797E-01   0.4625000006E+01   0.7835511888E-14   0.6264866901E-14   0.2468453859E-14   0.6768057383E-15   0.5965682280E-15   0.2464495598E-01  -0.1231322799E-01  -0.1231322799E-01   0.1912878825E-15   0.1562317870E-15   0.5370179590E-16   0.4625000006E+01
     1     2     3     4     5     6     7     8
     2     9    10     3     6    11    12     7
 VARIABLES = X,Y,Z,DU1,DU2,DU3,U1,U2,U3,S11,S22,S33,S12,S13,S23,E11,E22,E33,E12,E13,E23,SMISES
 ZONE, T="0.4700D+01" F=FEPOINT, I=   12 J=    2 ET=BRICK
   0.0000000000E+00   0.0000000000E+00   0.0000000000E+00   0.0000000000E+00   0.0000000000E+00   0.0000000000E+00   0.0000000000E+00   0.0000000000E+00   0.0000000000E+00   0.5750000009E+01  -0.6387138269E-13  -0.6490888897E-13  -0.7300048982E-16  -0.2306286729E-15   0.5127078359E-15   0.2689495599E-01  -0.1343597799E-01  -0.1343597799E-01  -0.3520446820E-17  -0.2836235412E-16  -0.1517522522E-16   0.5750000009E+01
   0.1026894956E+01   0.0000000000E+00  -0.9169127621E-17   0.2250000000E-02   0.0000000000E+00   0.1944561415E-17   0.2464495594E-01   0.0000000000E+00  -0.1111368904E-16   0.5750000009E+01  -0.5769759677E-13  -0.5722628605E-13  -0.1306595004E-14  -0.1338696264E-14   0.6360749574E-15   0.2689495599E-01  -0.1343597799E-01  -0.1343597799E-01  -0.8417428735E-16  -0.4622449305E-16  -0.2052162056E-16   0.5750000009E+01
   0.1026894956E+01   0.9865640220E+00  -0.1743625638E-16   0.2250000000E-02  -0.1122750000E-02  -0.2551859487E-18   0.2464495594E-01  -0.1231322797E-01  -0.1718107044E-16   0.5750000008E+01   0.1094401077E-12   0.1070527376E-12  -0.1649578466E-14   0.1800577003E-14   0.3302107026E-15   0.2689495598E-01  -0.1343597799E-01  -0.1343597799E-01  -0.1252917055E-15   0.8053728156E-16  -0.2390458066E-17   0.5750000008E+01
   0.0000000000E+00   0.9865640220E+00  -0.7151940665E-17   0.0000000000E+00  -0.1122750000E-02  -0.2505029653E-17   0.0000000000E+00  -0.1231322797E-01  -0.4646911012E-17   0.5750000008E+01   0.1274399016E-13   0.1262426730E-13   0.3013823442E-15  -0.3096507467E-15   0.5449304313E-15   0.2689495598E-01  -0.1343597799E-01  -0.1343597799E-01  -0.5076050700E-17  -0.2856143324E-16  -0.6417881463E-17   0.5750000008E+01
   0.0000000000E+00   0.0000000000E+00   0.9865640220E+00   0.0000000000E+00   0.0000000000E+00  -0.1122750000E-02   0.0000000000E+00   0.0000000000E+00  -0.1231322797E-01   0.5750000008E+01   0.4280320691E-13   0.4390512022E-13  -0.1819860411E-15  -0.5919300013E-15   0.6819692281E-15   0.2689495598E-01  -0.1343597799E-01  -0.1343597799E-01   0.4424504659E-17  -0.3161416588E-16  -0.1639879892E-16   0.5750000008E+01
   0.1026894956E+01   0.0000000000E+00   0.9865640220E+00   0.2250000000E-02   0.0000000000E+00  -0.1122750000E-02   0.2464495594E-01   0.0000000000E+00  -0.1231322797E-01   0.5750000008E+01   0.3266706887E-13   0.3318300226E-13   0.2114628080E-14  -0.1418461363E-14   0.1273727454E-15   0.2689495598E-01  -0.1343597799E-01  -0.1343597799E-01   0.2262337412E-16  -0.3919657952E-16  -0.1885301428E-16   0.5750000008E+01
   0.1026894956E+01   0.9865640220E+00   0.9865640220E+00   0.2250000000E-02  -0.1122750000E-02  -0.1122750000E-02   0.2464495594E-01  -0.1231322797E-01  -0.1231322797E-01   0.5750000008E+01  -0.1682810042E-13  -0.1574218164E-13   0.2323442302E-14   0.2165508560E-14  -0.1118954283E-14   0.2689495598E-01  -0.1343597799E-01  -0.1343597799E-01   0.6982939141E-16   0.6346544481E-16  -0.2314687042E-16   0.5750000008E+01
   0.0000000000E+00   0.9865640220E+00   0.9865640220E+00   0.0000000000E+00  -0.1122750000E-02  -0.1122750000E-02   0.0000000000E+00  -0.1231322797E-01  -0.1231322797E-01   0.5750000008E+01   0.2509329389E-13   0.2535723892E-13  -0.7332124028E-15  -0.4118077508E-15   0.2728141927E-17   0.2689495598E-01  -0.1343597799E-01  -0.1343597799E-01  -0.5497260858E-16  -0.1385231432E-16  -0.1267950763E-16   0.5750000008E+01
   0.2053789912E+01   0.0000000000E+00   0.4722547649E-17   0.4500000000E-02   0.0000000000E+00   0.7641952060E-17   0.4928991189E-01   0.0000000000E+00  -0.2919404412E-17   0.5750000009E+01  -0.1041999010E-12  -0.1023366306E-12  -0.8213249638E-15  -0.1713684588E-14  -0.6358309737E-15   0.2689495599E-01  -0.1343597799E-01  -0.1343597799E-01  -0.1618763287E-15  -0.1724294544E-17  -0.1877522211E-16   0.5750000009E+01
   0.2053789912E+01   0.9865640220E+00  -0.6340166765E-17   0.4500000000E-02  -0.1122750000E-02   0.6599047675E-17   0.4928991189E-01  -0.1231322797E-01  -0.1293921444E-16   0.5750000008E+01   0.1458538320E-12   0.1452747550E-12  -0.1911870115E-14  -0.7427030867E-15  -0.3159649939E-15   0.2689495598E-01  -0.1343597799E-01  -0.1343597799E-01  -0.1837448457E-15   0.2138596773E-15   0.7727369974E-16   0.5750000008E+01
   0.2053789912E+01   0.0000000000E+00   0.9865640220E+00   0.4500000000E-02   0.0000000000E+00  -0.1122750000E-02   0.4928991189E-01   0.0000000000E+00  -0.1231322797E-01   0.5750000008E+01   0.5550725788E-13   0.5751475045E-13   0.1073995290E-14   0.3397512010E-15  -0.1507873063E-14   0.2689495598E-01  -0.1343597799E-01  -0.1343597799E-01   0.1009584551E-15  -0.2389154741E-17  -0.6004152548E-16   0.5750000008E+01
   0.2053789912E+01   0.9865640220E+00   0.9865640220E+00   0.4500000000E-02  -0.1122750000E-02  -0.1122750000E-02   0.4928991189E-01  -0.1231322797E-01  -0.1231322797E-01   0.5750000007E+01  -0.6842591540E-14  -0.9048358559E-14   0.2421270233E-14   0.5886803884E-15   0.8561092311E-15   0.2689495598E-01  -0.1343597799E-01  -0.1343597799E-01   0.1732293029E-15   0.1456963873E-15   0.6394039537E-16   0.5750000007E+01
     1     2     3     4     5     6     7     8
     2     9    10     3     6    11    12     7
 VARIABLES = X,Y,Z,DU1,DU2,DU3,U1,U2,U3,S11,S22,S33,S12,S13,S23,E11,E22,E33,E12,E13,E23,SMISES
 ZONE, T="0.4750D+01" F=FEPOINT, I=   12 J=    2 ET=BRICK
   0.0000000000E+00   0.0000000000E+00   0.0000000000E+00   0.0000000000E+00   0.0000000000E+00   0.0000000000E+00   0.0000000000E+00   0.0000000000E+00   0.0000000000E+00   0.6875000011E+01   0.5571417975E-13   0.5479586223E-13  -0.8387996158E-16  -0.2608352483E-15   0.6390002545E-15   0.2914495599E-01  -0.1455872800E-01  -0.1455872800E-01   0.1016593609E-17  -0.3407672921E-16  -0.1470458396E-16   0.6875000011E+01
   0.1029144956E+01   0.0000000000E+00  -0.8459570893E-17   0.2250000000E-02   0.0000000000E+00   0.7095567279E-18   0.2689495594E-01   0.0000000000E+00  -0.9169127621E-17   0.6875000011E+01   0.1566097174E-13   0.1627849743E-13  -0.1282266600E-14  -0.1069650273E-14   0.6945189449E-15   0.2914495599E-01  -0.1455872799E-01  -0.1455872799E-01  -0.9975044110E-16  -0.4253311761E-16  -0.1432384331E-16   0.6875000011E+01
   0.1029144956E+01   0.9854412720E+00  -0.1634254941E-16   0.2250000000E-02  -0.1122750000E-02   0.1093706973E-17   0.2689495594E-01  -0.1343597797E-01  -0.1743625638E-16   0.6875000010E+01  -0.2847295204E-14  -0.5254983808E-14  -0.1737708502E-14   0.1785734508E-14   0.6476942894E-15   0.2914495599E-01  -0.1455872799E-01  -0.1455872799E-01  -0.1175514174E-15   0.9196336854E-16  -0.1530426347E-16   0.6875000010E+01
   0.0000000000E+00   0.9854412720E+00  -0.6569521498E-17   0.0000000000E+00  -0.1122750000E-02   0.5824191665E-18   0.0000000000E+00  -0.1343597797E-01  -0.7151940665E-17   0.6875000010E+01   0.1345536587E-12   0.1337264357E-12   0.8042530549E-16  -0.2454421923E-15   0.4419664200E-15   0.2914495599E-01  -0.1455872799E-01  -0.1455872799E-01  -0.1491265346E-16  -0.3407863281E-16  -0.7427218996E-17   0.6875000010E+01
   0.0000000000E+00   0.0000000000E+00   0.9854412720E+00   0.0000000000E+00   0.0000000000E+00  -0.1122750000E-02   0.0000000000E+00   0.0000000000E+00  -0.1343597797E-01   0.6875000010E+01  -0.5595101832E-13  -0.5441916058E-13  -0.1700529642E-15  -0.6438859405E-15   0.6490596934E-15   0.2914495599E-01  -0.1455872799E-01  -0.1455872799E-01   0.7298615835E-18  -0.3070468243E-16  -0.2309414399E-16   0.6875000010E+01
   0.1029144956E+01   0.0000000000E+00   0.9854412720E+00   0.2250000000E-02   0.0000000000E+00  -0.1122750000E-02   0.2689495594E-01   0.0000000000E+00  -0.1343597797E-01   0.6875000010E+01  -0.8844483927E-14  -0.8560024968E-14   0.2157878651E-14  -0.1289968278E-14   0.1022771110E-15   0.2914495599E-01  -0.1455872799E-01  -0.1455872799E-01   0.3829718781E-16  -0.4713532892E-16  -0.1518453668E-16   0.6875000010E+01
   0.1029144956E+01   0.9854412720E+00   0.9854412720E+00   0.2250000000E-02  -0.1122750000E-02  -0.1122750000E-02   0.2689495594E-01  -0.1343597797E-01  -0.1343597797E-01   0.6875000009E+01  -0.2943398890E-13  -0.2877874391E-13   0.2404606074E-14   0.2144445937E-14  -0.9806102693E-15   0.2914495598E-01  -0.1455872799E-01  -0.1455872799E-01   0.6288470336E-16   0.7220046101E-16  -0.3432950612E-16   0.6875000009E+01
   0.0000000000E+00   0.9854412720E+00   0.9854412720E+00   0.0000000000E+00  -0.1122750000E-02  -0.1122750000E-02   0.0000000000E+00  -0.1343597797E-01  -0.1343597797E-01   0.6875000009E+01  -0.1668757099E-13  -0.1580483690E-13  -0.3923221700E-15  -0.4938249447E-15  -0.8745000062E-16   0.2914495598E-01  -0.1455872799E-01  -0.1455872799E-01  -0.4969332038E-16  -0.2430450751E-16   0.2620152445E-17   0.6875000009E+01
   0.2058289912E+01   0.0000000000E+00   0.7829376161E-17   0.4500000000E-02   0.0000000000E+00   0.3106828512E-17   0.5378991189E-01   0.0000000000E+00   0.4722547649E-17   0.6875000010E+01   0.9463616615E-13   0.9801875143E-13  -0.1260957425E-14  -0.2404177594E-14  -0.8003400835E-15   0.2914495599E-01  -0.1455872799E-01  -0.1455872799E-01  -0.1520409189E-15  -0.2388012478E-16  -0.2721125630E-16   0.6875000010E+01
   0.2058289912E+01   0.9854412720E+00  -0.4413271191E-17   0.4500000000E-02  -0.1122750000E-02   0.1926895574E-17   0.5378991189E-01  -0.1343597797E-01  -0.6340166765E-17   0.6875000010E+01  -0.3071139247E-13  -0.3200739942E-13  -0.2456018418E-14  -0.1643034090E-15  -0.3040854071E-15   0.2914495599E-01  -0.1455872799E-01  -0.1455872799E-01  -0.1927003550E-15   0.2346489264E-15   0.9286040219E-16   0.6875000010E+01
   0.2058289912E+01   0.0000000000E+00   0.9854412720E+00   0.4500000000E-02   0.0000000000E+00  -0.1122750000E-02   0.5378991189E-01   0.0000000000E+00  -0.1343597797E-01   0.6875000010E+01   0.2256576847E-13   0.2429497595E-13   0.1463244191E-14   0.4852550140E-15  -0.2025175878E-14   0.2914495599E-01  -0.1455872799E-01  -0.1455872799E-01   0.9018128580E-16   0.1211238061E-16  -0.5689935941E-16   0.6875000010E+01
   0.2058289912E+01   0.9854412720E+00   0.9854412720E+00   0.4500000000E-02  -0.1122750000E-02  -0.1122750000E-02   0.5378991189E-01  -0.1343597797E-01  -0.1343597797E-01   0.6875000009E+01  -0.3506246868E-13  -0.3740229870E-13   0.2667394011E-14   0.6462300818E-15   0.7039433252E-15   0.2914495598E-01  -0.1455872799E-01  -0.1455872799E-01   0.2036511538E-15   0.1335680628E-15   0.5910937542E-16   0.6875000009E+01
     1     2     3     4     5     6     7     8
     2     9    10     3     6    11    12     7
 VARIABLES = X,Y,Z,DU1,DU2,DU3,U1,U2,U3,S11,S22,S33,S12,S13,S23,E11,E22,E33,E12,E13,E23,SMISES
 ZONE, T="0.4800D+01" F=FEPOINT, I=   12 J=    2 ET=BRICK
   0.0000000000E+00   0.0000000000E+00   0.0000000000E+00   0.0000000000E+00   0.0000000000E+00   0.0000000000E+00   0.0000000000E+00   0.0000000000E+00   0.0000000000E+00   0.8000000013E+01   0.1625119923E-13   0.1517033380E-13  -0.7330782611E-16  -0.3351447671E-15   0.4010262523E-15   0.3139495599E-01  -0.1568147800E-01  -0.1568147800E-01  -0.1446900022E-17  -0.2617593719E-16  -0.1491246081E-16   0.8000000013E+01
   0.1031394956E+01   0.0000000000E+00  -0.9201866885E-17   0.2250000000E-02   0.0000000000E+00  -0.7422959922E-18   0.2914495594E-01   0.0000000000E+00  -0.8459570893E-17   0.8000000012E+01  -0.8628886340E-13  -0.8583388560E-13  -0.1461646753E-14  -0.1031721148E-14   0.4968620104E-15   0.3139495599E-01  -0.1568147800E-01  -0.1568147800E-01  -0.9369618332E-16  -0.5161281815E-16  -0.1786671142E-16   0.8000000012E+01
   0.1031394956E+01   0.9843185220E+00  -0.1823064565E-16   0.2250000000E-02  -0.1122750000E-02  -0.1888096243E-17   0.2914495594E-01  -0.1455872797E-01  -0.1634254941E-16   0.8000000011E+01  -0.1973983172E-13  -0.2129706138E-13  -0.1703749057E-14   0.1710718137E-14   0.4174252895E-15   0.3139495599E-01  -0.1568147799E-01  -0.1568147799E-01  -0.1243331144E-15   0.7700744832E-16  -0.2679128032E-16   0.8000000011E+01
   0.0000000000E+00   0.9843185220E+00  -0.7839334302E-17   0.0000000000E+00  -0.1122750000E-02  -0.1269812804E-17   0.0000000000E+00  -0.1455872797E-01  -0.6569521498E-17   0.8000000012E+01   0.5921398142E-13   0.5887148466E-13   0.1427269759E-15  -0.3404995083E-15   0.4902242880E-15   0.3139495599E-01  -0.1568147799E-01  -0.1568147799E-01  -0.7218060139E-17  -0.2454099305E-16  -0.2125799295E-17   0.8000000012E+01
   0.0000000000E+00   0.0000000000E+00   0.9843185220E+00   0.0000000000E+00   0.0000000000E+00  -0.1122750000E-02   0.0000000000E+00   0.0000000000E+00  -0.1455872797E-01   0.8000000012E+01   0.4453585050E-13   0.4578324941E-13  -0.2126373873E-15  -0.6628943259E-15   0.6707253883E-15   0.3139495599E-01  -0.1568147799E-01  -0.1568147799E-01  -0.5579060857E-18  -0.2933177991E-16  -0.2159593080E-16   0.8000000012E+01
   0.1031394956E+01   0.0000000000E+00   0.9843185220E+00   0.2250000000E-02   0.0000000000E+00  -0.1122750000E-02   0.2914495594E-01   0.0000000000E+00  -0.1455872797E-01   0.8000000011E+01   0.1386517956E-13   0.1423091245E-13   0.1800459230E-14  -0.1281832884E-14   0.2066922004E-15   0.3139495599E-01  -0.1568147799E-01  -0.1568147799E-01   0.3441283043E-16  -0.4329980465E-16  -0.1562312353E-16   0.8000000011E+01
   0.1031394956E+01   0.9843185220E+00   0.9843185220E+00   0.2250000000E-02  -0.1122750000E-02  -0.1122750000E-02   0.2914495594E-01  -0.1455872797E-01  -0.1455872797E-01   0.8000000010E+01   0.2461996402E-13   0.2588184614E-13   0.1951428135E-14   0.2046173974E-14  -0.9105296464E-15   0.3139495599E-01  -0.1568147799E-01  -0.1568147799E-01   0.5768362914E-16   0.5637554976E-16  -0.1962862186E-16   0.8000000010E+01
   0.0000000000E+00   0.9843185220E+00   0.9843185220E+00   0.0000000000E+00  -0.1122750000E-02  -0.1122750000E-02   0.0000000000E+00  -0.1455872797E-01  -0.1455872797E-01   0.8000000011E+01  -0.8709138616E-13  -0.8560201496E-13  -0.5976292778E-15  -0.3893617440E-15   0.7148217340E-16   0.3139495599E-01  -0.1568147799E-01  -0.1568147799E-01  -0.5127641064E-16  -0.1981350262E-16  -0.2790526829E-17   0.8000000011E+01
   0.2062789912E+01   0.0000000000E+00   0.5680427396E-17   0.4500000000E-02   0.0000000000E+00  -0.2148948764E-17   0.5828991189E-01   0.0000000000E+00   0.7829376161E-17   0.8000000012E+01  -0.1327706437E-12  -0.1295506065E-12  -0.1555245389E-14  -0.1849703327E-14  -0.8415278656E-15   0.3139495599E-01  -0.1568147800E-01  -0.1568147800E-01  -0.1519989853E-15   0.3979154768E-16  -0.2397656236E-16   0.8000000012E+01
   0.2062789912E+01   0.9843185220E+00  -0.6868308075E-17   0.4500000000E-02  -0.1122750000E-02  -0.2455036884E-17   0.5828991189E-01  -0.1455872797E-01  -0.4413271191E-17   0.8000000011E+01  -0.1595529267E-12  -0.1619402968E-12  -0.2624495259E-14  -0.2154526427E-15  -0.3453152177E-15   0.3139495599E-01  -0.1568147799E-01  -0.1568147799E-01  -0.1952531492E-15   0.2011398457E-15   0.8988366930E-16   0.8000000011E+01
   0.2062789912E+01   0.0000000000E+00   0.9843185220E+00   0.4500000000E-02   0.0000000000E+00  -0.1122750000E-02   0.5828991189E-01   0.0000000000E+00  -0.1455872797E-01   0.8000000011E+01   0.1559394702E-13   0.1546260631E-13   0.9101645793E-15   0.2582146454E-15  -0.1754698541E-14   0.3139495599E-01  -0.1568147799E-01  -0.1568147799E-01   0.7231892617E-16  -0.4330327939E-16  -0.4992233184E-16   0.8000000011E+01
   0.2062789912E+01   0.9843185220E+00   0.9843185220E+00   0.4500000000E-02  -0.1122750000E-02  -0.1122750000E-02   0.5828991189E-01  -0.1455872797E-01  -0.1455872797E-01   0.8000000010E+01   0.8181139966E-13   0.8007820663E-13   0.2341459235E-14   0.7512445139E-15   0.9437407922E-15   0.3139495598E-01  -0.1568147799E-01  -0.1568147799E-01   0.1848556685E-15   0.2037473917E-15   0.5775751917E-16   0.8000000010E+01
     1     2     3     4     5     6     7     8
     2     9    10     3     6    11    12     7
 VARIABLES = X,Y,Z,DU1,DU2,DU3,U1,U2,U3,S11,S22,S33,S12,S13,S23,E11,E22,E33,E12,E13,E23,SMISES
 ZONE, T="0.4850D+01" F=FEPOINT, I=   12 J=    2 ET=BRICK
   0.0000000000E+00   0.0000000000E+00   0.0000000000E+00   0.0000000000E+00   0.0000000000E+00   0.0000000000E+00   0.0000000000E+00   0.0000000000E+00   0.0000000000E+00   0.9125000014E+01  -0.5469363710E-13  -0.5568778428E-13  -0.8179262747E-16  -0.3991267774E-15   0.9844780208E-16   0.3364495600E-01  -0.1680422800E-01  -0.1680422800E-01   0.8454747760E-18  -0.2790212199E-16  -0.1531660242E-16   0.9125000014E+01
   0.1033644956E+01   0.0000000000E+00  -0.9119371587E-17   0.2250000000E-02   0.0000000000E+00   0.8249529849E-19   0.3139495594E-01   0.0000000000E+00  -0.9201866885E-17   0.9125000014E+01   0.2721370034E-13   0.2798288536E-13  -0.1560542256E-14  -0.9833158227E-15   0.3661266085E-15   0.3364495600E-01  -0.1680422800E-01  -0.1680422800E-01  -0.1063192801E-15  -0.5343331310E-16  -0.2079434371E-16   0.9125000014E+01
   0.1033644956E+01   0.9831957720E+00  -0.1899418513E-16   0.2250000000E-02  -0.1122750000E-02  -0.7635394726E-18   0.3139495594E-01  -0.1568147797E-01  -0.1823064565E-16   0.9125000013E+01   0.1001112155E-12   0.9906048925E-13  -0.1791797826E-14   0.1953451162E-14   0.5562452763E-15   0.3364495599E-01  -0.1680422800E-01  -0.1680422800E-01  -0.1255677621E-15   0.1178385125E-15  -0.2182437548E-16   0.9125000013E+01
   0.0000000000E+00   0.9831957720E+00  -0.9526569072E-17   0.0000000000E+00  -0.1122750000E-02  -0.1687234770E-17   0.0000000000E+00  -0.1568147797E-01  -0.7839334302E-17   0.9125000013E+01  -0.2456872684E-13  -0.2492065345E-13   0.1075330227E-15  -0.3064352082E-15   0.5549782368E-15   0.3364495599E-01  -0.1680422800E-01  -0.1680422800E-01  -0.7121497208E-17  -0.4289303949E-16  -0.2028124099E-17   0.9125000013E+01
   0.0000000000E+00   0.0000000000E+00   0.9831957720E+00   0.0000000000E+00   0.0000000000E+00  -0.1122750000E-02   0.0000000000E+00   0.0000000000E+00  -0.1568147797E-01   0.9125000013E+01   0.7634069327E-13   0.7673909202E-13  -0.2181088258E-15  -0.6163782311E-15   0.6143829781E-15   0.3364495599E-01  -0.1680422800E-01  -0.1680422800E-01  -0.6202722808E-18  -0.3723561186E-16  -0.2017023290E-16   0.9125000013E+01
   0.1033644956E+01   0.0000000000E+00   0.9831957720E+00   0.2250000000E-02   0.0000000000E+00  -0.1122750000E-02   0.3139495594E-01   0.0000000000E+00  -0.1568147797E-01   0.9125000013E+01   0.1896418135E-13   0.1920800326E-13   0.1765448171E-14  -0.1123569990E-14   0.6009583737E-16   0.3364495599E-01  -0.1680422800E-01  -0.1680422800E-01   0.3754699402E-16  -0.3268638469E-16  -0.8146474794E-17   0.9125000013E+01
   0.1033644956E+01   0.9831957720E+00   0.9831957720E+00   0.2250000000E-02  -0.1122750000E-02  -0.1122750000E-02   0.3139495594E-01  -0.1568147797E-01  -0.1568147797E-01   0.9125000012E+01  -0.1879933725E-13  -0.1837702544E-13   0.1823600352E-14   0.2116250533E-14  -0.7192476794E-15   0.3364495599E-01  -0.1680422799E-01  -0.1680422799E-01   0.5404039350E-16   0.6655086902E-16  -0.5514043174E-17   0.9125000012E+01
   0.0000000000E+00   0.9831957720E+00   0.9831957720E+00   0.0000000000E+00  -0.1122750000E-02  -0.1122750000E-02   0.0000000000E+00  -0.1568147797E-01  -0.1568147797E-01   0.9125000012E+01  -0.4111333509E-13  -0.4011413441E-13  -0.6991519751E-15  -0.4101575307E-15   0.3610205186E-15   0.3364495599E-01  -0.1680422799E-01  -0.1680422799E-01  -0.5880588980E-16  -0.1233783055E-16  -0.1822414928E-16   0.9125000012E+01
   0.2067289912E+01   0.0000000000E+00   0.8805815362E-17   0.4500000000E-02   0.0000000000E+00   0.3125387966E-17   0.6278991189E-01   0.0000000000E+00   0.5680427396E-17   0.9125000014E+01   0.9939775833E-13   0.1035440842E-12  -0.1510874627E-14  -0.1883484605E-14  -0.1053724268E-14   0.3364495600E-01  -0.1680422800E-01  -0.1680422800E-01  -0.1689164914E-15  -0.8467964096E-17  -0.2730877672E-16   0.9125000014E+01
   0.2067289912E+01   0.9831957720E+00  -0.4843889862E-17   0.4500000000E-02  -0.1122750000E-02   0.2024418213E-17   0.6278991189E-01  -0.1568147797E-01  -0.6868308075E-17   0.9125000013E+01   0.1509533678E-12   0.1494853832E-12  -0.2632286222E-14  -0.7463013048E-15  -0.1360754107E-15   0.3364495599E-01  -0.1680422800E-01  -0.1680422800E-01  -0.1993980606E-15   0.2220454324E-15   0.9282028597E-16   0.9125000013E+01
   0.2067289912E+01   0.0000000000E+00   0.9831957720E+00   0.4500000000E-02   0.0000000000E+00  -0.1122750000E-02   0.6278991189E-01   0.0000000000E+00  -0.1568147797E-01   0.9125000013E+01   0.3696383185E-13   0.3600235069E-13   0.5487030305E-15   0.1252011321E-15  -0.1882193060E-14   0.3364495599E-01  -0.1680422800E-01  -0.1680422800E-01   0.9170729352E-16  -0.5522570497E-16  -0.6419903337E-16   0.9125000013E+01
   0.2067289912E+01   0.9831957720E+00   0.9831957720E+00   0.4500000000E-02  -0.1122750000E-02  -0.1122750000E-02   0.6278991189E-01  -0.1568147797E-01  -0.1568147797E-01   0.9125000012E+01   0.4708207840E-13   0.4454450769E-13   0.2089248225E-14   0.4672337664E-15   0.1102106163E-14   0.3364495599E-01  -0.1680422799E-01  -0.1680422799E-01   0.1746184570E-15   0.1410448548E-15   0.4840074582E-16   0.9125000012E+01
     1     2     3     4     5     6     7     8
     2     9    10     3     6    11    12     7
 VARIABLES = X,Y,Z,DU1,DU2,DU3,U1,U2,U3,S11,S22,S33,S12,S13,S23,E11,E22,E33,E12,E13,E23,SMISES
 ZONE, T="0.4900D+01" F=FEPOINT, I=   12 J=    2 ET=BRICK
   0.0000000000E+00   0.0000000000E+00   0.0000000000E+00   0.0000000000E+00   0.0000000000E+00   0.0000000000E+00   0.0000000000E+00   0.0000000000E+00   0.0000000000E+00   0.1024999973E+02   0.1434328456E-06   0.1434328413E-06  -0.6922631998E-16  -0.4108888087E-14   0.3571204488E-15   0.4097129131E-01  -0.2046514566E-01  -0.2046514566E-01   0.4258454603E-17  -0.8796957161E-16  -0.2331506182E-16   0.1024999959E+02
   0.1040971291E+01   0.0000000000E+00  -0.4008786502E-16   0.7326335306E-02   0.0000000000E+00  -0.3096849343E-16   0.3364495594E-01   0.0000000000E+00  -0.9119371587E-17   0.1024999973E+02   0.1434329871E-06   0.1434329844E-06  -0.1074434793E-14  -0.2596313075E-14   0.2339029741E-14   0.4097129131E-01  -0.2046514566E-01  -0.2046514566E-01  -0.1016730853E-15  -0.7008550589E-16   0.1421387480E-16   0.1024999959E+02
   0.1040971291E+01   0.9795348544E+00  -0.3443429860E-16   0.7326335306E-02  -0.3660917653E-02  -0.1544011347E-16   0.3364495594E-01  -0.1680422797E-01  -0.1899418513E-16   0.1024999973E+02   0.1434326192E-06   0.1434326155E-06  -0.1797553148E-14   0.9861453311E-15  -0.4686692611E-15   0.4097129131E-01  -0.2046514565E-01  -0.2046514565E-01  -0.1421424953E-15   0.8598540567E-16  -0.3102850069E-16   0.1024999958E+02
   0.0000000000E+00   0.9795348544E+00  -0.7957938233E-17   0.0000000000E+00  -0.3660917653E-02   0.1568630839E-17   0.0000000000E+00  -0.1680422797E-01  -0.9526569072E-17   0.1024999973E+02   0.1434327875E-06   0.1434327833E-06  -0.4762900748E-15  -0.1468902612E-14  -0.2880179930E-14   0.4097129131E-01  -0.2046514566E-01  -0.2046514566E-01  -0.9414462285E-17  -0.4636220304E-16  -0.3184653258E-16   0.1024999958E+02
   0.0000000000E+00   0.0000000000E+00   0.9795348544E+00   0.0000000000E+00   0.0000000000E+00  -0.3660917653E-02   0.0000000000E+00   0.0000000000E+00  -0.1680422797E-01   0.1024999973E+02   0.1434328084E-06   0.1434328104E-06  -0.1949445726E-15  -0.4095634132E-14   0.4236970556E-15   0.4097129131E-01  -0.2046514566E-01  -0.2046514566E-01   0.5899673341E-18  -0.7123340322E-16  -0.2167909192E-16   0.1024999958E+02
   0.1040971291E+01   0.0000000000E+00   0.9795348544E+00   0.7326335306E-02   0.0000000000E+00  -0.3660917653E-02   0.3364495594E-01   0.0000000000E+00  -0.1680422797E-01   0.1024999973E+02   0.1434329095E-06   0.1434329144E-06   0.1778373621E-14  -0.2025725587E-14   0.2114785570E-14   0.4097129131E-01  -0.2046514565E-01  -0.2046514565E-01   0.3315340698E-16  -0.6267234938E-16   0.1186478829E-16   0.1024999958E+02
   0.1040971291E+01   0.9795348544E+00   0.9795348544E+00   0.7326335306E-02  -0.3660917653E-02  -0.3660917653E-02   0.3364495594E-01  -0.1680422797E-01  -0.1680422797E-01   0.1024999973E+02   0.1434330862E-06   0.1434330886E-06   0.1849626616E-14   0.9608288018E-15  -0.1741852941E-14   0.4097129130E-01  -0.2046514565E-01  -0.2046514565E-01   0.6429846103E-16   0.5630693125E-16  -0.3889377655E-16   0.1024999958E+02
   0.0000000000E+00   0.9795348544E+00   0.9795348544E+00   0.0000000000E+00  -0.3660917653E-02  -0.3660917653E-02   0.0000000000E+00  -0.1680422797E-01  -0.1680422797E-01   0.1024999973E+02   0.1434329310E-06   0.1434329330E-06  -0.6941755472E-15  -0.1103161826E-14  -0.3032678687E-14   0.4097129131E-01  -0.2046514565E-01  -0.2046514565E-01  -0.5790339425E-16  -0.2833680044E-16  -0.5189116222E-16   0.1024999958E+02
   0.2081942583E+01   0.0000000000E+00  -0.6435814636E-16   0.1465267061E-01   0.0000000000E+00  -0.7316396172E-16   0.6728991189E-01   0.0000000000E+00   0.8805815362E-17   0.1024999973E+02   0.1434331058E-06   0.1434331067E-06  -0.1827433639E-14  -0.1377916027E-14   0.4450136331E-15   0.4097129131E-01  -0.2046514566E-01  -0.2046514566E-01  -0.1859351826E-15  -0.1261556893E-16  -0.5365128468E-17   0.1024999959E+02
   0.2081942583E+01   0.9795348544E+00  -0.6822497640E-16   0.1465267061E-01  -0.3660917653E-02  -0.6338108654E-16   0.6728991189E-01  -0.1680422797E-01  -0.4843889862E-17   0.1024999973E+02   0.1434322503E-06   0.1434322463E-06  -0.2752835316E-14  -0.3335984990E-15  -0.1865936257E-14   0.4097129131E-01  -0.2046514565E-01  -0.2046514565E-01  -0.2241782547E-15   0.2884272923E-15   0.5013067809E-16   0.1024999958E+02
   0.2081942583E+01   0.0000000000E+00   0.9795348544E+00   0.1465267061E-01   0.0000000000E+00  -0.3660917653E-02   0.6728991189E-01   0.0000000000E+00  -0.1680422797E-01   0.1024999973E+02   0.1434329605E-06   0.1434329621E-06   0.9248078392E-15  -0.1722963394E-15  -0.1857866867E-15   0.4097129131E-01  -0.2046514565E-01  -0.2046514565E-01   0.8713566597E-16  -0.3801027775E-16  -0.3151559222E-16   0.1024999958E+02
   0.2081942583E+01   0.9795348544E+00   0.9795348544E+00   0.1465267061E-01  -0.3660917653E-02  -0.3660917653E-02   0.6728991189E-01  -0.1680422797E-01  -0.1680422797E-01   0.1024999973E+02   0.1434330480E-06   0.1434330489E-06   0.2037151944E-14   0.6811915494E-15  -0.8648173298E-15   0.4097129130E-01  -0.2046514565E-01  -0.2046514565E-01   0.2042666316E-15   0.2140383763E-15   0.4758589570E-16   0.1024999958E+02
     1     2     3     4     5     6     7     8
     2     9    10     3     6    11    12     7
 VARIABLES = X,Y,Z,DU1,DU2,DU3,U1,U2,U3,S11,S22,S33,S12,S13,S23,E11,E22,E33,E12,E13,E23,SMISES
 ZONE, T="0.4950D+01" F=FEPOINT, I=   12 J=    2 ET=BRICK
   0.0000000000E+00   0.0000000000E+00   0.0000000000E+00   0.0000000000E+00   0.0000000000E+00   0.0000000000E+00   0.0000000000E+00   0.0000000000E+00   0.0000000000E+00   0.1137499401E+02   0.3005158021E-05   0.3005158024E-05   0.9529744344E-17   0.1045848309E-14  -0.4551988167E-15   0.6774423336E-01  -0.3384936668E-01  -0.3384936668E-01  -0.2171342882E-17  -0.2229440037E-16  -0.3583336151E-16   0.1137499100E+02
   0.1067744233E+01   0.0000000000E+00   0.4571216061E-17   0.2677294200E-01   0.0000000000E+00   0.4465908108E-16   0.4097129125E-01   0.0000000000E+00  -0.4008786502E-16   0.1137499401E+02   0.3005158627E-05   0.3005158629E-05  -0.8721421761E-15  -0.8442299903E-15  -0.7816980197E-15   0.6774423336E-01  -0.3384936668E-01  -0.3384936668E-01  -0.1000860459E-15  -0.1560150641E-16  -0.4454332513E-16   0.1137499100E+02
   0.1067744233E+01   0.9661506334E+00  -0.1339593312E-16   0.2677294200E-01  -0.1338422100E-01   0.2103836548E-16   0.4097129125E-01  -0.2046514563E-01  -0.3443429860E-16   0.1137499401E+02   0.3005157915E-05   0.3005157916E-05  -0.1008515375E-14   0.1698476880E-14   0.9994411620E-15   0.6774423335E-01  -0.3384936668E-01  -0.3384936668E-01  -0.1167688297E-15   0.7684689264E-16   0.1051903737E-16   0.1137499100E+02
   0.0000000000E+00   0.9661506334E+00  -0.1330518841E-16   0.0000000000E+00  -0.1338422100E-01  -0.5347250176E-17   0.0000000000E+00  -0.2046514563E-01  -0.7957938233E-17   0.1137499401E+02   0.3005157302E-05   0.3005157304E-05   0.7725814655E-15   0.3270573733E-15   0.1911580957E-14   0.6774423335E-01  -0.3384936668E-01  -0.3384936668E-01   0.1951405810E-17  -0.1461441316E-17   0.3655633515E-16   0.1137499100E+02
   0.0000000000E+00   0.0000000000E+00   0.9661506334E+00   0.0000000000E+00   0.0000000000E+00  -0.1338422100E-01   0.0000000000E+00   0.0000000000E+00  -0.2046514563E-01   0.1137499401E+02   0.3005158416E-05   0.3005158413E-05  -0.1208905554E-15   0.8593231333E-15  -0.3094781951E-16   0.6774423335E-01  -0.3384936668E-01  -0.3384936668E-01   0.4749475500E-17  -0.1097586415E-16  -0.3908594664E-16   0.1137499100E+02
   0.1067744233E+01   0.0000000000E+00   0.9661506334E+00   0.2677294200E-01   0.0000000000E+00  -0.1338422100E-01   0.4097129125E-01   0.0000000000E+00  -0.2046514563E-01   0.1137499401E+02   0.3005158292E-05   0.3005158293E-05   0.7623775015E-15   0.4708701883E-15  -0.1071841444E-14   0.6774423335E-01  -0.3384936668E-01  -0.3384936668E-01   0.1063321981E-16  -0.1934987835E-16  -0.2602851594E-16   0.1137499100E+02
   0.1067744233E+01   0.9661506334E+00   0.9661506334E+00   0.2677294200E-01  -0.1338422100E-01  -0.1338422100E-01   0.4097129125E-01  -0.2046514563E-01  -0.2046514563E-01   0.1137499400E+02   0.3005158126E-05   0.3005158124E-05   0.7827274716E-15   0.4014876362E-15  -0.2363619414E-17   0.6774423334E-01  -0.3384936667E-01  -0.3384936667E-01   0.2824392321E-16   0.7786047182E-16  -0.6296537115E-17   0.1137499100E+02
   0.0000000000E+00   0.9661506334E+00   0.9661506334E+00   0.0000000000E+00  -0.1338422100E-01  -0.1338422100E-01   0.0000000000E+00  -0.2046514563E-01  -0.2046514563E-01   0.1137499400E+02   0.3005157879E-05   0.3005157878E-05  -0.6071938016E-15   0.5957089870E-15   0.1450100389E-14   0.6774423334E-01  -0.3384936667E-01  -0.3384936667E-01  -0.5873776035E-16  -0.1420236928E-16   0.2648953298E-16   0.1137499100E+02
   0.2135488467E+01   0.0000000000E+00   0.5022136842E-16   0.5354588401E-01   0.0000000000E+00   0.1145795148E-15   0.8194258250E-01   0.0000000000E+00  -0.6435814636E-16   0.1137499401E+02   0.3005157501E-05   0.3005157505E-05   0.5025806966E-15  -0.5141553835E-15  -0.1105854309E-14   0.6774423336E-01  -0.3384936668E-01  -0.3384936668E-01  -0.1486075795E-15  -0.9446491933E-16  -0.3722457286E-16   0.1137499100E+02
   0.2135488467E+01   0.9661506334E+00   0.2915993809E-16   0.5354588401E-01  -0.1338422100E-01   0.9738491449E-16   0.8194258250E-01  -0.2046514563E-01  -0.6822497640E-16   0.1137499401E+02   0.3005157487E-05   0.3005157489E-05  -0.1125312628E-14  -0.2581555979E-14   0.1539824420E-14   0.6774423335E-01  -0.3384936667E-01  -0.3384936667E-01  -0.2017129836E-15   0.2974022272E-15   0.1074419776E-15   0.1137499100E+02
   0.2135488467E+01   0.0000000000E+00   0.9661506334E+00   0.5354588401E-01   0.0000000000E+00  -0.1338422100E-01   0.8194258250E-01   0.0000000000E+00  -0.2046514563E-01   0.1137499401E+02   0.3005157709E-05   0.3005157706E-05  -0.6759628125E-15  -0.4819893542E-16  -0.1686884711E-14   0.6774423335E-01  -0.3384936667E-01  -0.3384936667E-01   0.8151806362E-16  -0.1297904852E-16  -0.7714464378E-16   0.1137499100E+02
   0.2135488467E+01   0.9661506334E+00   0.9661506334E+00   0.5354588401E-01  -0.1338422100E-01  -0.1338422100E-01   0.8194258250E-01  -0.2046514563E-01  -0.2046514563E-01   0.1137499400E+02   0.3005158637E-05   0.3005158634E-05   0.5452631218E-15   0.4669428205E-15   0.1430560885E-14   0.6774423334E-01  -0.3384936667E-01  -0.3384936667E-01   0.2108057819E-15   0.1533222540E-15   0.8254685521E-16   0.1137499100E+02
     1     2     3     4     5     6     7     8
     2     9    10     3     6    11    12     7
 VARIABLES = X,Y,Z,DU1,DU2,DU3,U1,U2,U3,S11,S22,S33,S12,S13,S23,E11,E22,E33,E12,E13,E23,SMISES
 ZONE, T="0.5000D+01" F=FEPOINT, I=   12 J=    2 ET=BRICK
   0.0000000000E+00   0.0000000000E+00   0.0000000000E+00   0.0000000000E+00   0.0000000000E+00   0.0000000000E+00   0.0000000000E+00   0.0000000000E+00   0.0000000000E+00   0.1249998613E+02   0.6944758374E-05   0.6944758374E-05   0.7574369436E-16   0.7445273324E-15  -0.3406536254E-15   0.9646448100E-01  -0.4820724050E-01  -0.4820724050E-01   0.7807159280E-17   0.2027833869E-16  -0.2210724960E-16   0.1249997919E+02
   0.1096464481E+01   0.0000000000E+00   0.9152151141E-17   0.2872024759E-01   0.0000000000E+00   0.4580935080E-17   0.6774423325E-01   0.0000000000E+00   0.4571216061E-17   0.1249998613E+02   0.6944757216E-05   0.6944757216E-05  -0.1221868528E-14  -0.1444463640E-14  -0.8122082748E-15   0.9646448100E-01  -0.4820724050E-01  -0.4820724050E-01  -0.1386009743E-15  -0.1065503239E-15  -0.4870497341E-16   0.1249997918E+02
   0.1096464481E+01   0.9517927596E+00  -0.1449873795E-16   0.2872024759E-01  -0.1435787380E-01  -0.1102804835E-17   0.6774423325E-01  -0.3384936663E-01  -0.1339593312E-16   0.1249998613E+02   0.6944758227E-05   0.6944758229E-05  -0.1048924771E-14   0.7292978240E-15   0.2750193106E-15   0.9646448099E-01  -0.4820724049E-01  -0.4820724049E-01  -0.1515842159E-15   0.1303915619E-15  -0.2418124129E-16   0.1249997918E+02
   0.0000000000E+00   0.9517927596E+00  -0.1552372005E-16   0.0000000000E+00  -0.1435787380E-01  -0.2218531637E-17   0.0000000000E+00  -0.3384936663E-01  -0.1330518841E-16   0.1249998613E+02   0.6944757997E-05   0.6944758000E-05  -0.5995120801E-15   0.1051144763E-15   0.4219902288E-15   0.9646448099E-01  -0.4820724049E-01  -0.4820724049E-01  -0.1826418967E-16  -0.4455205741E-16   0.2408187269E-16   0.1249997918E+02
   0.0000000000E+00   0.0000000000E+00   0.9517927596E+00   0.0000000000E+00   0.0000000000E+00  -0.1435787380E-01   0.0000000000E+00   0.0000000000E+00  -0.3384936663E-01   0.1249998613E+02   0.6944756544E-05   0.6944756541E-05  -0.1833341564E-16   0.2413557101E-16   0.1613527253E-15   0.9646448099E-01  -0.4820724049E-01  -0.4820724049E-01  -0.5254469681E-17   0.1161375122E-17  -0.4951335915E-16   0.1249997918E+02
   0.1096464481E+01   0.0000000000E+00   0.9517927596E+00   0.2872024759E-01   0.0000000000E+00  -0.1435787380E-01   0.6774423325E-01   0.0000000000E+00  -0.3384936663E-01   0.1249998613E+02   0.6944757730E-05   0.6944757728E-05   0.5667807042E-15  -0.8178387978E-15   0.3681542712E-16   0.9646448099E-01  -0.4820724049E-01  -0.4820724049E-01   0.3937680462E-16  -0.8025746258E-16  -0.2909559087E-16   0.1249997918E+02
   0.1096464481E+01   0.9517927596E+00   0.9517927596E+00   0.2872024759E-01  -0.1435787380E-01  -0.1435787380E-01   0.6774423325E-01  -0.3384936663E-01  -0.3384936663E-01   0.1249998613E+02   0.6944757113E-05   0.6944757113E-05   0.7255041282E-15   0.3959459476E-15   0.1660640517E-15   0.9646448097E-01  -0.4820724049E-01  -0.4820724049E-01   0.5274330135E-16   0.1036554944E-15   0.1097688478E-17   0.1249997918E+02
   0.0000000000E+00   0.9517927596E+00   0.9517927596E+00   0.0000000000E+00  -0.1435787380E-01  -0.1435787380E-01   0.0000000000E+00  -0.3384936663E-01  -0.3384936663E-01   0.1249998613E+02   0.6944757436E-05   0.6944757438E-05  -0.1477039244E-15   0.2454716834E-15   0.1080376333E-14   0.9646448098E-01  -0.4820724049E-01  -0.4820724049E-01  -0.6107872760E-16  -0.7248290904E-17   0.2974954690E-16   0.1249997918E+02
   0.2192928962E+01   0.0000000000E+00   0.6042530185E-16   0.5744049519E-01   0.0000000000E+00   0.1020393343E-16   0.1354884665E+00   0.0000000000E+00   0.5022136842E-16   0.1249998613E+02   0.6944756381E-05   0.6944756382E-05  -0.3659406279E-15   0.1730645402E-14  -0.6239176362E-15   0.9646448099E-01  -0.4820724050E-01  -0.4820724050E-01  -0.1708009590E-15  -0.7822799725E-16  -0.3126522291E-16   0.1249997918E+02
   0.2192928962E+01   0.9517927596E+00   0.3923414351E-16   0.5744049519E-01  -0.1435787380E-01   0.1007420542E-16   0.1354884665E+00  -0.3384936663E-01   0.2915993809E-16   0.1249998613E+02   0.6944758166E-05   0.6944758164E-05  -0.7240863659E-15  -0.1846932340E-14   0.2362883344E-15   0.9646448098E-01  -0.4820724049E-01  -0.4820724049E-01  -0.2391250629E-15   0.2306961934E-15   0.6684944920E-16   0.1249997918E+02
   0.2192928962E+01   0.0000000000E+00   0.9517927596E+00   0.5744049519E-01   0.0000000000E+00  -0.1435787380E-01   0.1354884665E+00   0.0000000000E+00  -0.3384936663E-01   0.1249998613E+02   0.6944759201E-05   0.6944759198E-05  -0.1068042949E-14  -0.7899058889E-15  -0.6741880055E-15   0.9646448098E-01  -0.4820724049E-01  -0.4820724049E-01   0.8555181605E-16   0.3690361881E-16  -0.7667825466E-16   0.1249997918E+02
   0.2192928962E+01   0.9517927596E+00   0.9517927596E+00   0.5744049519E-01  -0.1435787380E-01  -0.1435787380E-01   0.1354884665E+00  -0.3384936663E-01  -0.3384936663E-01   0.1249998613E+02   0.6944756506E-05   0.6944756503E-05  -0.5929096339E-15   0.1168042913E-14   0.1882492900E-15   0.9646448097E-01  -0.4820724049E-01  -0.4820724049E-01   0.2326349100E-15  -0.3688904006E-17   0.5378504163E-16   0.1249997918E+02
     1     2     3     4     5     6     7     8
     2     9    10     3     6    11    12     7
 VARIABLES = X,Y,Z,DU1,DU2,DU3,U1,U2,U3,S11,S22,S33,S12,S13,S23,E11,E22,E33,E12,E13,E23,SMISES
 ZONE, T="0.5050D+01" F=FEPOINT, I=   12 J=    2 ET=BRICK
   0.0000000000E+00   0.0000000000E+00   0.0000000000E+00   0.0000000000E+00   0.0000000000E+00   0.0000000000E+00   0.0000000000E+00   0.0000000000E+00   0.0000000000E+00   0.1137500002E+02  -0.7511480051E-12  -0.1176427244E-11   0.5983938767E-16  -0.4319414922E-12  -0.1216149074E-12   0.9421452264E-01  -0.4708451132E-01  -0.4708451132E-01  -0.2213020048E-17  -0.5195631880E-14  -0.1498103402E-14   0.1137500002E+02
   0.1094214522E+01   0.0000000000E+00  -0.2667535309E-14  -0.2249958359E-02   0.0000000000E+00  -0.2676687460E-14   0.9646448085E-01   0.0000000000E+00   0.9152151141E-17   0.1137500002E+02  -0.3149795314E-12  -0.4175833112E-12  -0.1093893576E-12  -0.2884533888E-12   0.1235880695E-12   0.9421452263E-01  -0.4708451132E-01  -0.4708451132E-01  -0.1422887607E-14  -0.3496208433E-14   0.1452669159E-14   0.1137500002E+02
   0.1094214522E+01   0.9529154888E+00  -0.1945397712E-14  -0.2249958359E-02   0.1122729180E-02  -0.1930898974E-14   0.9646448085E-01  -0.4820724042E-01  -0.1449873795E-16   0.1137500002E+02   0.1443200264E-12   0.2530636365E-12  -0.1008239989E-12  -0.1721734536E-12  -0.6281811087E-13   0.9421452262E-01  -0.4708451131E-01  -0.4708451131E-01  -0.1355831850E-14  -0.1946793470E-14  -0.7642755393E-15   0.1137500002E+02
   0.0000000000E+00   0.9529154888E+00  -0.7424807938E-15   0.0000000000E+00   0.1122729180E-02  -0.7269570737E-15   0.0000000000E+00  -0.4820724042E-01  -0.1552372005E-16   0.1137500002E+02  -0.8475018678E-12  -0.1050181183E-11  -0.1184948278E-12  -0.1202987130E-12  -0.3041679701E-12   0.9421452263E-01  -0.4708451131E-01  -0.4708451131E-01  -0.1433898273E-14  -0.1490444602E-14  -0.3590426550E-14   0.1137500002E+02
   0.0000000000E+00   0.0000000000E+00   0.9529154888E+00   0.0000000000E+00   0.0000000000E+00   0.1122729180E-02   0.0000000000E+00   0.0000000000E+00  -0.4820724042E-01   0.1137500002E+02  -0.1638174706E-11  -0.1699902220E-11  -0.1133429296E-16  -0.3034711733E-12  -0.1079148760E-13   0.9421452263E-01  -0.4708451131E-01  -0.4708451131E-01   0.8675288859E-17  -0.3678145318E-14  -0.1450658540E-15   0.1137500002E+02
   0.1094214522E+01   0.0000000000E+00   0.9529154888E+00  -0.2249958359E-02   0.0000000000E+00   0.1122729180E-02   0.9646448085E-01   0.0000000000E+00  -0.4820724042E-01   0.1137500002E+02   0.4052035084E-12   0.6769490104E-12  -0.1059018650E-12  -0.2874207040E-12   0.2285745022E-12   0.9421452262E-01  -0.4708451131E-01  -0.4708451131E-01  -0.1237007084E-14  -0.3494170387E-14   0.2709938299E-14   0.1137500002E+02
   0.1094214522E+01   0.9529154888E+00   0.9529154888E+00  -0.2249958359E-02   0.1122729180E-02   0.1122729180E-02   0.9646448085E-01  -0.4820724042E-01  -0.4820724042E-01   0.1137500001E+02  -0.2217522131E-12   0.2601869014E-12  -0.1016874472E-12  -0.1759238951E-12   0.4126102413E-13   0.9421452261E-01  -0.4708451131E-01  -0.4708451131E-01  -0.1131678096E-14  -0.2047059369E-14   0.4946330499E-15   0.1137500001E+02
   0.0000000000E+00   0.9529154888E+00   0.9529154888E+00   0.0000000000E+00   0.1122729180E-02   0.1122729180E-02   0.0000000000E+00  -0.4820724042E-01  -0.4820724042E-01   0.1137500002E+02   0.5638135374E-12   0.7272612377E-12  -0.1219509514E-12   0.1714386147E-14  -0.1934553166E-12   0.9421452262E-01  -0.4708451131E-01  -0.4708451131E-01  -0.1558583518E-14   0.3783600522E-16  -0.2301594421E-14   0.1137500002E+02
   0.2188429045E+01   0.0000000000E+00  -0.5622130239E-14  -0.4499916718E-02   0.0000000000E+00  -0.5682555541E-14   0.1929289617E+00   0.0000000000E+00   0.6042530185E-16   0.1137500002E+02  -0.8919004588E-12  -0.1348787034E-11  -0.2110128963E-12  -0.1361000871E-12   0.1028473390E-12   0.9421452263E-01  -0.4708451132E-01  -0.4708451132E-01  -0.2733722476E-14  -0.1775458980E-14   0.1206199978E-14   0.1137500002E+02
   0.2188429045E+01   0.9529154888E+00  -0.5023018438E-14  -0.4499916718E-02   0.1122729180E-02  -0.5062252581E-14   0.1929289617E+00  -0.4820724042E-01   0.3923414351E-16   0.1137500002E+02   0.1727520130E-11   0.1473749926E-11  -0.7676110821E-13  -0.2249213061E-12  -0.8846567832E-13   0.9421452262E-01  -0.4708451131E-01  -0.4708451131E-01  -0.1117614202E-14  -0.2327871761E-14  -0.9679527409E-15   0.1137500002E+02
   0.2188429045E+01   0.0000000000E+00   0.9529154888E+00  -0.4499916718E-02   0.0000000000E+00   0.1122729180E-02   0.1929289617E+00   0.0000000000E+00  -0.4820724042E-01   0.1137500002E+02   0.1178782331E-11   0.1103402772E-11  -0.2094346844E-12  -0.2668073735E-12   0.2052932752E-12   0.9421452262E-01  -0.4708451131E-01  -0.4708451131E-01  -0.2367424195E-14  -0.3306970103E-14   0.2391462152E-14   0.1137500002E+02
   0.2188429045E+01   0.9529154888E+00   0.9529154888E+00  -0.4499916718E-02   0.1122729180E-02   0.1122729180E-02   0.1929289617E+00  -0.4820724042E-01  -0.4820724042E-01   0.1137500001E+02  -0.6241910960E-12  -0.4967220195E-12  -0.7885134296E-13  -0.3505270295E-12   0.1412790073E-13   0.9421452261E-01  -0.4708451130E-01  -0.4708451130E-01  -0.6916573284E-15  -0.4103798265E-14   0.2496536807E-15   0.1137500001E+02
     1     2     3     4     5     6     7     8
     2     9    10     3     6    11    12     7
 VARIABLES = X,Y,Z,DU1,DU2,DU3,U1,U2,U3,S11,S22,S33,S12,S13,S23,E11,E22,E33,E12,E13,E23,SMISES
 ZONE, T="0.5100D+01" F=FEPOINT, I=   12 J=    2 ET=BRICK
   0.0000000000E+00   0.0000000000E+00   0.0000000000E+00   0.0000000000E+00   0.0000000000E+00   0.0000000000E+00   0.0000000000E+00   0.0000000000E+00   0.0000000000E+00   0.1025000002E+02  -0.1424052326E-13  -0.1427863354E-13   0.8365450600E-16  -0.3330350394E-15  -0.4194333877E-15   0.9196452263E-01  -0.4596176132E-01  -0.4596176132E-01   0.3387029958E-17  -0.8015568160E-17  -0.2375743188E-16   0.1025000002E+02
   0.1091964522E+01   0.0000000000E+00   0.2476125267E-17  -0.2250000000E-02   0.0000000000E+00   0.2670011434E-14   0.9421452249E-01   0.0000000000E+00  -0.2667535309E-14   0.1025000002E+02  -0.5664257208E-13  -0.5701627586E-13  -0.1009417933E-14  -0.5209191777E-15  -0.8000562359E-16   0.9196452263E-01  -0.4596176132E-01  -0.4596176132E-01  -0.1409606266E-15  -0.9533373445E-17  -0.4241944623E-16   0.1025000002E+02
   0.1091964522E+01   0.9540382388E+00  -0.1688127435E-16  -0.2250000000E-02   0.1122750000E-02   0.1928516438E-14   0.9421452249E-01  -0.4708451124E-01  -0.1945397712E-14   0.1025000001E+02   0.2467555151E-13   0.2694246951E-13  -0.7986198262E-15   0.6749683520E-15   0.7516489010E-15   0.9196452262E-01  -0.4596176131E-01  -0.4596176131E-01  -0.1571403975E-15   0.1234167781E-15  -0.3521473120E-16   0.1025000001E+02
   0.0000000000E+00   0.9540382388E+00  -0.1586810313E-16   0.0000000000E+00   0.1122750000E-02   0.7266126906E-15   0.0000000000E+00  -0.4708451124E-01  -0.7424807938E-15   0.1025000001E+02   0.6951581937E-13   0.7128566391E-13  -0.6702789812E-15   0.3717462646E-15   0.4640087840E-15   0.9196452262E-01  -0.4596176131E-01  -0.4596176131E-01  -0.2989478220E-16  -0.5605149227E-16  -0.1719046660E-17   0.1025000001E+02
   0.0000000000E+00   0.0000000000E+00   0.9540382388E+00   0.0000000000E+00   0.0000000000E+00   0.1122750000E-02   0.0000000000E+00   0.0000000000E+00  -0.4708451124E-01   0.1025000001E+02   0.6557694917E-13   0.6341162365E-13  -0.1590031417E-16  -0.9336746741E-15  -0.2989844868E-15   0.9196452262E-01  -0.4596176131E-01  -0.4596176131E-01   0.1758456432E-17  -0.1274484193E-16  -0.6609030676E-16   0.1025000001E+02
   0.1091964522E+01   0.0000000000E+00   0.9540382388E+00  -0.2250000000E-02   0.0000000000E+00   0.1122750000E-02   0.9421452249E-01   0.0000000000E+00  -0.4708451124E-01   0.1025000001E+02  -0.3488846149E-13  -0.3531369105E-13   0.2911076283E-16  -0.1581211606E-15   0.4190386803E-15   0.9196452262E-01  -0.4596176131E-01  -0.4596176131E-01   0.4289071025E-16  -0.8451097584E-16  -0.3366028606E-18   0.1025000001E+02
   0.1091964522E+01   0.9540382388E+00   0.9540382388E+00  -0.2250000000E-02   0.1122750000E-02   0.1122750000E-02   0.9421452249E-01  -0.4708451124E-01  -0.4708451124E-01   0.1025000001E+02  -0.1155898149E-13  -0.1140732216E-13  -0.7705921289E-16   0.8082617872E-15   0.3938598240E-15   0.9196452261E-01  -0.4596176130E-01  -0.4596176130E-01   0.5026281592E-16   0.1203741186E-15  -0.4711331245E-17   0.1025000001E+02
   0.0000000000E+00   0.9540382388E+00   0.9540382388E+00   0.0000000000E+00   0.1122750000E-02   0.1122750000E-02   0.0000000000E+00  -0.4708451124E-01  -0.4708451124E-01   0.1025000001E+02  -0.1374521146E-13  -0.1264840390E-13  -0.4136037521E-15   0.2367584903E-15   0.6496102378E-15   0.9196452261E-01  -0.4596176131E-01  -0.4596176131E-01  -0.8489410665E-16   0.4405313455E-16   0.1236212785E-15   0.1025000001E+02
   0.2183929045E+01   0.0000000000E+00   0.4699556804E-16  -0.4500000000E-02   0.0000000000E+00   0.5669125807E-14   0.1884290450E+00   0.0000000000E+00  -0.5622130239E-14   0.1025000002E+02   0.8265557553E-13   0.8261241171E-13  -0.3710925765E-14  -0.8796845950E-15  -0.1282123631E-14   0.9196452263E-01  -0.4596176131E-01  -0.4596176131E-01  -0.2490456744E-15  -0.1213807008E-15  -0.5190479959E-16   0.1025000002E+02
   0.2183929045E+01   0.9540382388E+00   0.2165604738E-16  -0.4500000000E-02   0.1122750000E-02   0.5044674485E-14   0.1884290450E+00  -0.4708451124E-01  -0.5023018438E-14   0.1025000001E+02   0.3223551858E-13   0.3153817772E-13  -0.3936890873E-14  -0.3742476146E-15  -0.1233566090E-14   0.9196452262E-01  -0.4596176131E-01  -0.4596176131E-01  -0.3124247427E-15   0.2039122690E-15   0.7989700260E-16   0.1025000001E+02
   0.2183929045E+01   0.0000000000E+00   0.9540382388E+00  -0.4500000000E-02   0.0000000000E+00   0.1122750000E-02   0.1884290450E+00   0.0000000000E+00  -0.4708451124E-01   0.1025000001E+02  -0.1016053813E-12  -0.1037518472E-12   0.2080491472E-14  -0.4308971597E-14  -0.5602414669E-15   0.9196452262E-01  -0.4596176131E-01  -0.4596176131E-01   0.1716143785E-15  -0.2023950411E-15  -0.6133012125E-16   0.1025000001E+02
   0.2183929045E+01   0.9540382388E+00   0.9540382388E+00  -0.4500000000E-02   0.1122750000E-02   0.1122750000E-02   0.1884290450E+00  -0.4708451124E-01  -0.4708451124E-01   0.1025000001E+02  -0.5415801852E-13  -0.5561764139E-13   0.2248601977E-14   0.4263293907E-14  -0.2746403371E-15   0.9196452261E-01  -0.4596176130E-01  -0.4596176130E-01   0.1976537201E-15   0.2380589945E-15   0.6907203318E-16   0.1025000001E+02
     1     2     3     4     5     6     7     8
     2     9    10     3     6    11    12     7
 VARIABLES = X,Y,Z,DU1,DU2,DU3,U1,U2,U3,S11,S22,S33,S12,S13,S23,E11,E22,E33,E12,E13,E23,SMISES
 ZONE, T="0.5150D+01" F=FEPOINT, I=   12 J=    2 ET=BRICK
   0.0000000000E+00   0.0000000000E+00   0.0000000000E+00   0.0000000000E+00   0.0000000000E+00   0.0000000000E+00   0.0000000000E+00   0.0000000000E+00   0.0000000000E+00   0.9125000014E+01   0.5182647055E-13   0.5199008636E-13   0.7182242726E-16  -0.3533137266E-15  -0.2967872315E-15   0.8971452263E-01  -0.4483901131E-01  -0.4483901131E-01  -0.2800170571E-17   0.4728827846E-17  -0.2050112023E-16   0.9125000014E+01
   0.1089714522E+01   0.0000000000E+00   0.2162345862E-17  -0.2250000000E-02   0.0000000000E+00  -0.3137794056E-18   0.9196452249E-01   0.0000000000E+00   0.2476125267E-17   0.9125000014E+01  -0.3578147932E-13  -0.3641786469E-13  -0.1048241736E-14  -0.6987445101E-15   0.2361249672E-15   0.8971452263E-01  -0.4483901131E-01  -0.4483901131E-01  -0.1486308073E-15  -0.8909002411E-16  -0.2965073675E-16   0.9125000014E+01
   0.1089714522E+01   0.9551609888E+00  -0.1536309842E-16  -0.2250000000E-02   0.1122750000E-02   0.1518175934E-17   0.9196452249E-01  -0.4596176124E-01  -0.1688127435E-16   0.9125000013E+01   0.2885839586E-13   0.2976038044E-13  -0.8028108271E-15   0.7780690970E-15   0.7850382226E-15   0.8971452262E-01  -0.4483901131E-01  -0.4483901131E-01  -0.1802161806E-15   0.1638933207E-15  -0.1714200373E-17   0.9125000013E+01
   0.0000000000E+00   0.9551609888E+00  -0.1511754375E-16   0.0000000000E+00   0.1122750000E-02   0.7505593730E-18   0.0000000000E+00  -0.4596176124E-01  -0.1586810313E-16   0.9125000013E+01  -0.5112881485E-13  -0.4893918519E-13  -0.1353124573E-15   0.6046655417E-15   0.5766652629E-15   0.8971452262E-01  -0.4483901131E-01  -0.4483901131E-01  -0.1240453558E-16  -0.3431026937E-16   0.4295982107E-16   0.9125000013E+01
   0.0000000000E+00   0.0000000000E+00   0.9551609888E+00   0.0000000000E+00   0.0000000000E+00   0.1122750000E-02   0.0000000000E+00   0.0000000000E+00  -0.4596176124E-01   0.9125000013E+01   0.3185428344E-13   0.2963490558E-13  -0.2590276680E-17  -0.8780475136E-15  -0.2833126827E-15   0.8971452262E-01  -0.4483901131E-01  -0.4483901131E-01   0.1280113450E-16  -0.1340064448E-16  -0.7468250969E-16   0.9125000013E+01
   0.1089714522E+01   0.0000000000E+00   0.9551609888E+00  -0.2250000000E-02   0.0000000000E+00   0.1122750000E-02   0.9196452249E-01   0.0000000000E+00  -0.4596176124E-01   0.9125000013E+01   0.5697876782E-13   0.5662392357E-13   0.2044480588E-15  -0.3201126757E-15   0.2726694156E-15   0.8971452262E-01  -0.4483901131E-01  -0.4483901131E-01   0.1827496221E-16  -0.8262654659E-16  -0.7811091260E-17   0.9125000013E+01
   0.1089714522E+01   0.9551609888E+00   0.9551609888E+00  -0.2250000000E-02   0.1122750000E-02   0.1122750000E-02   0.9196452249E-01  -0.4596176124E-01  -0.4596176124E-01   0.9125000012E+01   0.1082694577E-13   0.1085669412E-13   0.1135978269E-15   0.8358174320E-15   0.6780466947E-16   0.8971452261E-01  -0.4483901130E-01  -0.4483901130E-01   0.6068196995E-16   0.1444044372E-15   0.4724714257E-17   0.9125000012E+01
   0.0000000000E+00   0.9551609888E+00   0.9551609888E+00   0.0000000000E+00   0.1122750000E-02   0.1122750000E-02   0.0000000000E+00  -0.4596176124E-01  -0.4596176124E-01   0.9125000012E+01  -0.4548517697E-13  -0.4425702861E-13  -0.2948682410E-15   0.9455408098E-16   0.8028914218E-15   0.8971452261E-01  -0.4483901130E-01  -0.4483901130E-01  -0.8239479559E-16  -0.9016209524E-17   0.7938396246E-16   0.9125000012E+01
   0.2179429045E+01   0.0000000000E+00   0.4517964749E-16  -0.4500000000E-02   0.0000000000E+00  -0.1815920547E-17   0.1839290450E+00   0.0000000000E+00   0.4699556804E-16   0.9125000014E+01  -0.1578572937E-12  -0.1571922280E-12  -0.3245791936E-14  -0.5545628800E-15  -0.1064576605E-14   0.8971452262E-01  -0.4483901131E-01  -0.4483901131E-01  -0.1827560260E-15  -0.1440422057E-15  -0.6713620709E-16   0.9125000014E+01
   0.2179429045E+01   0.9551609888E+00   0.2120081072E-16  -0.4500000000E-02   0.1122750000E-02  -0.4552366640E-18   0.1839290450E+00  -0.4596176124E-01   0.2165604738E-16   0.9125000013E+01   0.5663126466E-13   0.5603950173E-13  -0.3829196833E-14  -0.6306708295E-15  -0.1207178480E-14   0.8971452261E-01  -0.4483901131E-01  -0.4483901131E-01  -0.2650996907E-15   0.2654569381E-15   0.9357460956E-16   0.9125000013E+01
   0.2179429045E+01   0.0000000000E+00   0.9551609888E+00  -0.4500000000E-02   0.0000000000E+00   0.1122750000E-02   0.1839290450E+00   0.0000000000E+00  -0.4596176124E-01   0.9125000013E+01   0.6586013095E-13   0.6449918301E-13   0.2472812134E-14  -0.4105228943E-14  -0.6336674255E-15   0.8971452261E-01  -0.4483901131E-01  -0.4483901131E-01   0.1964488514E-15  -0.1440837676E-15  -0.4771966629E-16   0.9125000013E+01
   0.2179429045E+01   0.9551609888E+00   0.9551609888E+00  -0.4500000000E-02   0.1122750000E-02   0.1122750000E-02   0.1839290450E+00  -0.4596176124E-01  -0.4596176124E-01   0.9125000012E+01   0.7930056407E-13   0.7756882982E-13   0.2551085986E-14   0.4887735762E-14  -0.6216843376E-15   0.8971452260E-01  -0.4483901130E-01  -0.4483901130E-01   0.3041613475E-15   0.1691012284E-15   0.7038523563E-16   0.9125000012E+01
     1     2     3     4     5     6     7     8
     2     9    10     3     6    11    12     7
 VARIABLES = X,Y,Z,DU1,DU2,DU3,U1,U2,U3,S11,S22,S33,S12,S13,S23,E11,E22,E33,E12,E13,E23,SMISES
 ZONE, T="0.5200D+01" F=FEPOINT, I=   12 J=    2 ET=BRICK
   0.0000000000E+00   0.0000000000E+00   0.0000000000E+00   0.0000000000E+00   0.0000000000E+00   0.0000000000E+00   0.0000000000E+00   0.0000000000E+00   0.0000000000E+00   0.8000000013E+01  -0.1001217075E-12  -0.1004130694E-12   0.8067634903E-16  -0.4114807264E-15  -0.4546039187E-15   0.8746452263E-01  -0.4371626131E-01  -0.4371626131E-01   0.6658050572E-17  -0.2349759557E-16  -0.4176029728E-16   0.8000000013E+01
   0.1087464522E+01   0.0000000000E+00   0.2844904094E-17  -0.2250000000E-02   0.0000000000E+00   0.6825582317E-18   0.8971452249E-01   0.0000000000E+00   0.2162345862E-17   0.8000000012E+01  -0.1124221618E-13  -0.1058405344E-13  -0.8643041511E-15  -0.5822557032E-15   0.6647096111E-16   0.8746452262E-01  -0.4371626131E-01  -0.4371626131E-01  -0.1743373649E-15  -0.4837562170E-16  -0.3567740548E-16   0.8000000012E+01
   0.1087464522E+01   0.9562837388E+00  -0.1564626271E-16  -0.2250000000E-02   0.1122750000E-02  -0.2831642877E-18   0.8971452249E-01  -0.4483901124E-01  -0.1536309842E-16   0.8000000011E+01   0.1614100412E-13   0.1742758127E-13  -0.7118435166E-15   0.7602920659E-15   0.1093883505E-14   0.8746452261E-01  -0.4371626131E-01  -0.4371626131E-01  -0.1902241782E-15   0.1448487824E-15   0.6665128569E-19   0.8000000011E+01
   0.0000000000E+00   0.9562837388E+00  -0.1623829920E-16   0.0000000000E+00   0.1122750000E-02  -0.1120755443E-17   0.0000000000E+00  -0.4483901124E-01  -0.1511754375E-16   0.8000000012E+01   0.1181826807E-12   0.1212822660E-12  -0.3434378948E-15   0.6171317793E-15   0.6190101413E-15   0.8746452262E-01  -0.4371626131E-01  -0.4371626131E-01  -0.6334153720E-17  -0.1997015843E-16   0.5968491140E-16   0.8000000012E+01
   0.0000000000E+00   0.0000000000E+00   0.9562837388E+00   0.0000000000E+00   0.0000000000E+00   0.1122750000E-02   0.0000000000E+00   0.0000000000E+00  -0.4483901124E-01   0.8000000012E+01   0.3585326487E-13   0.3370427229E-13   0.3160294165E-16  -0.8061263231E-15  -0.4554204581E-15   0.8746452262E-01  -0.4371626131E-01  -0.4371626131E-01   0.1081144967E-17  -0.1575776533E-16  -0.2898427823E-16   0.8000000012E+01
   0.1087464522E+01   0.0000000000E+00   0.9562837388E+00  -0.2250000000E-02   0.0000000000E+00   0.1122750000E-02   0.8971452249E-01   0.0000000000E+00  -0.4483901124E-01   0.8000000011E+01   0.4104927961E-13   0.4045061352E-13   0.2656728838E-15  -0.2156124306E-15   0.8825308822E-17   0.8746452261E-01  -0.4371626131E-01  -0.4371626131E-01   0.5738281375E-16  -0.4808763889E-16  -0.1965943834E-16   0.8000000011E+01
   0.1087464522E+01   0.9562837388E+00   0.9562837388E+00  -0.2250000000E-02   0.1122750000E-02   0.1122750000E-02   0.8971452249E-01  -0.4483901124E-01  -0.4483901124E-01   0.8000000010E+01  -0.4193688540E-13  -0.4190713708E-13   0.3521026042E-15   0.8343826202E-15   0.3131672326E-15   0.8746452260E-01  -0.4371626130E-01  -0.4371626130E-01   0.7817315839E-16   0.1274612415E-15   0.4133703660E-16   0.8000000010E+01
   0.0000000000E+00   0.9562837388E+00   0.9562837388E+00   0.0000000000E+00   0.1122750000E-02   0.1122750000E-02   0.0000000000E+00  -0.4483901124E-01  -0.4483901124E-01   0.8000000011E+01  -0.4417865922E-13  -0.4324585831E-13  -0.2892605355E-15   0.9395872080E-16   0.8028649791E-15   0.8746452261E-01  -0.4371626130E-01  -0.4371626130E-01  -0.9594479038E-16   0.2286290440E-17   0.5778058696E-16   0.8000000011E+01
   0.2174929045E+01   0.0000000000E+00   0.5082179817E-16  -0.4500000000E-02   0.0000000000E+00   0.5642150684E-17   0.1794290450E+00   0.0000000000E+00   0.4517964749E-16   0.8000000012E+01   0.7585977377E-13   0.7697981736E-13  -0.3407893948E-14  -0.7805849432E-15  -0.1304794471E-14   0.8746452262E-01  -0.4371626131E-01  -0.4371626131E-01  -0.1534538939E-15  -0.1345283799E-15  -0.4623902832E-16   0.8000000012E+01
   0.2174929045E+01   0.9562837388E+00   0.2551891586E-16  -0.4500000000E-02   0.1122750000E-02   0.4318105141E-17   0.1794290450E+00  -0.4483901124E-01   0.2120081072E-16   0.8000000011E+01  -0.5262159758E-13  -0.5230340490E-13  -0.3836196674E-14  -0.8295382754E-15  -0.8348592272E-15   0.8746452261E-01  -0.4371626131E-01  -0.4371626131E-01  -0.1759829107E-15   0.1999977508E-15   0.8083156053E-16   0.8000000011E+01
   0.2174929045E+01   0.0000000000E+00   0.9562837388E+00  -0.4500000000E-02   0.0000000000E+00   0.1122750000E-02   0.1794290450E+00   0.0000000000E+00  -0.4483901124E-01   0.8000000011E+01   0.7581927945E-14   0.5381409672E-14   0.2521694975E-14  -0.4463148019E-14  -0.8261120097E-15   0.8746452261E-01  -0.4371626131E-01  -0.4371626131E-01   0.1286940548E-15  -0.1653676791E-15  -0.6856422111E-16   0.8000000011E+01
   0.2174929045E+01   0.9562837388E+00   0.9562837388E+00  -0.4500000000E-02   0.1122750000E-02   0.1122750000E-02   0.1794290450E+00  -0.4483901124E-01  -0.4483901124E-01   0.8000000010E+01   0.5156747150E-14   0.2463531654E-14   0.2760756015E-14   0.4780260504E-14  -0.3705022650E-15   0.8746452260E-01  -0.4371626130E-01  -0.4371626130E-01   0.2151034501E-15   0.2276686753E-15   0.1017202015E-15   0.8000000010E+01
     1     2     3     4     5     6     7     8
     2     9    10     3     6    11    12     7
 VARIABLES = X,Y,Z,DU1,DU2,DU3,U1,U2,U3,S11,S22,S33,S12,S13,S23,E11,E22,E33,E12,E13,E23,SMISES
 ZONE, T="0.5250D+01" F=FEPOINT, I=   12 J=    2 ET=BRICK
   0.0000000000E+00   0.0000000000E+00   0.0000000000E+00   0.0000000000E+00   0.0000000000E+00   0.0000000000E+00   0.0000000000E+00   0.0000000000E+00   0.0000000000E+00   0.6875000011E+01   0.7445932777E-13   0.7373330647E-13   0.5852178947E-16  -0.5050047643E-15  -0.8760325502E-16   0.8521452262E-01  -0.4259351131E-01  -0.4259351131E-01  -0.2203808721E-18  -0.1991199279E-17  -0.2284413058E-16   0.6875000011E+01
   0.1085214522E+01   0.0000000000E+00   0.1489888865E-17  -0.2250000000E-02   0.0000000000E+00  -0.1355015228E-17   0.8746452249E-01   0.0000000000E+00   0.2844904094E-17   0.6875000011E+01   0.4436828567E-14   0.4144398719E-14  -0.1183247542E-14  -0.9638231620E-15   0.4343512585E-15   0.8521452262E-01  -0.4259351131E-01  -0.4259351131E-01  -0.1735753048E-15  -0.1193183116E-15  -0.3637531500E-16   0.6875000011E+01
   0.1085214522E+01   0.9574064888E+00  -0.1477966751E-16  -0.2250000000E-02   0.1122750000E-02   0.8665951933E-18   0.8746452249E-01  -0.4371626124E-01  -0.1564626271E-16   0.6875000010E+01  -0.2227755272E-13  -0.2213386446E-13  -0.1076896215E-14   0.1051380769E-14   0.8908600068E-15   0.8521452261E-01  -0.4259351131E-01  -0.4259351131E-01  -0.2053204554E-15   0.1813003277E-15   0.4110040555E-17   0.6875000010E+01
   0.0000000000E+00   0.9574064888E+00  -0.1378880732E-16   0.0000000000E+00   0.1122750000E-02   0.2449491876E-17   0.0000000000E+00  -0.4371626124E-01  -0.1623829920E-16   0.6875000010E+01  -0.7140522799E-13  -0.6888797585E-13  -0.1877345322E-15   0.5052290450E-15   0.6119871681E-15   0.8521452261E-01  -0.4259351131E-01  -0.4259351131E-01   0.4011447397E-17  -0.2422722679E-16   0.4108061488E-16   0.6875000010E+01
   0.0000000000E+00   0.0000000000E+00   0.9574064888E+00   0.0000000000E+00   0.0000000000E+00   0.1122750000E-02   0.0000000000E+00   0.0000000000E+00  -0.4371626124E-01   0.6875000010E+01  -0.1374288977E-12  -0.1396210539E-12   0.5284800214E-16  -0.8189262741E-15  -0.1742880533E-15   0.8521452261E-01  -0.4259351131E-01  -0.4259351131E-01   0.4356524916E-17  -0.3520668420E-17  -0.4997836451E-16   0.6875000010E+01
   0.1085214522E+01   0.0000000000E+00   0.9574064888E+00  -0.2250000000E-02   0.0000000000E+00   0.1122750000E-02   0.8746452249E-01   0.0000000000E+00  -0.4371626124E-01   0.6875000010E+01   0.6723176872E-14   0.7186125649E-14   0.5871198667E-15  -0.4873961670E-15   0.1867744017E-15   0.8521452261E-01  -0.4259351131E-01  -0.4259351131E-01   0.5788439518E-16  -0.7369717818E-16  -0.1843004457E-16   0.6875000010E+01
   0.1085214522E+01   0.9574064888E+00   0.9574064888E+00  -0.2250000000E-02   0.1122750000E-02   0.1122750000E-02   0.8746452249E-01  -0.4371626124E-01  -0.4371626124E-01   0.6875000009E+01  -0.2178079404E-13  -0.2179168269E-13   0.6545960012E-15   0.1141856438E-14  -0.8061781013E-16   0.8521452260E-01  -0.4259351130E-01  -0.4259351130E-01   0.6195323695E-16   0.1345126550E-15  -0.6001546531E-18   0.6875000009E+01
   0.0000000000E+00   0.9574064888E+00   0.9574064888E+00   0.0000000000E+00   0.1122750000E-02   0.1122750000E-02   0.0000000000E+00  -0.4371626124E-01  -0.4371626124E-01   0.6875000009E+01   0.1356070255E-13   0.1475764379E-13  -0.2124976494E-15  -0.1658127408E-16   0.5712634832E-15   0.8521452260E-01  -0.4259351130E-01  -0.4259351130E-01  -0.6933789499E-16   0.6312757286E-18   0.6625113076E-16   0.6875000009E+01
   0.2170429045E+01   0.0000000000E+00   0.4414288623E-16  -0.4500000000E-02   0.0000000000E+00  -0.6678911945E-17   0.1749290450E+00   0.0000000000E+00   0.5082179817E-16   0.6875000010E+01  -0.8840729448E-13  -0.8654927302E-13  -0.3083201518E-14  -0.1086150285E-14  -0.9351101759E-15   0.8521452262E-01  -0.4259351131E-01  -0.4259351131E-01  -0.1452031792E-15  -0.4794734373E-16  -0.5843422364E-16   0.6875000010E+01
   0.2170429045E+01   0.9574064888E+00   0.2103566615E-16  -0.4500000000E-02   0.1122750000E-02  -0.4483249708E-17   0.1749290450E+00  -0.4371626124E-01   0.2551891586E-16   0.6875000010E+01   0.3908507496E-13   0.3941668302E-13  -0.3595651623E-14  -0.5741403243E-15  -0.1135112899E-14   0.8521452261E-01  -0.4259351130E-01  -0.4259351130E-01  -0.1798794571E-15   0.1610285252E-15   0.9967513655E-16   0.6875000010E+01
   0.2170429045E+01   0.0000000000E+00   0.9574064888E+00  -0.4500000000E-02   0.0000000000E+00   0.1122750000E-02   0.1749290450E+00   0.0000000000E+00  -0.4371626124E-01   0.6875000010E+01   0.3787706524E-13   0.3689526554E-13   0.3099456371E-14  -0.3950413900E-14  -0.7701271101E-15   0.8521452261E-01  -0.4259351130E-01  -0.4259351130E-01   0.1651776407E-15   0.2779541247E-16  -0.4725832869E-16   0.6875000010E+01
   0.2170429045E+01   0.9574064888E+00   0.9574064888E+00  -0.4500000000E-02   0.1122750000E-02   0.1122750000E-02   0.1749290450E+00  -0.4371626124E-01  -0.4371626124E-01   0.6875000009E+01  -0.8660525164E-13  -0.8877164517E-13   0.3160848515E-14   0.5194523031E-14  -0.1000092063E-14   0.8521452260E-01  -0.4259351130E-01  -0.4259351130E-01   0.2783654921E-15   0.1896465834E-15   0.5872730421E-16   0.6875000009E+01
     1     2     3     4     5     6     7     8
     2     9    10     3     6    11    12     7
 VARIABLES = X,Y,Z,DU1,DU2,DU3,U1,U2,U3,S11,S22,S33,S12,S13,S23,E11,E22,E33,E12,E13,E23,SMISES
 ZONE, T="0.5300D+01" F=FEPOINT, I=   12 J=    2 ET=BRICK
   0.0000000000E+00   0.0000000000E+00   0.0000000000E+00   0.0000000000E+00   0.0000000000E+00   0.0000000000E+00   0.0000000000E+00   0.0000000000E+00   0.0000000000E+00   0.5750000009E+01  -0.4538209007E-13  -0.4512159673E-13   0.6001246255E-16  -0.2313582531E-15  -0.2502744223E-15   0.8296452262E-01  -0.4147076131E-01  -0.4147076131E-01   0.8294869479E-17   0.4337061654E-17  -0.4319880080E-16   0.5750000009E+01
   0.1082964522E+01   0.0000000000E+00   0.3337040537E-17  -0.2250000000E-02   0.0000000000E+00   0.1847151672E-17   0.8521452249E-01   0.0000000000E+00   0.1489888865E-17   0.5750000009E+01  -0.6413113230E-13  -0.6428133270E-13  -0.6082898177E-15  -0.6405610182E-15   0.1873029060E-15   0.8296452262E-01  -0.4147076131E-01  -0.4147076131E-01  -0.1895741395E-15  -0.5884334513E-16  -0.2985959271E-16   0.5750000009E+01
   0.1082964522E+01   0.9585292388E+00  -0.1442854041E-16  -0.2250000000E-02   0.1122750000E-02   0.3511271017E-18   0.8521452249E-01  -0.4259351124E-01  -0.1477966751E-16   0.5750000008E+01   0.7018924420E-13   0.7090437688E-13  -0.4637262367E-15   0.7683202913E-15   0.1092061804E-14   0.8296452261E-01  -0.4147076130E-01  -0.4147076130E-01  -0.2201019026E-15   0.1928026022E-15   0.2956531337E-16   0.5750000008E+01
   0.0000000000E+00   0.9585292388E+00  -0.1479056838E-16   0.0000000000E+00   0.1122750000E-02  -0.1001761062E-17   0.0000000000E+00  -0.4259351124E-01  -0.1378880732E-16   0.5750000008E+01   0.4608038336E-13   0.4845958706E-13  -0.1291108144E-15   0.5818118032E-15   0.1071825918E-14   0.8296452261E-01  -0.4147076130E-01  -0.4147076130E-01  -0.3446195749E-17  -0.3898062151E-16   0.2722098411E-16   0.5750000008E+01
   0.0000000000E+00   0.0000000000E+00   0.9585292388E+00   0.0000000000E+00   0.0000000000E+00   0.1122750000E-02   0.0000000000E+00   0.0000000000E+00  -0.4259351124E-01   0.5750000008E+01   0.8683410485E-13   0.8436565621E-13   0.7319623179E-16  -0.8645079652E-15  -0.7392557000E-15   0.8296452261E-01  -0.4147076130E-01  -0.4147076130E-01  -0.7232978088E-17   0.2420565170E-17  -0.1299018226E-17   0.5750000008E+01
   0.1082964522E+01   0.0000000000E+00   0.9585292388E+00  -0.2250000000E-02   0.0000000000E+00   0.1122750000E-02   0.8521452249E-01   0.0000000000E+00  -0.4259351124E-01   0.5750000008E+01  -0.2207325338E-13  -0.2240379363E-13   0.3795435202E-15  -0.2557745604E-15  -0.1137554646E-15   0.8296452261E-01  -0.4147076130E-01  -0.4147076130E-01   0.5883056718E-16  -0.5884197008E-16  -0.6533664126E-16   0.5750000008E+01
   0.1082964522E+01   0.9585292388E+00   0.9585292388E+00  -0.2250000000E-02   0.1122750000E-02   0.1122750000E-02   0.8521452249E-01  -0.4259351124E-01  -0.4259351124E-01   0.5750000008E+01  -0.5253407096E-13  -0.5303114457E-13   0.3904423512E-15   0.9267929427E-15   0.8766684118E-16   0.8296452260E-01  -0.4147076130E-01  -0.4147076130E-01   0.6941008444E-16   0.1756890063E-15   0.3632455989E-16   0.5750000008E+01
   0.0000000000E+00   0.9585292388E+00   0.9585292388E+00   0.0000000000E+00   0.1122750000E-02   0.1122750000E-02   0.0000000000E+00  -0.4259351124E-01  -0.4259351124E-01   0.5750000008E+01  -0.9383303138E-13  -0.9339910145E-13  -0.2885394432E-15   0.1730922987E-15   0.6527579023E-15   0.8296452260E-01  -0.4147076130E-01  -0.4147076130E-01  -0.5617395548E-16   0.9434412019E-17   0.1439267530E-16   0.5750000008E+01
   0.2165929045E+01   0.0000000000E+00   0.4938956913E-16  -0.4500000000E-02   0.0000000000E+00   0.5246682903E-17   0.1704290450E+00   0.0000000000E+00   0.4414288623E-16   0.5750000009E+01  -0.6511035886E-15   0.1747884559E-14  -0.2682917485E-14  -0.9974975180E-15  -0.1095455570E-14   0.8296452261E-01  -0.4147076131E-01  -0.4147076131E-01  -0.1075593509E-15  -0.9563997045E-16  -0.5110761151E-16   0.5750000009E+01
   0.2165929045E+01   0.9585292388E+00   0.2532526400E-16  -0.4500000000E-02   0.1122750000E-02   0.4289597850E-17   0.1704290450E+00  -0.4259351124E-01   0.2103566615E-16   0.5750000008E+01   0.4880330374E-13   0.4941664852E-13  -0.3260086262E-14  -0.1299315442E-14  -0.8243480543E-15   0.8296452260E-01  -0.4147076130E-01  -0.4147076130E-01  -0.1438633878E-15   0.2909834024E-15   0.1065961269E-15   0.5750000008E+01
   0.2165929045E+01   0.0000000000E+00   0.9585292388E+00  -0.4500000000E-02   0.0000000000E+00   0.1122750000E-02   0.1704290450E+00   0.0000000000E+00  -0.4259351124E-01   0.5750000008E+01  -0.3125826282E-13  -0.3255154757E-13   0.3138826998E-14  -0.4342839958E-14  -0.8041947262E-15   0.8296452260E-01  -0.4147076130E-01  -0.4147076130E-01   0.1621334997E-15   0.4715912940E-16  -0.3522749210E-16   0.5750000008E+01
   0.2165929045E+01   0.9585292388E+00   0.9585292388E+00  -0.4500000000E-02   0.1122750000E-02   0.1122750000E-02   0.1704290450E+00  -0.4259351124E-01  -0.4259351124E-01   0.5750000007E+01   0.1037579223E-13   0.7910795074E-14   0.3240288588E-14   0.5190672901E-14  -0.4518696959E-15   0.8296452260E-01  -0.4147076130E-01  -0.4147076130E-01   0.2452439357E-15   0.4542491795E-16   0.4125925701E-16   0.5750000007E+01
     1     2     3     4     5     6     7     8
     2     9    10     3     6    11    12     7
 VARIABLES = X,Y,Z,DU1,DU2,DU3,U1,U2,U3,S11,S22,S33,S12,S13,S23,E11,E22,E33,E12,E13,E23,SMISES
 ZONE, T="0.5350D+01" F=FEPOINT, I=   12 J=    2 ET=BRICK
   0.0000000000E+00   0.0000000000E+00   0.0000000000E+00   0.0000000000E+00   0.0000000000E+00   0.0000000000E+00   0.0000000000E+00   0.0000000000E+00   0.0000000000E+00   0.4625000007E+01  -0.1504476969E-13  -0.1466581695E-13   0.6501971405E-16  -0.3935177588E-15  -0.7487470487E-15   0.8071452262E-01  -0.4034801131E-01  -0.4034801131E-01  -0.1254678150E-16   0.8563038256E-17  -0.4233303637E-16   0.4625000007E+01
   0.1080714522E+01   0.0000000000E+00   0.3728404032E-17  -0.2250000000E-02   0.0000000000E+00   0.3913634947E-18   0.8296452249E-01   0.0000000000E+00   0.3337040537E-17   0.4625000007E+01  -0.8579246920E-14  -0.8441002919E-14  -0.1341597573E-14  -0.8456259685E-15  -0.9407405286E-16   0.8071452261E-01  -0.4034801131E-01  -0.4034801131E-01  -0.1765129395E-15  -0.1219303587E-15  -0.2737548947E-16   0.4625000007E+01
   0.1080714522E+01   0.9596519888E+00  -0.1574024735E-16  -0.2250000000E-02   0.1122750000E-02  -0.1311706938E-17   0.8296452249E-01  -0.4147076124E-01  -0.1442854041E-16   0.4625000007E+01  -0.2957355908E-13  -0.2767888607E-13  -0.1102393018E-14   0.1035487797E-14   0.1242914583E-14   0.8071452260E-01  -0.4034801130E-01  -0.4034801130E-01  -0.2189724583E-15   0.2173732830E-15  -0.2284529013E-16   0.4625000007E+01
   0.0000000000E+00   0.9596519888E+00  -0.1771127230E-16   0.0000000000E+00   0.1122750000E-02  -0.2920703918E-17   0.0000000000E+00  -0.4147076124E-01  -0.1479056838E-16   0.4625000007E+01  -0.3820784940E-13  -0.3433582299E-13  -0.1732202440E-15   0.7929177137E-15   0.1111587514E-14   0.8071452261E-01  -0.4034801130E-01  -0.4034801130E-01   0.5774469775E-17  -0.4533103927E-16   0.7148813251E-16   0.4625000007E+01
   0.0000000000E+00   0.0000000000E+00   0.9596519888E+00   0.0000000000E+00   0.0000000000E+00   0.1122750000E-02   0.0000000000E+00   0.0000000000E+00  -0.4147076124E-01   0.4625000007E+01   0.3304093637E-13   0.2941525871E-13   0.8831034284E-16  -0.5849898518E-15  -0.6888311342E-15   0.8071452261E-01  -0.4034801130E-01  -0.4034801130E-01   0.3488965998E-17   0.3531578042E-17  -0.4680143292E-16   0.4625000007E+01
   0.1080714522E+01   0.0000000000E+00   0.9596519888E+00  -0.2250000000E-02   0.0000000000E+00   0.1122750000E-02   0.8296452249E-01   0.0000000000E+00  -0.4147076124E-01   0.4625000007E+01   0.4820003386E-13   0.4791411607E-13   0.1213821229E-15  -0.5571933818E-15  -0.1444912081E-15   0.8071452260E-01  -0.4034801130E-01  -0.4034801130E-01   0.4379090025E-17  -0.9592866224E-16  -0.7690000664E-17   0.4625000007E+01
   0.1080714522E+01   0.9596519888E+00   0.9596519888E+00  -0.2250000000E-02   0.1122750000E-02   0.1122750000E-02   0.8296452249E-01  -0.4147076124E-01  -0.4147076124E-01   0.4625000006E+01  -0.2862994395E-13  -0.2910125471E-13   0.3238046265E-15   0.1051604842E-14   0.4305443977E-15   0.8071452259E-01  -0.4034801130E-01  -0.4034801130E-01   0.4725900628E-16   0.1295110097E-15   0.3850124913E-16   0.4625000006E+01
   0.0000000000E+00   0.9596519888E+00   0.9596519888E+00   0.0000000000E+00   0.1122750000E-02   0.1122750000E-02   0.0000000000E+00  -0.4147076124E-01  -0.4147076124E-01   0.4625000006E+01   0.7438778310E-14   0.8122508420E-14  -0.4577327346E-15   0.2509066742E-15   0.1219476659E-14   0.8071452260E-01  -0.4034801130E-01  -0.4034801130E-01  -0.5163169675E-16   0.5335433402E-16   0.3780240742E-16   0.4625000006E+01
   0.2161429045E+01   0.0000000000E+00   0.5477810602E-16  -0.4500000000E-02   0.0000000000E+00   0.5388536886E-17   0.1659290450E+00   0.0000000000E+00   0.4938956913E-16   0.4625000007E+01  -0.4759941508E-13  -0.4603654574E-13  -0.3735073051E-14  -0.6414650429E-15  -0.1557336605E-14   0.8071452261E-01  -0.4034801131E-01  -0.4034801131E-01  -0.1409911731E-15  -0.1490801012E-15  -0.7613486918E-16   0.4625000007E+01
   0.2161429045E+01   0.9596519888E+00   0.2790309244E-16  -0.4500000000E-02   0.1122750000E-02   0.2577828438E-17   0.1659290450E+00  -0.4147076124E-01   0.2532526400E-16   0.4625000006E+01   0.2307609123E-13   0.2343963582E-13  -0.3958657742E-14  -0.9985139633E-15  -0.9845969123E-15   0.8071452260E-01  -0.4034801130E-01  -0.4034801130E-01  -0.1800639251E-15   0.3363504588E-15   0.1315725567E-15   0.4625000006E+01
   0.2161429045E+01   0.0000000000E+00   0.9596519888E+00  -0.4500000000E-02   0.0000000000E+00   0.1122750000E-02   0.1659290450E+00   0.0000000000E+00  -0.4147076124E-01   0.4625000006E+01  -0.1719251354E-13  -0.2035378364E-13   0.2649919467E-14  -0.5013209546E-14  -0.1039929143E-14   0.8071452260E-01  -0.4034801130E-01  -0.4034801130E-01   0.2416027845E-15  -0.7142657231E-16  -0.4928617427E-16   0.4625000006E+01
   0.2161429045E+01   0.9596519888E+00   0.9596519888E+00  -0.4500000000E-02   0.1122750000E-02   0.1122750000E-02   0.1659290450E+00  -0.4147076124E-01  -0.4147076124E-01   0.4625000006E+01  -0.9598166025E-14  -0.1288985217E-13   0.2840758586E-14   0.5118450265E-14  -0.3755743086E-15   0.8071452259E-01  -0.4034801130E-01  -0.4034801130E-01   0.3269351488E-15   0.1993172013E-15  -0.7695141125E-17   0.4625000006E+01
     1     2     3     4     5     6     7     8
     2     9    10     3     6    11    12     7
 VARIABLES = X,Y,Z,DU1,DU2,DU3,U1,U2,U3,S11,S22,S33,S12,S13,S23,E11,E22,E33,E12,E13,E23,SMISES
 ZONE, T="0.5400D+01" F=FEPOINT, I=   12 J=    2 ET=BRICK
   0.0000000000E+00   0.0000000000E+00   0.0000000000E+00   0.0000000000E+00   0.0000000000E+00   0.0000000000E+00   0.0000000000E+00   0.0000000000E+00   0.0000000000E+00   0.3500000005E+01   0.3116505678E-13   0.3125157960E-13   0.6159256061E-16  -0.3916367688E-15  -0.2830139006E-15   0.7846452261E-01  -0.3922526131E-01  -0.3922526131E-01   0.3298373664E-17   0.6086864058E-17  -0.2840979459E-16   0.3500000005E+01
   0.1078464522E+01   0.0000000000E+00   0.2703245231E-17  -0.2250000000E-02   0.0000000000E+00  -0.1025158801E-17   0.8071452249E-01   0.0000000000E+00   0.3728404032E-17   0.3500000005E+01  -0.1926955894E-13  -0.1940488514E-13  -0.9339005051E-15  -0.8316006091E-15   0.2819439718E-15   0.7846452261E-01  -0.3922526130E-01  -0.3922526130E-01  -0.2025030586E-15  -0.1270852872E-15  -0.3166475660E-16   0.3500000005E+01
   0.1078464522E+01   0.9607747388E+00  -0.1444710200E-16  -0.2250000000E-02   0.1122750000E-02   0.1293145349E-17   0.8071452249E-01  -0.4034801124E-01  -0.1574024735E-16   0.3500000005E+01  -0.3481053726E-14  -0.2629135942E-14  -0.9376631710E-15   0.1029119963E-14   0.1196610345E-14   0.7846452260E-01  -0.3922526130E-01  -0.3922526130E-01  -0.2250274313E-15   0.1837108830E-15   0.1756968886E-16   0.3500000005E+01
   0.0000000000E+00   0.9607747388E+00  -0.1479449073E-16   0.0000000000E+00   0.1122750000E-02   0.2916781572E-17   0.0000000000E+00  -0.4034801124E-01  -0.1771127230E-16   0.3500000005E+01  -0.5146445690E-15   0.2295766900E-14  -0.1045421164E-15   0.6149621776E-15   0.9476805939E-15   0.7846452260E-01  -0.3922526130E-01  -0.3922526130E-01   0.1279457209E-16  -0.4531698443E-16   0.3193337722E-16   0.3500000005E+01
   0.0000000000E+00   0.0000000000E+00   0.9607747388E+00   0.0000000000E+00   0.0000000000E+00   0.1122750000E-02   0.0000000000E+00   0.0000000000E+00  -0.4034801124E-01   0.3500000005E+01   0.3591236485E-13   0.3321842010E-13   0.8436666025E-16  -0.7422706190E-15  -0.5374932491E-15   0.7846452260E-01  -0.3922526130E-01  -0.3922526130E-01   0.6408436256E-17   0.2618831058E-16  -0.2469226028E-17   0.3500000005E+01
   0.1078464522E+01   0.0000000000E+00   0.9607747388E+00  -0.2250000000E-02   0.0000000000E+00   0.1122750000E-02   0.8071452249E-01   0.0000000000E+00  -0.4034801124E-01   0.3500000005E+01  -0.2735376290E-13  -0.2714406588E-13   0.5302767709E-15  -0.3849091498E-15  -0.7212821222E-16   0.7846452260E-01  -0.3922526130E-01  -0.3922526130E-01   0.2407610316E-16  -0.8093576384E-16  -0.6289316289E-16   0.3500000005E+01
   0.1078464522E+01   0.9607747388E+00   0.9607747388E+00  -0.2250000000E-02   0.1122750000E-02   0.1122750000E-02   0.8071452249E-01  -0.4034801124E-01  -0.4034801124E-01   0.3500000005E+01  -0.1311102549E-13  -0.1385590646E-13   0.6407266079E-15   0.1161427144E-14   0.1053878225E-16   0.7846452259E-01  -0.3922526130E-01  -0.3922526130E-01   0.4222152105E-16   0.1043874648E-15   0.2849260888E-16   0.3500000005E+01
   0.0000000000E+00   0.9607747388E+00   0.9607747388E+00   0.0000000000E+00   0.1122750000E-02   0.1122750000E-02   0.0000000000E+00  -0.4034801124E-01  -0.4034801124E-01   0.3500000005E+01  -0.2535136260E-13  -0.2450508460E-13  -0.2381389954E-15   0.1637152084E-16   0.6691895091E-15   0.7846452259E-01  -0.3922526130E-01  -0.3922526130E-01  -0.4659123838E-16   0.4006438369E-16   0.3821060402E-16   0.3500000005E+01
   0.2156929045E+01   0.0000000000E+00   0.4888444296E-16  -0.4500000000E-02   0.0000000000E+00  -0.5893663057E-17   0.1614290450E+00   0.0000000000E+00   0.5477810602E-16   0.3500000005E+01  -0.9353880534E-13  -0.9069227647E-13  -0.2798554877E-14  -0.6646505207E-15  -0.1099408995E-14   0.7846452261E-01  -0.3922526130E-01  -0.3922526130E-01  -0.1231206845E-15  -0.4401557890E-16  -0.5227117890E-16   0.3500000005E+01
   0.2156929045E+01   0.9607747388E+00   0.2469882972E-16  -0.4500000000E-02   0.1122750000E-02  -0.3204262716E-17   0.1614290450E+00  -0.4034801124E-01   0.2790309244E-16   0.3500000005E+01  -0.1026515356E-12  -0.1017735165E-12  -0.3599702933E-14  -0.1328452821E-14  -0.7891134123E-15   0.7846452260E-01  -0.3922526130E-01  -0.3922526130E-01  -0.1262350738E-15   0.3535525337E-15   0.9162439267E-16   0.3500000005E+01
   0.2156929045E+01   0.0000000000E+00   0.9607747388E+00  -0.4500000000E-02   0.0000000000E+00   0.1122750000E-02   0.1614290450E+00   0.0000000000E+00  -0.4034801124E-01   0.3500000005E+01  -0.9556364431E-13  -0.9712704766E-13   0.3330763353E-14  -0.4767469948E-14  -0.1148379876E-14   0.7846452260E-01  -0.3922526130E-01  -0.3922526130E-01   0.2654927015E-15  -0.8591679574E-16  -0.4209654764E-16   0.3500000005E+01
   0.2156929045E+01   0.9607747388E+00   0.9607747388E+00  -0.4500000000E-02   0.1122750000E-02   0.1122750000E-02   0.1614290450E+00  -0.4034801124E-01  -0.4034801124E-01   0.3500000004E+01  -0.3203278993E-13  -0.3449579434E-13   0.3170970775E-14   0.5287629359E-14  -0.6971302833E-15   0.7846452259E-01  -0.3922526129E-01  -0.3922526129E-01   0.2490341366E-15   0.2733067035E-15   0.7907767331E-16   0.3500000004E+01
     1     2     3     4     5     6     7     8
     2     9    10     3     6    11    12     7
 VARIABLES = X,Y,Z,DU1,DU2,DU3,U1,U2,U3,S11,S22,S33,S12,S13,S23,E11,E22,E33,E12,E13,E23,SMISES
 ZONE, T="0.5450D+01" F=FEPOINT, I=   12 J=    2 ET=BRICK
   0.0000000000E+00   0.0000000000E+00   0.0000000000E+00   0.0000000000E+00   0.0000000000E+00   0.0000000000E+00   0.0000000000E+00   0.0000000000E+00   0.0000000000E+00   0.2375000004E+01  -0.1786147751E-13  -0.1743607878E-13   0.5784934689E-16  -0.3245143724E-15  -0.5434244814E-15   0.7621452261E-01  -0.3810251130E-01  -0.3810251130E-01   0.4730990436E-17   0.5248200402E-17  -0.1940149358E-16   0.2375000004E+01
   0.1076214522E+01   0.0000000000E+00   0.3565863394E-17  -0.2250000000E-02   0.0000000000E+00   0.8626181637E-18   0.7846452249E-01   0.0000000000E+00   0.2703245231E-17   0.2375000004E+01  -0.4025266179E-13  -0.4003387325E-13  -0.7791895287E-15  -0.8250584509E-15   0.9771563355E-16   0.7621452261E-01  -0.3810251130E-01  -0.3810251130E-01  -0.1898374588E-15  -0.8078339745E-16  -0.4334303122E-16   0.2375000004E+01
   0.1076214522E+01   0.9618974888E+00  -0.1477547951E-16  -0.2250000000E-02   0.1122750000E-02  -0.3283775154E-18   0.7846452249E-01  -0.3922526124E-01  -0.1444710200E-16   0.2375000003E+01   0.4471105563E-14   0.5654826870E-14  -0.6554318394E-15   0.9126044398E-15   0.1312125904E-14   0.7621452260E-01  -0.3810251130E-01  -0.3810251130E-01  -0.2031100085E-15   0.1644773354E-15   0.2037550278E-16   0.2375000003E+01
   0.0000000000E+00   0.9618974888E+00  -0.1643464124E-16   0.0000000000E+00   0.1122750000E-02  -0.1640150512E-17   0.0000000000E+00  -0.3922526124E-01  -0.1479449073E-16   0.2375000003E+01  -0.1756926448E-13  -0.1412037711E-13  -0.1305763561E-15   0.7629507286E-15   0.1092211954E-14   0.7621452260E-01  -0.3810251130E-01  -0.3810251130E-01  -0.7983269103E-18  -0.2043510761E-16   0.4613782967E-17   0.2375000003E+01
   0.0000000000E+00   0.0000000000E+00   0.9618974888E+00   0.0000000000E+00   0.0000000000E+00   0.1122750000E-02   0.0000000000E+00   0.0000000000E+00  -0.3922526124E-01   0.2375000003E+01  -0.4262897880E-13  -0.4590861047E-13   0.7259022207E-16  -0.6138310442E-15  -0.7757932155E-15   0.7621452260E-01  -0.3810251130E-01  -0.3810251130E-01   0.8625011174E-17  -0.7744334396E-18  -0.4540832444E-16   0.2375000003E+01
   0.1076214522E+01   0.0000000000E+00   0.9618974888E+00  -0.2250000000E-02   0.0000000000E+00   0.1122750000E-02   0.7846452249E-01   0.0000000000E+00  -0.3922526124E-01   0.2375000003E+01   0.6671332436E-13   0.6648563989E-13   0.4931665273E-15  -0.4474350833E-15  -0.2602808719E-15   0.7621452260E-01  -0.3810251130E-01  -0.3810251130E-01   0.1439449356E-16  -0.6023061833E-16  -0.2536561289E-16   0.2375000003E+01
   0.1076214522E+01   0.9618974888E+00   0.9618974888E+00  -0.2250000000E-02   0.1122750000E-02   0.1122750000E-02   0.7846452249E-01  -0.3922526124E-01  -0.3922526124E-01   0.2375000003E+01  -0.5322219146E-13  -0.5419927626E-13   0.4788559712E-15   0.1152928211E-14   0.2210931871E-15   0.7621452259E-01  -0.3810251129E-01  -0.3810251129E-01   0.3952422757E-16   0.1552104974E-15   0.1174368277E-16   0.2375000003E+01
   0.0000000000E+00   0.9618974888E+00   0.9618974888E+00   0.0000000000E+00   0.1122750000E-02   0.1122750000E-02   0.0000000000E+00  -0.3922526124E-01  -0.3922526124E-01   0.2375000003E+01   0.1021285103E-13   0.1065929766E-13  -0.3069399191E-15   0.8950370391E-16   0.9939158151E-15   0.7621452259E-01  -0.3810251130E-01  -0.3810251130E-01  -0.5403831995E-16   0.8838319435E-17   0.2721651172E-16   0.2375000003E+01
   0.2152429045E+01   0.0000000000E+00   0.5244066448E-16  -0.4500000000E-02   0.0000000000E+00   0.3556221517E-17   0.1569290450E+00   0.0000000000E+00   0.4888444296E-16   0.2375000004E+01   0.3160225186E-13   0.3374164529E-13  -0.2852526980E-14  -0.4995006404E-15  -0.1099660141E-14   0.7621452260E-01  -0.3810251130E-01  -0.3810251130E-01  -0.1298236006E-15  -0.5244393368E-16  -0.3150608645E-16   0.2375000004E+01
   0.2152429045E+01   0.9618974888E+00   0.2817793263E-16  -0.4500000000E-02   0.1122750000E-02   0.3479102906E-17   0.1569290450E+00  -0.3922526124E-01   0.2469882972E-16   0.2375000003E+01   0.1011911851E-12   0.1018058909E-12  -0.3230477712E-14  -0.1402820378E-14  -0.7788511016E-15   0.7621452260E-01  -0.3810251130E-01  -0.3810251130E-01  -0.1858305017E-15   0.2307412665E-15   0.6187557345E-16   0.2375000003E+01
   0.2152429045E+01   0.0000000000E+00   0.9618974888E+00  -0.4500000000E-02   0.0000000000E+00   0.1122750000E-02   0.1569290450E+00   0.0000000000E+00  -0.3922526124E-01   0.2375000003E+01   0.1248360647E-12   0.1226951409E-12   0.2821586584E-14  -0.4719368450E-14  -0.1041641330E-14   0.7621452260E-01  -0.3810251130E-01  -0.3810251130E-01   0.2433330310E-15  -0.8221022544E-16  -0.4548333342E-16   0.2375000003E+01
   0.2152429045E+01   0.9618974888E+00   0.9618974888E+00  -0.4500000000E-02   0.1122750000E-02   0.1122750000E-02   0.1569290450E+00  -0.3922526124E-01  -0.3922526124E-01   0.2375000003E+01  -0.1389845363E-12  -0.1415894055E-12   0.2550647948E-14   0.5052220179E-14  -0.6104411546E-15   0.7621452259E-01  -0.3810251129E-01  -0.3810251129E-01   0.2594350896E-15   0.4702689754E-16   0.7303931911E-16   0.2375000003E+01
     1     2     3     4     5     6     7     8
     2     9    10     3     6    11    12     7
 VARIABLES = X,Y,Z,DU1,DU2,DU3,U1,U2,U3,S11,S22,S33,S12,S13,S23,E11,E22,E33,E12,E13,E23,SMISES
 ZONE, T="0.5500D+01" F=FEPOINT, I=   12 J=    2 ET=BRICK
   0.0000000000E+00   0.0000000000E+00   0.0000000000E+00   0.0000000000E+00   0.0000000000E+00   0.0000000000E+00   0.0000000000E+00   0.0000000000E+00   0.0000000000E+00   0.1250000002E+01  -0.1410788372E-12  -0.1415238513E-12   0.2544762485E-16  -0.4922065612E-15  -0.2479567659E-15   0.7396452261E-01  -0.3697976130E-01  -0.3697976130E-01  -0.4576425091E-17  -0.1854574414E-16  -0.3572526073E-16   0.1250000002E+01
   0.1073964522E+01   0.0000000000E+00   0.1945885756E-17  -0.2250000000E-02   0.0000000000E+00  -0.1619977638E-17   0.7621452249E-01   0.0000000000E+00   0.3565863394E-17   0.1250000002E+01  -0.3704876587E-13  -0.3733575137E-13  -0.5974765799E-15  -0.5034652276E-15   0.3190527791E-15   0.7396452260E-01  -0.3697976130E-01  -0.3697976130E-01  -0.1899610634E-15  -0.7873011062E-16  -0.3071201949E-16   0.1250000002E+01
   0.1073964522E+01   0.9630202388E+00  -0.1510807700E-16  -0.2250000000E-02   0.1122750000E-02  -0.3325974804E-18   0.7621452249E-01  -0.3810251124E-01  -0.1477547951E-16   0.1250000002E+01   0.3327644816E-13   0.3413381027E-13  -0.7669870059E-15   0.7271583050E-15   0.1023751531E-14   0.7396452259E-01  -0.3697976130E-01  -0.3697976130E-01  -0.1925988185E-15   0.1883561093E-15  -0.1587848847E-16   0.1250000002E+01
   0.0000000000E+00   0.9630202388E+00  -0.1482379216E-16   0.0000000000E+00   0.1122750000E-02   0.1610849083E-17   0.0000000000E+00  -0.3810251124E-01  -0.1643464124E-16   0.1250000002E+01   0.9263305834E-13   0.9532700320E-13  -0.2266911223E-15   0.5787301591E-15   0.6109682927E-15   0.7396452260E-01  -0.3697976130E-01  -0.3697976130E-01   0.8575055298E-17  -0.3536458050E-16   0.4974472338E-16   0.1250000002E+01
   0.0000000000E+00   0.0000000000E+00   0.9630202388E+00   0.0000000000E+00   0.0000000000E+00   0.1122750000E-02   0.0000000000E+00   0.0000000000E+00  -0.3810251124E-01   0.1250000002E+01   0.7858213520E-14   0.5093518757E-14   0.1143801937E-15  -0.7414984748E-15  -0.4786215606E-15   0.7396452260E-01  -0.3697976130E-01  -0.3697976130E-01   0.9190492472E-17  -0.1570197736E-16  -0.4502283974E-16   0.1250000002E+01
   0.1073964522E+01   0.0000000000E+00   0.9630202388E+00  -0.2250000000E-02   0.0000000000E+00   0.1122750000E-02   0.7621452249E-01   0.0000000000E+00  -0.3810251124E-01   0.1250000002E+01   0.9163368674E-14   0.9348032283E-14   0.2152680870E-15  -0.3066723552E-16  -0.1901085834E-17   0.7396452259E-01  -0.3697976130E-01  -0.3697976130E-01   0.2130093949E-16  -0.2234644979E-16  -0.1668913821E-16   0.1250000002E+01
   0.1073964522E+01   0.9630202388E+00   0.9630202388E+00  -0.2250000000E-02   0.1122750000E-02   0.1122750000E-02   0.7621452249E-01  -0.3810251124E-01  -0.3810251124E-01   0.1250000002E+01  -0.3116108048E-13  -0.3146313565E-13   0.4359768638E-15   0.1160622018E-14  -0.4771025580E-16   0.7396452259E-01  -0.3697976129E-01  -0.3697976129E-01   0.5258189493E-16   0.1333018587E-15   0.3345013581E-16   0.1250000002E+01
   0.0000000000E+00   0.9630202388E+00   0.9630202388E+00   0.0000000000E+00   0.1122750000E-02   0.1122750000E-02   0.0000000000E+00  -0.3810251124E-01  -0.3810251124E-01   0.1250000002E+01  -0.5767805386E-13  -0.5639303328E-13  -0.2737400431E-15  -0.1876674916E-15   0.7328293812E-15   0.7396452259E-01  -0.3697976129E-01  -0.3697976129E-01  -0.5986009198E-16   0.5040297482E-16   0.1460614080E-16   0.1250000002E+01
   0.2147929045E+01   0.0000000000E+00   0.4754719107E-16  -0.4500000000E-02   0.0000000000E+00  -0.4893473410E-17   0.1524290450E+00   0.0000000000E+00   0.5244066448E-16   0.1250000002E+01   0.1067838535E-12   0.1092207565E-12  -0.3002844789E-14  -0.2551168888E-15  -0.1064337066E-14   0.7396452260E-01  -0.3697976130E-01  -0.3697976130E-01  -0.1230718128E-15  -0.8573009102E-16  -0.4036979050E-16   0.1250000002E+01
   0.2147929045E+01   0.9630202388E+00   0.2337595089E-16  -0.4500000000E-02   0.1122750000E-02  -0.4801981737E-17   0.1524290450E+00  -0.3810251124E-01   0.2817793263E-16   0.1250000002E+01  -0.6002832227E-13  -0.5937234776E-13  -0.3820624211E-14  -0.1206204091E-14  -0.6798726551E-15   0.7396452259E-01  -0.3697976130E-01  -0.3697976130E-01  -0.1751000477E-15   0.2443281115E-15   0.9657413008E-16   0.1250000002E+01
   0.2147929045E+01   0.0000000000E+00   0.9630202388E+00  -0.4500000000E-02   0.0000000000E+00   0.1122750000E-02   0.1524290450E+00   0.0000000000E+00  -0.3810251124E-01   0.1250000002E+01   0.6778068265E-13   0.6572202918E-13   0.3072453554E-14  -0.4550826700E-14  -0.1057023891E-14   0.7396452259E-01  -0.3697976130E-01  -0.3697976130E-01   0.2346825889E-15  -0.2295909308E-15  -0.7690936549E-16   0.1250000002E+01
   0.2147929045E+01   0.9630202388E+00   0.9630202388E+00  -0.4500000000E-02   0.1122750000E-02   0.1122750000E-02   0.1524290450E+00  -0.3810251124E-01  -0.3810251124E-01   0.1250000002E+01   0.2766443663E-13   0.2484396360E-13   0.3275167920E-14   0.4791302678E-14  -0.5219256149E-15   0.7396452258E-01  -0.3697976129E-01  -0.3697976129E-01   0.3350881532E-15   0.2929665223E-15   0.9458700227E-16   0.1250000002E+01
     1     2     3     4     5     6     7     8
     2     9    10     3     6    11    12     7
 VARIABLES = X,Y,Z,DU1,DU2,DU3,U1,U2,U3,S11,S22,S33,S12,S13,S23,E11,E22,E33,E12,E13,E23,SMISES
 ZONE, T="0.5550D+01" F=FEPOINT, I=   12 J=    2 ET=BRICK
   0.0000000000E+00   0.0000000000E+00   0.0000000000E+00   0.0000000000E+00   0.0000000000E+00   0.0000000000E+00   0.0000000000E+00   0.0000000000E+00   0.0000000000E+00   0.1250000002E+00   0.4057069132E-13   0.4068920314E-13   0.3695850959E-16  -0.3817484650E-15  -0.2434695997E-15   0.7171452260E-01  -0.3585701130E-01  -0.3585701130E-01   0.9902969104E-17  -0.2358321215E-16  -0.3982509904E-16   0.1250000002E+00
   0.1071714522E+01   0.0000000000E+00   0.2706964738E-17  -0.2250000000E-02   0.0000000000E+00   0.7610789818E-18   0.7396452249E-01   0.0000000000E+00   0.1945885756E-17   0.1250000002E+00   0.5169800545E-13   0.5158040011E-13  -0.8385804583E-15  -0.8662641672E-15   0.3224899297E-15   0.7171452260E-01  -0.3585701130E-01  -0.3585701130E-01  -0.1706851830E-15  -0.3173390923E-16  -0.3577160332E-16   0.1250000002E+00
   0.1071714522E+01   0.9641429888E+00  -0.1427771123E-16  -0.2250000000E-02   0.1122750000E-02   0.8303657682E-18   0.7396452249E-01  -0.3697976124E-01  -0.1510807700E-16   0.1250000002E+00   0.4654796473E-13   0.4732624349E-13  -0.9064947890E-15   0.7906358351E-15   0.1126729953E-14   0.7171452259E-01  -0.3585701130E-01  -0.3585701130E-01  -0.1733580262E-15   0.1058557428E-15   0.1517236960E-16   0.1250000002E+00
   0.0000000000E+00   0.9641429888E+00  -0.1490768538E-16   0.0000000000E+00   0.1122750000E-02  -0.8389322557E-19   0.0000000000E+00  -0.3697976124E-01  -0.1482379216E-16   0.1250000002E+00   0.1898558909E-13   0.2182710551E-13  -0.4477383401E-16   0.7195608994E-15   0.9485018476E-15   0.7171452259E-01  -0.3585701130E-01  -0.3585701130E-01  -0.7865802377E-18   0.1499770756E-16   0.5036222868E-16   0.1250000002E+00
   0.0000000000E+00   0.0000000000E+00   0.9641429888E+00   0.0000000000E+00   0.0000000000E+00   0.1122750000E-02   0.0000000000E+00   0.0000000000E+00  -0.3697976124E-01   0.1250000002E+00   0.4208878319E-13   0.3927743773E-13   0.1251162755E-15  -0.6953469837E-15  -0.7353931281E-15   0.7171452259E-01  -0.3585701130E-01  -0.3585701130E-01  -0.1129534557E-16  -0.1294810160E-16  -0.2321313761E-16   0.1250000002E+00
   0.1071714522E+01   0.0000000000E+00   0.9641429888E+00  -0.2250000000E-02   0.0000000000E+00   0.1122750000E-02   0.7396452249E-01   0.0000000000E+00  -0.3697976124E-01   0.1250000002E+00   0.2989168904E-13   0.3010135268E-13   0.4310670168E-15  -0.4828673147E-15  -0.9485959086E-16   0.7171452259E-01  -0.3585701130E-01  -0.3585701130E-01   0.3496462724E-16  -0.3254773337E-16  -0.1791925338E-16   0.1250000002E+00
   0.1071714522E+01   0.9641429888E+00   0.9641429888E+00  -0.2250000000E-02   0.1122750000E-02   0.1122750000E-02   0.7396452249E-01  -0.3697976124E-01  -0.3697976124E-01   0.1250000002E+00  -0.3181968518E-13  -0.3236323159E-13   0.4668795868E-15   0.1275204642E-14  -0.1156713873E-15   0.7171452258E-01  -0.3585701129E-01  -0.3585701129E-01   0.5069488596E-16   0.1439691547E-15   0.1769518233E-16   0.1250000002E+00
   0.0000000000E+00   0.9641429888E+00   0.9641429888E+00   0.0000000000E+00   0.1122750000E-02   0.1122750000E-02   0.0000000000E+00  -0.3697976124E-01  -0.3697976124E-01   0.1250000002E+00   0.1882003756E-13   0.1967609343E-13  -0.4188725774E-15  -0.1534059088E-16   0.7734657875E-15   0.7171452258E-01  -0.3585701129E-01  -0.3585701129E-01  -0.4650342627E-16   0.3242445844E-16   0.6804215821E-17   0.1250000002E+00
   0.2143429045E+01   0.0000000000E+00   0.4946742200E-16  -0.4500000000E-02   0.0000000000E+00   0.1920230929E-17   0.1479290450E+00   0.0000000000E+00   0.4754719107E-16   0.1250000002E+00   0.4850320887E-13   0.5042241818E-13  -0.3032640063E-14  -0.4647642245E-15  -0.1066257373E-14   0.7171452260E-01  -0.3585701130E-01  -0.3585701130E-01  -0.1027590403E-15  -0.3901702360E-16  -0.5079903723E-16   0.1250000002E+00
   0.2143429045E+01   0.9641429888E+00   0.2512798105E-16  -0.4500000000E-02   0.1122750000E-02   0.1752030153E-17   0.1479290450E+00  -0.3697976124E-01   0.2337595089E-16   0.1250000002E+00   0.1484416285E-12   0.1491081982E-12  -0.3734602369E-14  -0.9693036735E-15  -0.1043955947E-14   0.7171452259E-01  -0.3585701129E-01  -0.3585701129E-01  -0.1406292958E-15   0.3043819619E-15   0.7709766895E-16   0.1250000002E+00
   0.2143429045E+01   0.0000000000E+00   0.9641429888E+00  -0.4500000000E-02   0.0000000000E+00   0.1122750000E-02   0.1479290450E+00   0.0000000000E+00  -0.3697976124E-01   0.1250000002E+00  -0.3356113908E-13  -0.3562314192E-13   0.3204525268E-14  -0.5120072177E-14  -0.8525136282E-15   0.7171452259E-01  -0.3585701129E-01  -0.3585701129E-01   0.2365972737E-15  -0.1199572768E-15  -0.3814445643E-16   0.1250000002E+00
   0.2143429045E+01   0.9641429888E+00   0.9641429888E+00  -0.4500000000E-02   0.1122750000E-02   0.1122750000E-02   0.1479290450E+00  -0.3697976124E-01  -0.3697976124E-01   0.1250000002E+00   0.3721405741E-14   0.1428287390E-14   0.3188296623E-14   0.5147396747E-14  -0.4406191042E-15   0.7171452258E-01  -0.3585701129E-01  -0.3585701129E-01   0.3208250602E-15   0.1735212948E-15   0.9215107187E-16   0.1250000002E+00
     1     2     3     4     5     6     7     8
     2     9    10     3     6    11    12     7
 VARIABLES = X,Y,Z,DU1,DU2,DU3,U1,U2,U3,S11,S22,S33,S12,S13,S23,E11,E22,E33,E12,E13,E23,SMISES
 ZONE, T="0.5600D+01" F=FEPOINT, I=   12 J=    2 ET=BRICK
   0.0000000000E+00   0.0000000000E+00   0.0000000000E+00   0.0000000000E+00   0.0000000000E+00   0.0000000000E+00   0.0000000000E+00   0.0000000000E+00   0.0000000000E+00  -0.1000000002E+01  -0.2872049931E-13  -0.2862640592E-13   0.3418499257E-16  -0.3824738231E-15  -0.2707350440E-15   0.6946452260E-01  -0.3473426130E-01  -0.3473426130E-01  -0.9873368468E-17   0.7133371672E-18  -0.2276628040E-16   0.1000000002E+01
   0.1069464522E+01   0.0000000000E+00   0.2507050118E-17  -0.2250000000E-02   0.0000000000E+00  -0.1999146201E-18   0.7171452249E-01   0.0000000000E+00   0.2706964738E-17  -0.1000000002E+01   0.3386460527E-13   0.3369780493E-13  -0.7722338384E-15  -0.8404543614E-15   0.3778993031E-15   0.6946452260E-01  -0.3473426130E-01  -0.3473426130E-01  -0.1443075447E-15  -0.4965455773E-16  -0.3242752235E-16   0.1000000002E+01
   0.1069464522E+01   0.9652657388E+00  -0.1422679533E-16  -0.2250000000E-02   0.1122750000E-02   0.5091589633E-19   0.7171452249E-01  -0.3585701124E-01  -0.1427771123E-16  -0.1000000001E+01  -0.2531003628E-14  -0.1811422989E-14  -0.8989280900E-15   0.7924570885E-15   0.1118846233E-14   0.6946452259E-01  -0.3473426129E-01  -0.3473426129E-01  -0.1685713637E-15   0.1623681294E-15   0.1178812979E-16   0.1000000001E+01
   0.0000000000E+00   0.9652657388E+00  -0.1498163410E-16   0.0000000000E+00   0.1122750000E-02  -0.7394871501E-19   0.0000000000E+00  -0.3585701124E-01  -0.1490768538E-16  -0.1000000001E+01   0.2320558440E-14   0.5394149655E-14   0.3916082021E-16   0.7668363761E-15   0.1005121162E-14   0.6946452259E-01  -0.3473426129E-01  -0.3473426129E-01   0.3315745864E-16  -0.3016266148E-16   0.3273352239E-16   0.1000000001E+01
   0.0000000000E+00   0.0000000000E+00   0.9652657388E+00   0.0000000000E+00   0.0000000000E+00   0.1122750000E-02   0.0000000000E+00   0.0000000000E+00  -0.3585701124E-01  -0.1000000001E+01   0.1548092303E-14  -0.1368759921E-14   0.1563772665E-15  -0.7698795546E-15  -0.6941058197E-15   0.6946452259E-01  -0.3473426129E-01  -0.3473426129E-01   0.1205260793E-16  -0.2291840879E-16  -0.8252231890E-16   0.1000000001E+01
   0.1069464522E+01   0.0000000000E+00   0.9652657388E+00  -0.2250000000E-02   0.0000000000E+00   0.1122750000E-02   0.7171452249E-01   0.0000000000E+00  -0.3585701124E-01  -0.1000000001E+01   0.8768206153E-14   0.9029695782E-14   0.3014637918E-15  -0.3128618064E-15   0.2378877603E-17   0.6946452259E-01  -0.3473426129E-01  -0.3473426129E-01   0.1192648315E-16  -0.3503906106E-16  -0.1972938272E-16   0.1000000001E+01
   0.1069464522E+01   0.9652657388E+00   0.9652657388E+00  -0.2250000000E-02   0.1122750000E-02   0.1122750000E-02   0.7171452249E-01  -0.3585701124E-01  -0.3585701124E-01  -0.1000000001E+01  -0.2999985936E-13  -0.3033883297E-13   0.3596153255E-15   0.1137833794E-14  -0.4759134071E-17   0.6946452258E-01  -0.3473426129E-01  -0.3473426129E-01   0.3661017306E-16   0.1513184362E-15   0.2578259930E-16   0.1000000001E+01
   0.0000000000E+00   0.9652657388E+00   0.9652657388E+00   0.0000000000E+00   0.1122750000E-02   0.1122750000E-02   0.0000000000E+00  -0.3585701124E-01  -0.3585701124E-01  -0.1000000001E+01   0.3692767917E-14   0.4449836706E-14  -0.4597102088E-15   0.1174452311E-15   0.8110253035E-15   0.6946452258E-01  -0.3473426129E-01  -0.3473426129E-01  -0.5127564018E-16   0.4732339791E-16   0.4645013822E-16   0.1000000001E+01
   0.2138929045E+01   0.0000000000E+00   0.4848360839E-16  -0.4500000000E-02   0.0000000000E+00  -0.9838136106E-18   0.1434290450E+00   0.0000000000E+00   0.4946742200E-16  -0.1000000002E+01  -0.3512514632E-13  -0.3282044704E-13  -0.2975820976E-14  -0.2520337335E-15  -0.1043870537E-14   0.6946452259E-01  -0.3473426130E-01  -0.3473426130E-01  -0.9106317102E-16  -0.5675850936E-16  -0.4788229726E-16   0.1000000002E+01
   0.2138929045E+01   0.9652657388E+00   0.2441545674E-16  -0.4500000000E-02   0.1122750000E-02  -0.7125243087E-18   0.1434290450E+00  -0.3585701124E-01   0.2512798105E-16  -0.1000000001E+01  -0.1585238103E-12  -0.1579015338E-12  -0.3686520477E-14  -0.7480109937E-15  -0.9266180434E-15   0.6946452259E-01  -0.3473426129E-01  -0.3473426129E-01  -0.1281868665E-15   0.2593033347E-15   0.7464907544E-16   0.1000000001E+01
   0.2138929045E+01   0.0000000000E+00   0.9652657388E+00  -0.4500000000E-02   0.0000000000E+00   0.1122750000E-02   0.1434290450E+00   0.0000000000E+00  -0.3585701124E-01  -0.1000000001E+01   0.6502025707E-13   0.6322279060E-13   0.3325428266E-14  -0.4843503298E-14  -0.9752087007E-15   0.6946452259E-01  -0.3473426129E-01  -0.3473426129E-01   0.2256160054E-15  -0.1086029354E-15  -0.5107193780E-16   0.1000000001E+01
   0.2138929045E+01   0.9652657388E+00   0.9652657388E+00  -0.4500000000E-02   0.1122750000E-02   0.1122750000E-02   0.1434290450E+00  -0.3585701124E-01  -0.3585701124E-01  -0.1000000001E+01   0.1423171088E-13   0.1169881934E-13   0.3081195284E-14   0.4947177239E-14  -0.6025484307E-15   0.6946452258E-01  -0.3473426129E-01  -0.3473426129E-01   0.3004244968E-15   0.1052913041E-15   0.5564864756E-16   0.1000000001E+01
     1     2     3     4     5     6     7     8
     2     9    10     3     6    11    12     7
 VARIABLES = X,Y,Z,DU1,DU2,DU3,U1,U2,U3,S11,S22,S33,S12,S13,S23,E11,E22,E33,E12,E13,E23,SMISES
 ZONE, T="0.5650D+01" F=FEPOINT, I=   12 J=    2 ET=BRICK
   0.0000000000E+00   0.0000000000E+00   0.0000000000E+00   0.0000000000E+00   0.0000000000E+00   0.0000000000E+00   0.0000000000E+00   0.0000000000E+00   0.0000000000E+00  -0.2125000003E+01   0.3929890480E-13   0.3929027591E-13   0.3731111831E-16  -0.2376821087E-15  -0.2157724685E-15   0.6721452259E-01  -0.3361151130E-01  -0.3361151130E-01   0.1807508035E-17   0.7627413014E-17  -0.1716498256E-16   0.2125000003E+01
   0.1067214522E+01   0.0000000000E+00   0.2864183258E-17  -0.2250000000E-02   0.0000000000E+00   0.3571331396E-18   0.6946452249E-01   0.0000000000E+00   0.2507050118E-17  -0.2125000003E+01  -0.1156619929E-12  -0.1156233486E-12  -0.7811212102E-15  -0.7309060493E-15   0.1146395003E-15   0.6721452259E-01  -0.3361151130E-01  -0.3361151130E-01  -0.1746759910E-15  -0.7826670346E-16  -0.3752681202E-16   0.2125000003E+01
   0.1067214522E+01   0.9663884888E+00  -0.1528732152E-16  -0.2250000000E-02   0.1122750000E-02  -0.1060526190E-17   0.6946452249E-01  -0.3473426124E-01  -0.1422679533E-16  -0.2125000003E+01   0.2302080607E-13   0.2413341267E-13  -0.9048775586E-15   0.8079054896E-15   0.1098756778E-14   0.6721452258E-01  -0.3361151129E-01  -0.3361151129E-01  -0.1653966732E-15   0.1881120962E-15   0.3102626144E-17   0.2125000003E+01
   0.0000000000E+00   0.9663884888E+00  -0.1474368553E-16   0.0000000000E+00   0.1122750000E-02   0.2379485727E-18   0.0000000000E+00  -0.3473426124E-01  -0.1498163410E-16  -0.2125000003E+01  -0.5432156279E-13  -0.5138352907E-13  -0.2248937485E-15   0.4211892002E-15   0.8210751293E-15   0.6721452259E-01  -0.3361151129E-01  -0.3361151129E-01   0.7158534742E-17  -0.4896220351E-16   0.3816484788E-16   0.2125000003E+01
   0.0000000000E+00   0.0000000000E+00   0.9663884888E+00   0.0000000000E+00   0.0000000000E+00   0.1122750000E-02   0.0000000000E+00   0.0000000000E+00  -0.3473426124E-01  -0.2125000003E+01   0.6259539028E-14   0.3733124081E-14   0.1628752762E-15  -0.8401061682E-15  -0.6764269010E-15   0.6721452259E-01  -0.3361151129E-01  -0.3361151129E-01  -0.4074632022E-17  -0.1972288738E-16  -0.9003208971E-16   0.2125000003E+01
   0.1067214522E+01   0.0000000000E+00   0.9663884888E+00  -0.2250000000E-02   0.0000000000E+00   0.1122750000E-02   0.6946452249E-01   0.0000000000E+00  -0.3473426124E-01  -0.2125000003E+01   0.6474426550E-13   0.6443603650E-13   0.5578015319E-16  -0.1554499373E-15   0.6424616146E-16   0.6721452258E-01  -0.3361151129E-01  -0.3361151129E-01   0.3031622760E-16  -0.4162078573E-16  -0.4209142973E-17   0.2125000003E+01
   0.1067214522E+01   0.9663884888E+00   0.9663884888E+00  -0.2250000000E-02   0.1122750000E-02   0.1122750000E-02   0.6946452249E-01  -0.3473426124E-01  -0.3473426124E-01  -0.2125000003E+01   0.3854029234E-13   0.3827415923E-13   0.2260621608E-15   0.1008271945E-14   0.9953178622E-16   0.6721452258E-01  -0.3361151129E-01  -0.3361151129E-01   0.4542604830E-16   0.1469821184E-15   0.1786315520E-16   0.2125000003E+01
   0.0000000000E+00   0.9663884888E+00   0.9663884888E+00   0.0000000000E+00   0.1122750000E-02   0.1122750000E-02   0.0000000000E+00  -0.3473426124E-01  -0.3473426124E-01  -0.2125000003E+01  -0.3480314528E-13  -0.3391596330E-13  -0.1891691075E-15   0.1035318312E-16   0.6685590769E-15   0.6721452258E-01  -0.3361151129E-01  -0.3361151129E-01  -0.4778270572E-16   0.3797682055E-16   0.4078935628E-16   0.2125000003E+01
   0.2134429045E+01   0.0000000000E+00   0.4807492127E-16  -0.4500000000E-02   0.0000000000E+00  -0.4086871142E-18   0.1389290450E+00   0.0000000000E+00   0.4848360839E-16  -0.2125000003E+01  -0.1530723545E-12  -0.1518653257E-12  -0.2689844095E-14   0.9397057018E-16  -0.1105130431E-14   0.6721452259E-01  -0.3361151130E-01  -0.3361151130E-01  -0.1047102323E-15  -0.9035760291E-16  -0.3329349896E-16   0.2125000003E+01
   0.2134429045E+01   0.9663884888E+00   0.2355812430E-16  -0.4500000000E-02   0.1122750000E-02  -0.8573324335E-18   0.1389290450E+00  -0.3473426124E-01   0.2441545674E-16  -0.2125000003E+01   0.1975592778E-12   0.1982353038E-12  -0.3022641996E-14  -0.1189582684E-14  -0.1159019222E-14   0.6721452258E-01  -0.3361151129E-01  -0.3361151129E-01  -0.1230010832E-15   0.2560546471E-15   0.4431741172E-16   0.2125000003E+01
   0.2134429045E+01   0.0000000000E+00   0.9663884888E+00  -0.4500000000E-02   0.0000000000E+00   0.1122750000E-02   0.1389290450E+00   0.0000000000E+00  -0.3473426124E-01  -0.2125000003E+01  -0.1338783943E-13  -0.1575117256E-13   0.2900842642E-14  -0.5087289411E-14  -0.6758024633E-15   0.6721452258E-01  -0.3361151129E-01  -0.3361151129E-01   0.2144431341E-15  -0.6806856756E-16  -0.7499331934E-16   0.2125000003E+01
   0.2134429045E+01   0.9663884888E+00   0.9663884888E+00  -0.4500000000E-02   0.1122750000E-02   0.1122750000E-02   0.1389290450E+00  -0.3473426124E-01  -0.3473426124E-01  -0.2125000003E+01   0.3948003083E-14   0.1984331983E-14   0.2434043142E-14   0.4802970544E-14  -0.4025954680E-15   0.6721452257E-01  -0.3361151129E-01  -0.3361151129E-01   0.2943363515E-15   0.9857100186E-16   0.1187390424E-15   0.2125000003E+01
     1     2     3     4     5     6     7     8
     2     9    10     3     6    11    12     7
 VARIABLES = X,Y,Z,DU1,DU2,DU3,U1,U2,U3,S11,S22,S33,S12,S13,S23,E11,E22,E33,E12,E13,E23,SMISES
 ZONE, T="0.5700D+01" F=FEPOINT, I=   12 J=    2 ET=BRICK
   0.0000000000E+00   0.0000000000E+00   0.0000000000E+00   0.0000000000E+00   0.0000000000E+00   0.0000000000E+00   0.0000000000E+00   0.0000000000E+00   0.0000000000E+00  -0.3250000005E+01  -0.7226998468E-13  -0.7204269124E-13   0.5661377791E-17  -0.2784598552E-15  -0.1145526150E-15   0.6496452259E-01  -0.3248876130E-01  -0.3248876130E-01   0.3412876850E-17  -0.1915026022E-16  -0.1808210223E-16   0.3250000005E+01
   0.1064964522E+01   0.0000000000E+00   0.2519245493E-17  -0.2250000000E-02   0.0000000000E+00  -0.3449377653E-18   0.6721452249E-01   0.0000000000E+00   0.2864183258E-17  -0.3250000005E+01   0.1498707731E-13   0.1446715856E-13  -0.2902223227E-15  -0.6113363754E-15   0.3443369967E-15   0.6496452259E-01  -0.3248876129E-01  -0.3248876129E-01  -0.1644034406E-15  -0.1592523076E-16  -0.2553811533E-16   0.3250000005E+01
   0.1064964522E+01   0.9675112388E+00  -0.1437412473E-16  -0.2250000000E-02   0.1122750000E-02   0.9131967883E-18   0.6721452249E-01  -0.3361151124E-01  -0.1528732152E-16  -0.3250000005E+01   0.7545337470E-13   0.7585031468E-13  -0.6240413760E-15   0.6563113747E-15   0.9487604537E-15   0.6496452258E-01  -0.3248876129E-01  -0.3248876129E-01  -0.1396335108E-15   0.1438030461E-15  -0.6468424004E-17   0.3250000005E+01
   0.0000000000E+00   0.9675112388E+00  -0.1389282851E-16   0.0000000000E+00   0.1122750000E-02   0.8508570187E-18   0.0000000000E+00  -0.3361151124E-01  -0.1474368553E-16  -0.3250000005E+01   0.9239584089E-13   0.9471608190E-13  -0.4127773426E-16   0.5001694227E-15   0.8936465064E-15   0.6496452258E-01  -0.3248876129E-01  -0.3248876129E-01   0.1798375604E-16  -0.2030121581E-16   0.4483864198E-16   0.3250000005E+01
   0.0000000000E+00   0.0000000000E+00   0.9675112388E+00   0.0000000000E+00   0.0000000000E+00   0.1122750000E-02   0.0000000000E+00   0.0000000000E+00  -0.3361151124E-01  -0.3250000005E+01   0.8292369403E-13   0.8067529725E-13   0.1831763134E-15  -0.1087761578E-14  -0.7026913532E-15   0.6496452258E-01  -0.3248876129E-01  -0.3248876129E-01  -0.1512381352E-16  -0.3891869504E-16  -0.8603416703E-16   0.3250000005E+01
   0.1064964522E+01   0.0000000000E+00   0.9675112388E+00  -0.2250000000E-02   0.0000000000E+00   0.1122750000E-02   0.6721452249E-01   0.0000000000E+00  -0.3361151124E-01  -0.3250000005E+01   0.8116297798E-14   0.8063313271E-14   0.8788830813E-16   0.1527314862E-15   0.2175766802E-15   0.6496452258E-01  -0.3248876129E-01  -0.3248876129E-01   0.5084365040E-16  -0.1613658590E-16  -0.7746481073E-17   0.3250000005E+01
   0.1064964522E+01   0.9675112388E+00   0.9675112388E+00  -0.2250000000E-02   0.1122750000E-02   0.1122750000E-02   0.6721452249E-01  -0.3361151124E-01  -0.3361151124E-01  -0.3250000004E+01  -0.4211985698E-13  -0.4228784922E-13   0.3317713289E-15   0.8432074672E-15  -0.1282424783E-15   0.6496452257E-01  -0.3248876129E-01  -0.3248876129E-01   0.3141382925E-16   0.1187460137E-15   0.1624455124E-16   0.3250000004E+01
   0.0000000000E+00   0.9675112388E+00   0.9675112388E+00   0.0000000000E+00   0.1122750000E-02   0.1122750000E-02   0.0000000000E+00  -0.3361151124E-01  -0.3361151124E-01  -0.3250000004E+01  -0.5157945987E-13  -0.5037435217E-13  -0.3764203137E-15   0.7873317271E-16   0.4537465921E-15   0.6496452258E-01  -0.3248876129E-01  -0.3248876129E-01  -0.4211384605E-16   0.5469220149E-16   0.3771160735E-16   0.3250000004E+01
   0.2129929045E+01   0.0000000000E+00   0.4739400239E-16  -0.4500000000E-02   0.0000000000E+00  -0.6809188782E-18   0.1344290450E+00   0.0000000000E+00   0.4807492127E-16  -0.3250000005E+01   0.7879410102E-13   0.8034608177E-13  -0.2894452342E-14   0.5478100091E-17  -0.1046913604E-14   0.6496452259E-01  -0.3248876129E-01  -0.3248876129E-01  -0.1069763888E-15  -0.1096292200E-15  -0.5765449029E-16   0.3250000005E+01
   0.2129929045E+01   0.9675112388E+00   0.2332850130E-16  -0.4500000000E-02   0.1122750000E-02  -0.2296230023E-18   0.1344290450E+00  -0.3361151124E-01   0.2355812430E-16  -0.3250000005E+01  -0.9308531387E-13  -0.9185789496E-13  -0.3551323297E-14  -0.1234539518E-14  -0.1013855622E-14   0.6496452258E-01  -0.3248876129E-01  -0.3248876129E-01  -0.1388502558E-15   0.3685713444E-15   0.9312710763E-16   0.3250000005E+01
   0.2129929045E+01   0.0000000000E+00   0.9675112388E+00  -0.4500000000E-02   0.0000000000E+00   0.1122750000E-02   0.1344290450E+00   0.0000000000E+00  -0.3361151124E-01  -0.3250000005E+01  -0.1778107231E-13  -0.1954620181E-13   0.2843251498E-14  -0.5206630288E-14  -0.7021549075E-15   0.6496452258E-01  -0.3248876129E-01  -0.3248876129E-01   0.2208931153E-15  -0.1327257114E-15  -0.3529288467E-16   0.3250000005E+01
   0.2129929045E+01   0.9675112388E+00   0.9675112388E+00  -0.4500000000E-02   0.1122750000E-02   0.1122750000E-02   0.1344290450E+00  -0.3361151124E-01  -0.3361151124E-01  -0.3250000004E+01  -0.6343776323E-13  -0.6549041230E-13   0.2596135544E-14   0.4614127037E-14  -0.3963044476E-15   0.6496452257E-01  -0.3248876129E-01  -0.3248876129E-01   0.3203457404E-15   0.1577127429E-15   0.8873118254E-16   0.3250000004E+01
     1     2     3     4     5     6     7     8
     2     9    10     3     6    11    12     7
 VARIABLES = X,Y,Z,DU1,DU2,DU3,U1,U2,U3,S11,S22,S33,S12,S13,S23,E11,E22,E33,E12,E13,E23,SMISES
 ZONE, T="0.5750D+01" F=FEPOINT, I=   12 J=    2 ET=BRICK
   0.0000000000E+00   0.0000000000E+00   0.0000000000E+00   0.0000000000E+00   0.0000000000E+00   0.0000000000E+00   0.0000000000E+00   0.0000000000E+00   0.0000000000E+00  -0.4375000007E+01   0.8324615219E-13   0.8375644570E-13   0.4143832923E-16  -0.2353917695E-15  -0.3146859940E-15   0.6271452259E-01  -0.3136601129E-01  -0.3136601129E-01  -0.3284687728E-17   0.8391422462E-17  -0.2913807367E-16   0.4375000007E+01
   0.1062714522E+01   0.0000000000E+00   0.3346441347E-17  -0.2250000000E-02   0.0000000000E+00   0.8271958542E-18   0.6496452249E-01   0.0000000000E+00   0.2519245493E-17  -0.4375000007E+01  -0.6133450484E-13  -0.6158085335E-13  -0.7171080183E-15  -0.8266392366E-15   0.1129471131E-15   0.6271452259E-01  -0.3136601129E-01  -0.3136601129E-01  -0.1607286138E-15  -0.8848971738E-16  -0.2817300373E-16   0.4375000007E+01
   0.1062714522E+01   0.9686339888E+00  -0.1475889197E-16  -0.2250000000E-02   0.1122750000E-02  -0.3847672388E-18   0.6496452249E-01  -0.3248876124E-01  -0.1437412473E-16  -0.4375000006E+01  -0.2371766769E-13  -0.2252179436E-13  -0.8732888326E-15   0.9389021975E-15   0.1124518918E-14   0.6271452258E-01  -0.3136601129E-01  -0.3136601129E-01  -0.1810861435E-15   0.1711691356E-15  -0.2515264066E-16   0.4375000006E+01
   0.0000000000E+00   0.9686339888E+00  -0.1511502122E-16   0.0000000000E+00   0.1122750000E-02  -0.1222192708E-17   0.0000000000E+00  -0.3248876124E-01  -0.1389282851E-16  -0.4375000006E+01  -0.3193964054E-13  -0.2885565884E-13  -0.2705482985E-15   0.5433022287E-15   0.9391193008E-15   0.6271452258E-01  -0.3136601129E-01  -0.3136601129E-01   0.2499236601E-16  -0.2734825246E-16   0.6534744253E-16   0.4375000006E+01
   0.0000000000E+00   0.0000000000E+00   0.9686339888E+00   0.0000000000E+00   0.0000000000E+00   0.1122750000E-02   0.0000000000E+00   0.0000000000E+00  -0.3248876124E-01  -0.4375000006E+01  -0.1749129701E-13  -0.2019068609E-13   0.1580558884E-15  -0.9679560253E-15  -0.7632157876E-15   0.6271452258E-01  -0.3136601129E-01  -0.3136601129E-01   0.3295364775E-17  -0.1881629879E-17  -0.5185691118E-16   0.4375000006E+01
   0.1062714522E+01   0.0000000000E+00   0.9686339888E+00  -0.2250000000E-02   0.0000000000E+00   0.1122750000E-02   0.6496452249E-01   0.0000000000E+00  -0.3248876124E-01  -0.4375000006E+01  -0.4222223428E-13  -0.4250815203E-13   0.2048709686E-15   0.4356013317E-17   0.1546835361E-15   0.6271452258E-01  -0.3136601129E-01  -0.3136601129E-01   0.2701049739E-16  -0.9328668172E-16  -0.1086458299E-16   0.4375000006E+01
   0.1062714522E+01   0.9686339888E+00   0.9686339888E+00  -0.2250000000E-02   0.1122750000E-02   0.1122750000E-02   0.6496452249E-01  -0.3248876124E-01  -0.3248876124E-01  -0.4375000006E+01  -0.7183031386E-14  -0.7391660602E-14   0.3656894819E-15   0.1033051029E-14   0.8664937415E-16   0.6271452257E-01  -0.3136601129E-01  -0.3136601129E-01   0.5666835088E-16   0.1548010037E-15   0.5688504265E-17   0.4375000006E+01
   0.0000000000E+00   0.9686339888E+00   0.9686339888E+00   0.0000000000E+00   0.1122750000E-02   0.1122750000E-02   0.0000000000E+00  -0.3248876124E-01  -0.3248876124E-01  -0.4375000006E+01   0.2489441939E-14   0.3102786743E-14  -0.3966424334E-15   0.1784098644E-15   0.7139150357E-15   0.6271452257E-01  -0.3136601129E-01  -0.3136601129E-01  -0.7917018777E-16   0.5654343687E-16  -0.1205925458E-16   0.4375000006E+01
   0.2125429045E+01   0.0000000000E+00   0.5111600341E-16  -0.4500000000E-02   0.0000000000E+00   0.3722001020E-17   0.1299290450E+00   0.0000000000E+00   0.4739400239E-16  -0.4375000007E+01  -0.7040680935E-14  -0.5468381700E-14  -0.3113957002E-14   0.5678729874E-16  -0.1270940868E-14   0.6271452258E-01  -0.3136601129E-01  -0.3136601129E-01  -0.9946668180E-16  -0.7920686270E-16  -0.5468599228E-16   0.4375000007E+01
   0.2125429045E+01   0.9686339888E+00   0.2574791184E-16  -0.4500000000E-02   0.1122750000E-02   0.2419410539E-17   0.1299290450E+00  -0.3248876124E-01   0.2332850130E-16  -0.4375000006E+01   0.5498878010E-13   0.5614036939E-13  -0.3383107032E-14  -0.9000877593E-15  -0.1081559426E-14   0.6271452258E-01  -0.3136601129E-01  -0.3136601129E-01  -0.1395122803E-15   0.3093561631E-15   0.8600281596E-16   0.4375000006E+01
   0.2125429045E+01   0.0000000000E+00   0.9686339888E+00  -0.4500000000E-02   0.0000000000E+00   0.1122750000E-02   0.1299290450E+00   0.0000000000E+00  -0.3248876124E-01  -0.4375000006E+01   0.4216705893E-13   0.4014323338E-13   0.2875857083E-14  -0.5201109355E-14  -0.7252987443E-15   0.6271452258E-01  -0.3136601129E-01  -0.3136601129E-01   0.2110455307E-15  -0.7572394999E-16  -0.5353621371E-16   0.4375000006E+01
   0.2125429045E+01   0.9686339888E+00   0.9686339888E+00  -0.4500000000E-02   0.1122750000E-02   0.1122750000E-02   0.1299290450E+00  -0.3248876124E-01  -0.3248876124E-01  -0.4375000006E+01   0.1348714605E-13   0.1103503030E-13   0.2571692903E-14   0.4785699981E-14  -0.3033102653E-15   0.6271452257E-01  -0.3136601128E-01  -0.3136601128E-01   0.3186761059E-15   0.8145000973E-16   0.9489345135E-16   0.4375000006E+01
     1     2     3     4     5     6     7     8
     2     9    10     3     6    11    12     7
 VARIABLES = X,Y,Z,DU1,DU2,DU3,U1,U2,U3,S11,S22,S33,S12,S13,S23,E11,E22,E33,E12,E13,E23,SMISES
 ZONE, T="0.5800D+01" F=FEPOINT, I=   12 J=    2 ET=BRICK
   0.0000000000E+00   0.0000000000E+00   0.0000000000E+00   0.0000000000E+00   0.0000000000E+00   0.0000000000E+00   0.0000000000E+00   0.0000000000E+00   0.0000000000E+00  -0.5500000009E+01  -0.4619530000E-13  -0.4566867352E-13   0.4954358370E-16  -0.2805124631E-15  -0.4743700810E-15   0.6046452258E-01  -0.3024326129E-01  -0.3024326129E-01   0.6965409067E-17  -0.3901971672E-17  -0.4488950203E-16   0.5500000009E+01
   0.1060464522E+01   0.0000000000E+00   0.4102004663E-17  -0.2250000000E-02   0.0000000000E+00   0.7555633163E-18   0.6271452249E-01   0.0000000000E+00   0.3346441347E-17  -0.5500000008E+01  -0.7103080732E-14  -0.7035222033E-14  -0.2831255450E-15  -0.4511977289E-15  -0.1071477249E-15   0.6046452258E-01  -0.3024326129E-01  -0.3024326129E-01  -0.1748486017E-15  -0.5093190851E-16  -0.4799888112E-16   0.5500000008E+01
   0.1060464522E+01   0.9697567388E+00  -0.1524678865E-16  -0.2250000000E-02   0.1122750000E-02  -0.4878966816E-18   0.6271452249E-01  -0.3136601124E-01  -0.1475889197E-16  -0.5500000008E+01   0.8877720688E-14   0.1058009744E-13  -0.4968445238E-15   0.6309020521E-15   0.1387326968E-14   0.6046452258E-01  -0.3024326129E-01  -0.3024326129E-01  -0.1717967087E-15   0.1868355214E-15   0.8620958329E-17   0.5500000008E+01
   0.0000000000E+00   0.9697567388E+00  -0.1624896332E-16   0.0000000000E+00   0.1122750000E-02  -0.1133942105E-17   0.0000000000E+00  -0.3136601124E-01  -0.1511502122E-16  -0.5500000008E+01   0.7501712399E-13   0.7868742426E-13  -0.3005563583E-15   0.5496935133E-15   0.1086825115E-14   0.6046452258E-01  -0.3024326129E-01  -0.3024326129E-01   0.2637702669E-16  -0.3474653080E-16   0.8233110328E-16   0.5500000008E+01
   0.0000000000E+00   0.0000000000E+00   0.9697567388E+00   0.0000000000E+00   0.0000000000E+00   0.1122750000E-02   0.0000000000E+00   0.0000000000E+00  -0.3136601124E-01  -0.5500000008E+01   0.4737174186E-14   0.1329555554E-14   0.1386367961E-15  -0.7265648051E-15  -0.1029327268E-14   0.6046452258E-01  -0.3024326129E-01  -0.3024326129E-01  -0.4707556243E-17  -0.4402619395E-17  -0.4621689631E-16   0.5500000008E+01
   0.1060464522E+01   0.0000000000E+00   0.9697567388E+00  -0.2250000000E-02   0.0000000000E+00   0.1122750000E-02   0.6271452249E-01   0.0000000000E+00  -0.3136601124E-01  -0.5500000008E+01   0.5562123135E-13   0.5521340261E-13   0.6481868203E-16   0.3224693059E-15  -0.2152457279E-15   0.6046452258E-01  -0.3024326129E-01  -0.3024326129E-01   0.4556164201E-16  -0.7810860545E-16  -0.1690388928E-16   0.5500000008E+01
   0.1060464522E+01   0.9697567388E+00   0.9697567388E+00  -0.2250000000E-02   0.1122750000E-02   0.1122750000E-02   0.6271452249E-01  -0.3136601124E-01  -0.3136601124E-01  -0.5500000007E+01   0.1518947844E-13   0.1414127891E-13   0.1397613834E-15   0.6490125402E-15   0.1646550525E-15   0.6046452257E-01  -0.3024326128E-01  -0.3024326128E-01   0.5497815739E-16   0.1443687469E-15   0.4860673733E-16   0.5500000007E+01
   0.0000000000E+00   0.9697567388E+00   0.9697567388E+00   0.0000000000E+00   0.1122750000E-02   0.1122750000E-02   0.0000000000E+00  -0.3136601124E-01  -0.3136601124E-01  -0.5500000007E+01  -0.3570739263E-13  -0.3577651457E-13  -0.2230232455E-15   0.1697443942E-15   0.9266663083E-15   0.6046452257E-01  -0.3024326128E-01  -0.3024326128E-01  -0.8457512333E-16   0.5715713537E-16   0.2481052806E-17   0.5500000007E+01
   0.2120929045E+01   0.0000000000E+00   0.5557069227E-16  -0.4500000000E-02   0.0000000000E+00   0.4454688858E-17   0.1254290450E+00   0.0000000000E+00   0.5111600341E-16  -0.5500000008E+01  -0.5457179052E-13  -0.5200281740E-13  -0.2560587758E-14  -0.1008280909E-15  -0.1466132483E-14   0.6046452258E-01  -0.3024326129E-01  -0.3024326129E-01  -0.9434817620E-16  -0.2146972446E-16  -0.4699976718E-16   0.5500000008E+01
   0.2120929045E+01   0.9697567388E+00   0.2904995159E-16  -0.4500000000E-02   0.1122750000E-02   0.3302039748E-17   0.1254290450E+00  -0.3136601124E-01   0.2574791184E-16  -0.5500000008E+01  -0.1087660354E-12  -0.1072908090E-12  -0.3145910937E-14  -0.1344894759E-14  -0.5504569389E-15   0.6046452257E-01  -0.3024326129E-01  -0.3024326129E-01  -0.1234186311E-15   0.2714549813E-15   0.8536013428E-16   0.5500000008E+01
   0.2120929045E+01   0.0000000000E+00   0.9697567388E+00  -0.4500000000E-02   0.0000000000E+00   0.1122750000E-02   0.1254290450E+00   0.0000000000E+00  -0.3136601124E-01  -0.5500000008E+01  -0.6889993541E-13  -0.7189467204E-13   0.2788843238E-14  -0.5348061634E-14  -0.1000613052E-14   0.6046452257E-01  -0.3024326129E-01  -0.3024326129E-01   0.1989427270E-15  -0.8597719748E-16  -0.4938609593E-16   0.5500000008E+01
   0.2120929045E+01   0.9697567388E+00   0.9697567388E+00  -0.4500000000E-02   0.1122750000E-02   0.1122750000E-02   0.1254290450E+00  -0.3136601124E-01  -0.3136601124E-01  -0.5500000007E+01  -0.2580364925E-13  -0.2886784646E-13   0.2338743696E-14   0.4110718533E-14   0.1410966401E-15   0.6046452257E-01  -0.3024326128E-01  -0.3024326128E-01   0.3156827724E-15   0.1286099414E-15   0.8589981509E-16   0.5500000007E+01
     1     2     3     4     5     6     7     8
     2     9    10     3     6    11    12     7
 VARIABLES = X,Y,Z,DU1,DU2,DU3,U1,U2,U3,S11,S22,S33,S12,S13,S23,E11,E22,E33,E12,E13,E23,SMISES
 ZONE, T="0.5850D+01" F=FEPOINT, I=   12 J=    2 ET=BRICK
   0.0000000000E+00   0.0000000000E+00   0.0000000000E+00   0.0000000000E+00   0.0000000000E+00   0.0000000000E+00   0.0000000000E+00   0.0000000000E+00   0.0000000000E+00  -0.6625000010E+01  -0.7603844633E-13  -0.7436222342E-13   0.3881309782E-16  -0.2090148368E-15  -0.7147384777E-16   0.5821452258E-01  -0.2912051129E-01  -0.2912051129E-01  -0.6559122399E-17  -0.2471819866E-16  -0.2411344518E-16   0.6625000010E+01
   0.1058214522E+01   0.0000000000E+00   0.3562299089E-17  -0.2250000000E-02   0.0000000000E+00  -0.5397055738E-18   0.6046452249E-01   0.0000000000E+00   0.4102004663E-17  -0.6625000010E+01  -0.3727003913E-13  -0.3823949125E-13   0.1624366838E-16  -0.3418452978E-15   0.1112557802E-15   0.5821452258E-01  -0.2912051129E-01  -0.2912051129E-01  -0.1513540044E-15   0.6298224263E-18  -0.2856117992E-16   0.6625000010E+01
   0.1058214522E+01   0.9708794888E+00  -0.1437282450E-16  -0.2250000000E-02   0.1122750000E-02   0.8739641529E-18   0.6046452249E-01  -0.3024326124E-01  -0.1524678865E-16  -0.6625000009E+01   0.7671697123E-13   0.7752971079E-13  -0.3325936193E-15   0.7448055894E-15   0.1173149073E-14   0.5821452257E-01  -0.2912051129E-01  -0.2912051129E-01  -0.1475734459E-15   0.1449438060E-15  -0.1036173194E-16   0.6625000009E+01
   0.0000000000E+00   0.9708794888E+00  -0.1367197683E-16   0.0000000000E+00   0.1122750000E-02   0.2576986489E-17   0.0000000000E+00  -0.3024326124E-01  -0.1624896332E-16  -0.6625000010E+01  -0.6625118846E-13  -0.6406846190E-13  -0.2275766502E-15   0.3369435301E-15   0.1097638199E-14   0.5821452257E-01  -0.2912051129E-01  -0.2912051129E-01   0.1013614377E-16  -0.1439575137E-16   0.6558232777E-16   0.6625000010E+01
   0.0000000000E+00   0.0000000000E+00   0.9708794888E+00   0.0000000000E+00   0.0000000000E+00   0.1122750000E-02   0.0000000000E+00   0.0000000000E+00  -0.3024326124E-01  -0.6625000010E+01   0.7771409568E-13   0.7401477669E-13   0.1367065279E-15  -0.1031982966E-14  -0.9886312410E-15   0.5821452257E-01  -0.2912051129E-01  -0.2912051129E-01   0.4339305879E-17  -0.2901890805E-16  -0.8673190343E-16   0.6625000010E+01
   0.1058214522E+01   0.0000000000E+00   0.9708794888E+00  -0.2250000000E-02   0.0000000000E+00   0.1122750000E-02   0.6046452249E-01   0.0000000000E+00  -0.3024326124E-01  -0.6625000009E+01   0.6210444117E-13   0.6327416054E-13   0.2637466679E-15   0.5562051130E-15  -0.1098201802E-15   0.5821452257E-01  -0.2912051129E-01  -0.2912051129E-01   0.2604698093E-16  -0.4534801137E-16  -0.9226931738E-17   0.6625000009E+01
   0.1058214522E+01   0.9708794888E+00   0.9708794888E+00  -0.2250000000E-02   0.1122750000E-02   0.1122750000E-02   0.6046452249E-01  -0.3024326124E-01  -0.3024326124E-01  -0.6625000009E+01  -0.9608309503E-13  -0.9725864975E-13   0.3973743625E-15   0.8389398952E-15  -0.2775361447E-15   0.5821452257E-01  -0.2912051128E-01  -0.2912051128E-01   0.4774408874E-16   0.1641834594E-15   0.2007612178E-17   0.6625000009E+01
   0.0000000000E+00   0.9708794888E+00   0.9708794888E+00   0.0000000000E+00   0.1122750000E-02   0.1122750000E-02   0.0000000000E+00  -0.3024326124E-01  -0.3024326124E-01  -0.6625000009E+01   0.3078433166E-13   0.3165365023E-13  -0.3371246817E-15  -0.2163053688E-16   0.4808365098E-15   0.5821452257E-01  -0.2912051128E-01  -0.2912051128E-01  -0.7558728948E-16   0.7596483747E-16   0.9710337667E-17   0.6625000009E+01
   0.2116429045E+01   0.0000000000E+00   0.5092242683E-16  -0.4500000000E-02   0.0000000000E+00  -0.4648265439E-17   0.1209290450E+00   0.0000000000E+00   0.5557069227E-16  -0.6625000010E+01  -0.5997723898E-13  -0.5708190668E-13  -0.1875626267E-14  -0.1315558910E-16  -0.1237819293E-14   0.5821452258E-01  -0.2912051129E-01  -0.2912051129E-01  -0.1006845691E-15  -0.1104159366E-15  -0.5615980135E-16   0.6625000010E+01
   0.2116429045E+01   0.9708794888E+00   0.2595275625E-16  -0.4500000000E-02   0.1122750000E-02  -0.3097195339E-17   0.1209290450E+00  -0.3024326124E-01   0.2904995159E-16  -0.6625000009E+01   0.1427706012E-12   0.1444656840E-12  -0.2552172939E-14  -0.1700170376E-14  -0.6613666803E-15   0.5821452257E-01  -0.2912051129E-01  -0.2912051129E-01  -0.1414419172E-15   0.3441951966E-15   0.8819553611E-16   0.6625000009E+01
   0.2116429045E+01   0.0000000000E+00   0.9708794888E+00  -0.4500000000E-02   0.0000000000E+00   0.1122750000E-02   0.1209290450E+00   0.0000000000E+00  -0.3024326124E-01  -0.6625000009E+01   0.1187942093E-12   0.1164271578E-12   0.2899066703E-14  -0.4797511857E-14  -0.6423438639E-15   0.5821452257E-01  -0.2912051129E-01  -0.2912051129E-01   0.2106199926E-15  -0.5673079620E-16  -0.2755396310E-16   0.6625000009E+01
   0.2116429045E+01   0.9708794888E+00   0.9708794888E+00  -0.4500000000E-02   0.1122750000E-02   0.1122750000E-02   0.1209290450E+00  -0.3024326124E-01  -0.3024326124E-01  -0.6625000008E+01  -0.1245540369E-12  -0.1265930752E-12   0.2195422789E-14   0.4204898641E-14   0.1185237750E-15   0.5821452256E-01  -0.2912051128E-01  -0.2912051128E-01   0.3176693785E-15   0.1686598614E-15   0.8739289643E-16   0.6625000008E+01
     1     2     3     4     5     6     7     8
     2     9    10     3     6    11    12     7
 VARIABLES = X,Y,Z,DU1,DU2,DU3,U1,U2,U3,S11,S22,S33,S12,S13,S23,E11,E22,E33,E12,E13,E23,SMISES
 ZONE, T="0.5900D+01" F=FEPOINT, I=   12 J=    2 ET=BRICK
   0.0000000000E+00   0.0000000000E+00   0.0000000000E+00   0.0000000000E+00   0.0000000000E+00   0.0000000000E+00   0.0000000000E+00   0.0000000000E+00   0.0000000000E+00  -0.7749966911E+01  -0.1655082778E-04  -0.1655082778E-04   0.5491962856E-16  -0.4035076947E-15   0.2477382415E-15   0.5156058910E-01  -0.2579579455E-01  -0.2579579455E-01  -0.7471901520E-17  -0.2543740188E-16  -0.3319152397E-16   0.7749950360E+01
   0.1051560589E+01   0.0000000000E+00   0.7283992978E-18  -0.6653933474E-02   0.0000000000E+00  -0.2833899791E-17   0.5821452249E-01   0.0000000000E+00   0.3562299089E-17  -0.7749966910E+01  -0.1655082790E-04  -0.1655082791E-04  -0.5890549821E-15  -0.7171170698E-15   0.4312828192E-15   0.5156058909E-01  -0.2579579455E-01  -0.2579579455E-01  -0.1509037268E-15  -0.3241568556E-16  -0.2295022316E-16   0.7749950359E+01
   0.1051560589E+01   0.9742042055E+00  -0.1416189040E-16  -0.6653933474E-02   0.3324716737E-02   0.2109340949E-18   0.5821452249E-01  -0.2912051124E-01  -0.1437282450E-16  -0.7749966909E+01  -0.1655082762E-04  -0.1655082762E-04  -0.6362543819E-15   0.9899528103E-15   0.6464877578E-15   0.5156058909E-01  -0.2579579454E-01  -0.2579579454E-01  -0.1685551768E-15   0.1729956207E-15  -0.1920877633E-16   0.7749950359E+01
   0.0000000000E+00   0.9742042055E+00  -0.1159703446E-16   0.0000000000E+00   0.3324716737E-02   0.2074942374E-17   0.0000000000E+00  -0.2912051124E-01  -0.1367197683E-16  -0.7749966910E+01  -0.1655082791E-04  -0.1655082791E-04  -0.6789045890E-16   0.2532224258E-15   0.2705509067E-15   0.5156058909E-01  -0.2579579455E-01  -0.2579579455E-01   0.2834208969E-16  -0.2788966517E-16   0.8163456369E-16   0.7749950359E+01
   0.0000000000E+00   0.0000000000E+00   0.9742042055E+00   0.0000000000E+00   0.0000000000E+00   0.3324716737E-02   0.0000000000E+00   0.0000000000E+00  -0.2912051124E-01  -0.7749966910E+01  -0.1655082813E-04  -0.1655082814E-04   0.1087208048E-15  -0.9396528902E-15  -0.2146714442E-16   0.5156058909E-01  -0.2579579455E-01  -0.2579579455E-01   0.5735464670E-17  -0.1601364470E-16  -0.5462744644E-16   0.7749950359E+01
   0.1051560589E+01   0.0000000000E+00   0.9742042055E+00  -0.6653933474E-02   0.0000000000E+00   0.3324716737E-02   0.5821452249E-01   0.0000000000E+00  -0.2912051124E-01  -0.7749966909E+01  -0.1655082790E-04  -0.1655082790E-04   0.2436731561E-15   0.1418669989E-15   0.4750075300E-15   0.5156058909E-01  -0.2579579454E-01  -0.2579579454E-01   0.1390007184E-16  -0.8147079222E-16  -0.4502750205E-17   0.7749950359E+01
   0.1051560589E+01   0.9742042055E+00   0.9742042055E+00  -0.6653933474E-02   0.3324716737E-02   0.3324716737E-02   0.5821452249E-01  -0.2912051124E-01  -0.2912051124E-01  -0.7749966908E+01  -0.1655082799E-04  -0.1655082799E-04   0.3269152932E-15   0.9532666661E-15  -0.8079928830E-15   0.5156058908E-01  -0.2579579454E-01  -0.2579579454E-01   0.5682673039E-16   0.1513969428E-15   0.3381618059E-16   0.7749950358E+01
   0.0000000000E+00   0.9742042055E+00   0.9742042055E+00   0.0000000000E+00   0.3324716737E-02   0.3324716737E-02   0.0000000000E+00  -0.2912051124E-01  -0.2912051124E-01  -0.7749966909E+01  -0.1655082794E-04  -0.1655082794E-04  -0.6914135612E-16  -0.4203683397E-15   0.2028050246E-15   0.5156058908E-01  -0.2579579454E-01  -0.2579579454E-01  -0.7820322277E-16   0.6416834948E-16  -0.2069568272E-16   0.7749950358E+01
   0.2103121178E+01   0.0000000000E+00   0.3927320375E-16  -0.1330786695E-01   0.0000000000E+00  -0.1164922309E-16   0.1164290450E+00   0.0000000000E+00   0.5092242683E-16  -0.7749966910E+01  -0.1655082846E-04  -0.1655082846E-04  -0.1377014690E-14   0.1320738198E-15  -0.5957781763E-15   0.5156058909E-01  -0.2579579455E-01  -0.2579579455E-01  -0.1012244675E-15  -0.7908963350E-16  -0.4284213077E-16   0.7749950359E+01
   0.2103121178E+01   0.9742042055E+00   0.1734903330E-16  -0.1330786695E-01   0.3324716737E-02  -0.8603722950E-17   0.1164290450E+00  -0.2912051124E-01   0.2595275625E-16  -0.7749966909E+01  -0.1655082744E-04  -0.1655082744E-04  -0.2239792307E-14  -0.1522397707E-14  -0.9468179632E-15   0.5156058909E-01  -0.2579579454E-01  -0.2579579454E-01  -0.1294593122E-15   0.2686011960E-15   0.6549954504E-16   0.7749950358E+01
   0.2103121178E+01   0.0000000000E+00   0.9742042055E+00  -0.1330786695E-01   0.0000000000E+00   0.3324716737E-02   0.1164290450E+00   0.0000000000E+00  -0.2912051124E-01  -0.7749966909E+01  -0.1655082774E-04  -0.1655082774E-04   0.2212689421E-14  -0.2527365519E-14  -0.2551335247E-15   0.5156058909E-01  -0.2579579454E-01  -0.2579579454E-01   0.2196770588E-15  -0.1216532497E-16  -0.2746423830E-16   0.7749950358E+01
   0.2103121178E+01   0.9742042055E+00   0.9742042055E+00  -0.1330786695E-01   0.3324716737E-02   0.3324716737E-02   0.1164290450E+00  -0.2912051124E-01  -0.2912051124E-01  -0.7749966908E+01  -0.1655082776E-04  -0.1655082776E-04   0.1765644086E-14   0.3664494425E-14  -0.4146294716E-15   0.5156058908E-01  -0.2579579454E-01  -0.2579579454E-01   0.3202409079E-15   0.7175297599E-16   0.9684518134E-16   0.7749950357E+01
     1     2     3     4     5     6     7     8
     2     9    10     3     6    11    12     7
 VARIABLES = X,Y,Z,DU1,DU2,DU3,U1,U2,U3,S11,S22,S33,S12,S13,S23,E11,E22,E33,E12,E13,E23,SMISES
 ZONE, T="0.5950D+01" F=FEPOINT, I=   12 J=    2 ET=BRICK
   0.0000000000E+00   0.0000000000E+00   0.0000000000E+00   0.0000000000E+00   0.0000000000E+00   0.0000000000E+00   0.0000000000E+00   0.0000000000E+00   0.0000000000E+00  -0.8875012697E+01   0.6341590699E-05   0.6341590700E-05   0.3309709112E-17  -0.2053126776E-15   0.6793851361E-15   0.2823185919E-01  -0.1413367959E-01  -0.1413367959E-01  -0.2149369374E-17  -0.2751444818E-16  -0.6801852277E-17   0.8875019039E+01
   0.1028231859E+01   0.0000000000E+00  -0.1982653523E-17  -0.2332872987E-01   0.0000000000E+00  -0.2711052821E-17   0.5156058902E-01   0.0000000000E+00   0.7283992978E-18  -0.8875012697E+01   0.6341591542E-05   0.6341591540E-05   0.4570496993E-15   0.4609305975E-15  -0.2111468368E-16   0.2823185919E-01  -0.1413367959E-01  -0.1413367959E-01  -0.1419502102E-15  -0.4165534866E-17  -0.4100333342E-16   0.8875019038E+01
   0.1028231859E+01   0.9858663204E+00  -0.1770878669E-16  -0.2332872987E-01   0.1166211494E-01  -0.3546896285E-17   0.5156058902E-01  -0.2579579451E-01  -0.1416189040E-16  -0.8875012696E+01   0.6341591839E-05   0.6341591839E-05   0.3806959841E-15   0.6719801293E-15  -0.7777037199E-16   0.2823185918E-01  -0.1413367959E-01  -0.1413367959E-01  -0.1749011416E-15   0.1170300933E-15  -0.1418761729E-16   0.8875019037E+01
   0.0000000000E+00   0.9858663204E+00  -0.3606285562E-17   0.0000000000E+00   0.1166211494E-01   0.7990748897E-17   0.0000000000E+00  -0.2579579451E-01  -0.1159703446E-16  -0.8875012696E+01   0.6341591373E-05   0.6341591372E-05  -0.4613973933E-15  -0.7960300087E-15   0.5085579914E-16   0.2823185918E-01  -0.1413367959E-01  -0.1413367959E-01   0.2707874355E-16  -0.3784675882E-16   0.5489962436E-16   0.8875019038E+01
   0.0000000000E+00   0.0000000000E+00   0.9858663204E+00   0.0000000000E+00   0.0000000000E+00   0.1166211494E-01   0.0000000000E+00   0.0000000000E+00  -0.2579579451E-01  -0.8875012696E+01   0.6341591829E-05   0.6341591829E-05   0.4547875204E-16  -0.9327453783E-15   0.2094084741E-15   0.2823185918E-01  -0.1413367959E-01  -0.1413367959E-01   0.3405775389E-18  -0.2929754293E-16  -0.3958179237E-16   0.8875019038E+01
   0.1028231859E+01   0.0000000000E+00   0.9858663204E+00  -0.2332872987E-01   0.0000000000E+00   0.1166211494E-01   0.5156058902E-01   0.0000000000E+00  -0.2579579451E-01  -0.8875012696E+01   0.6341591373E-05   0.6341591374E-05   0.2315741089E-15   0.7489945495E-15   0.7410887857E-15   0.2823185918E-01  -0.1413367959E-01  -0.1413367959E-01   0.1986501373E-16  -0.7287257454E-16   0.1665394907E-16   0.8875019037E+01
   0.1028231859E+01   0.9858663204E+00   0.9858663204E+00  -0.2332872987E-01   0.1166211494E-01   0.1166211494E-01   0.5156058902E-01  -0.2579579451E-01  -0.2579579451E-01  -0.8875012695E+01   0.6341591297E-05   0.6341591298E-05   0.3581099260E-15   0.9849595410E-15  -0.1379004564E-15   0.2823185918E-01  -0.1413367959E-01  -0.1413367959E-01   0.5862279633E-16   0.1171971370E-15   0.4249846233E-16   0.8875019036E+01
   0.0000000000E+00   0.9858663204E+00   0.9858663204E+00   0.0000000000E+00   0.1166211494E-01   0.1166211494E-01   0.0000000000E+00  -0.2579579451E-01  -0.2579579451E-01  -0.8875012695E+01   0.6341591522E-05   0.6341591523E-05   0.1315982884E-15  -0.8815143788E-15  -0.5248190111E-15   0.2823185918E-01  -0.1413367959E-01  -0.1413367959E-01  -0.6601695974E-16   0.6993726538E-16  -0.3262750564E-16   0.8875019037E+01
   0.2056463718E+01   0.0000000000E+00   0.2000474070E-16  -0.4665745974E-01   0.0000000000E+00  -0.1926846305E-16   0.1031211780E+00   0.0000000000E+00   0.3927320375E-16  -0.8875012697E+01   0.6341592639E-05   0.6341592640E-05  -0.9061458561E-15   0.9664219946E-15  -0.2658923602E-16   0.2823185919E-01  -0.1413367959E-01  -0.1413367959E-01  -0.9897741170E-16  -0.4580423201E-16  -0.4111588984E-16   0.8875019038E+01
   0.2056463718E+01   0.9858663204E+00   0.2976857289E-17  -0.4665745974E-01   0.1166211494E-01  -0.1437217601E-16   0.1031211780E+00  -0.2579579451E-01   0.1734903330E-16  -0.8875012696E+01   0.6341591580E-05   0.6341591580E-05  -0.9274903491E-15  -0.1704660742E-14  -0.1910107295E-15   0.2823185918E-01  -0.1413367959E-01  -0.1413367959E-01  -0.1306319642E-15   0.3119985047E-15   0.7572329542E-16   0.8875019037E+01
   0.2056463718E+01   0.0000000000E+00   0.9858663204E+00  -0.4665745974E-01   0.0000000000E+00   0.1166211494E-01   0.1031211780E+00   0.0000000000E+00  -0.2579579451E-01  -0.8875012696E+01   0.6341591958E-05   0.6341591958E-05   0.1179998577E-16  -0.8445952942E-15   0.2821670232E-15   0.2823185918E-01  -0.1413367959E-01  -0.1413367959E-01   0.1698457377E-15  -0.1309998282E-15  -0.5768389043E-17   0.8875019037E+01
   0.2056463718E+01   0.9858663204E+00   0.9858663204E+00  -0.4665745974E-01   0.1166211494E-01   0.1166211494E-01   0.1031211780E+00  -0.2579579451E-01  -0.2579579451E-01  -0.8875012695E+01   0.6341591163E-05   0.6341591163E-05  -0.2304918545E-15   0.1199667320E-15   0.6828719982E-16   0.2823185918E-01  -0.1413367959E-01  -0.1413367959E-01   0.2769147864E-15   0.1332965010E-15   0.7148325319E-16   0.8875019036E+01
     1     2     3     4     5     6     7     8
     2     9    10     3     6    11    12     7
 VARIABLES = X,Y,Z,DU1,DU2,DU3,U1,U2,U3,S11,S22,S33,S12,S13,S23,E11,E22,E33,E12,E13,E23,SMISES
 ZONE, T="0.6000D+01" F=FEPOINT, I=   12 J=    2 ET=BRICK
   0.0000000000E+00   0.0000000000E+00   0.0000000000E+00   0.0000000000E+00   0.0000000000E+00   0.0000000000E+00   0.0000000000E+00   0.0000000000E+00   0.0000000000E+00  -0.1000000668E+02   0.3330850181E-05   0.3330850181E-05   0.6793641485E-16  -0.2170180359E-15   0.2802056182E-15   0.3482044335E-02  -0.1761022168E-02  -0.1761022168E-02  -0.1876171292E-17  -0.6379017079E-17   0.7650676776E-18   0.1000001001E+02
   0.1003482044E+01   0.0000000000E+00  -0.2684507900E-17  -0.2474981481E-01   0.0000000000E+00  -0.7018543771E-18   0.2823185914E-01   0.0000000000E+00  -0.1982653523E-17  -0.1000000668E+02   0.3330850042E-05   0.3330850042E-05   0.6347372060E-16  -0.7215015148E-15   0.3418721619E-15   0.3482044335E-02  -0.1761022168E-02  -0.1761022168E-02  -0.1458808170E-15  -0.7723908870E-16  -0.3044827317E-16   0.1000001001E+02
   0.1003482044E+01   0.9982389778E+00  -0.1350938202E-16  -0.2474981481E-01   0.1237265741E-01   0.4199404673E-17   0.2823185914E-01  -0.1413367957E-01  -0.1770878669E-16  -0.1000000668E+02   0.3330849335E-05   0.3330849335E-05  -0.5806770254E-16   0.3612580993E-15   0.5793745307E-15   0.3482044335E-02  -0.1761022167E-02  -0.1761022167E-02  -0.1582033086E-15   0.1848584093E-15   0.1599551938E-16   0.1000001001E+02
   0.0000000000E+00   0.9982389778E+00  -0.3861814653E-17   0.0000000000E+00   0.1237265741E-01  -0.2555290907E-18   0.0000000000E+00  -0.1413367957E-01  -0.3606285562E-17  -0.1000000668E+02   0.3330849623E-05   0.3330849622E-05  -0.6505309047E-15   0.2131874283E-15   0.6861694076E-15   0.3482044335E-02  -0.1761022167E-02  -0.1761022167E-02   0.1603118034E-16  -0.5065501489E-16   0.4187220306E-16   0.1000001001E+02
   0.0000000000E+00   0.0000000000E+00   0.9982389778E+00   0.0000000000E+00   0.0000000000E+00   0.1237265741E-01   0.0000000000E+00   0.0000000000E+00  -0.1413367957E-01  -0.1000000668E+02   0.3330849038E-05   0.3330849037E-05  -0.2119156238E-16  -0.9667258219E-17   0.4395653072E-15   0.3482044335E-02  -0.1761022167E-02  -0.1761022167E-02  -0.1148148709E-17  -0.2554183061E-16  -0.6345840222E-16   0.1000001001E+02
   0.1003482044E+01   0.0000000000E+00   0.9982389778E+00  -0.2474981481E-01   0.0000000000E+00   0.1237265741E-01   0.2823185914E-01   0.0000000000E+00  -0.1413367957E-01  -0.1000000668E+02   0.3330850081E-05   0.3330850081E-05   0.1316468115E-14  -0.4292712612E-15  -0.2219528644E-15   0.3482044335E-02  -0.1761022167E-02  -0.1761022167E-02   0.5816945660E-16  -0.7797824302E-16   0.1074190917E-16   0.1000001001E+02
   0.1003482044E+01   0.9982389778E+00   0.9982389778E+00  -0.2474981481E-01   0.1237265741E-01   0.1237265741E-01   0.2823185914E-01  -0.1413367957E-01  -0.1413367957E-01  -0.1000000667E+02   0.3330850299E-05   0.3330850298E-05   0.1016442069E-14   0.7497712420E-15  -0.1756342229E-16   0.3482044334E-02  -0.1761022167E-02  -0.1761022167E-02   0.6741383967E-16   0.1136468044E-15   0.1566452966E-16   0.1000001001E+02
   0.0000000000E+00   0.9982389778E+00   0.9982389778E+00   0.0000000000E+00   0.1237265741E-01   0.1237265741E-01   0.0000000000E+00  -0.1413367957E-01  -0.1413367957E-01  -0.1000000668E+02   0.3330850755E-05   0.3330850756E-05   0.6316465914E-16  -0.5430488920E-15  -0.4422156220E-15   0.3482044334E-02  -0.1761022167E-02  -0.1761022167E-02  -0.5634726805E-16   0.8016651336E-16   0.4330099837E-17   0.1000001001E+02
   0.2006964089E+01   0.0000000000E+00   0.1975878297E-16  -0.4949962963E-01   0.0000000000E+00  -0.2459577305E-18   0.5646371829E-01   0.0000000000E+00   0.2000474070E-16  -0.1000000668E+02   0.3330850159E-05   0.3330850159E-05  -0.4376246096E-15   0.8762682723E-15  -0.3783306162E-15   0.3482044335E-02  -0.1761022167E-02  -0.1761022167E-02  -0.9610134662E-16  -0.2403979027E-16  -0.3491304808E-16   0.1000001001E+02
   0.2006964089E+01   0.9982389778E+00  -0.6631445274E-18  -0.4949962963E-01   0.1237265741E-01  -0.3640001816E-17   0.5646371829E-01  -0.1413367957E-01   0.2976857289E-17  -0.1000000668E+02   0.3330850493E-05   0.3330850494E-05  -0.4303180924E-15  -0.1431739323E-14  -0.5323221110E-15   0.3482044334E-02  -0.1761022167E-02  -0.1761022167E-02  -0.1408137417E-15   0.2920607230E-15   0.4896731117E-16   0.1000001001E+02
   0.2006964089E+01   0.0000000000E+00   0.9982389778E+00  -0.4949962963E-01   0.0000000000E+00   0.1237265741E-01   0.5646371829E-01   0.0000000000E+00  -0.1413367957E-01  -0.1000000668E+02   0.3330849990E-05   0.3330849990E-05   0.2642193851E-14  -0.2471025523E-14   0.1761971935E-15   0.3482044334E-02  -0.1761022167E-02  -0.1761022167E-02   0.2518652516E-15  -0.1598465424E-15  -0.1103112777E-16   0.1000001001E+02
   0.2006964089E+01   0.9982389778E+00   0.9982389778E+00  -0.4949962963E-01   0.1237265741E-01   0.1237265741E-01   0.5646371829E-01  -0.1413367957E-01  -0.1413367957E-01  -0.1000000667E+02   0.3330849937E-05   0.3330849938E-05   0.1627939341E-14   0.2274384993E-14   0.9645870675E-16   0.3482044334E-02  -0.1761022167E-02  -0.1761022167E-02   0.3459277909E-15   0.1853176662E-15   0.1005872758E-15   0.1000001001E+02
     1     2     3     4     5     6     7     8
     2     9    10     3     6    11    12     7
 VARIABLES = X,Y,Z,DU1,DU2,DU3,U1,U2,U3,S11,S22,S33,S12,S13,S23,E11,E22,E33,E12,E13,E23,SMISES
 ZONE, T="0.6050D+01" F=FEPOINT, I=   12 J=    2 ET=BRICK
   0.0000000000E+00   0.0000000000E+00   0.0000000000E+00   0.0000000000E+00   0.0000000000E+00   0.0000000000E+00   0.0000000000E+00   0.0000000000E+00   0.0000000000E+00  -0.8875000014E+01   0.5501682992E-12   0.1005842303E-11   0.6703402100E-16   0.4648011431E-12   0.1306542040E-12   0.5732064310E-02  -0.2883782155E-02  -0.2883782155E-02  -0.8942085137E-18   0.5558693285E-14   0.1556534344E-14   0.8875000014E+01
   0.1005732064E+01   0.0000000000E+00   0.2869108191E-14   0.2250019972E-02   0.0000000000E+00   0.2871792699E-14   0.3482044330E-02   0.0000000000E+00  -0.2684507900E-17  -0.8875000014E+01   0.2300061808E-12   0.3422109673E-12   0.1169346623E-12   0.3093318849E-12  -0.1346469519E-12   0.5732064310E-02  -0.2883782155E-02  -0.2883782155E-02   0.1257424951E-14   0.3674117331E-14  -0.1640791324E-14   0.8875000014E+01
   0.1005732064E+01   0.9971162178E+00   0.2048714593E-14   0.2250019972E-02  -0.1122759986E-02   0.2062223975E-14   0.3482044330E-02  -0.1761022165E-02  -0.1350938202E-16  -0.8875000013E+01  -0.2235301749E-12  -0.3330567764E-12   0.1076805642E-12   0.1837210922E-12   0.6630665061E-13   0.5732064310E-02  -0.2883782155E-02  -0.2883782155E-02   0.1137009296E-14   0.2344139481E-14   0.7841834772E-15   0.8875000013E+01
   0.0000000000E+00   0.9971162178E+00   0.7779759168E-15   0.0000000000E+00  -0.1122759986E-02   0.7818377314E-15   0.0000000000E+00  -0.1761022165E-02  -0.3861814653E-17  -0.8875000013E+01   0.1612004167E-11   0.1835360383E-11   0.1254432118E-12   0.1272997373E-12   0.3266631167E-12   0.5732064310E-02  -0.2883782155E-02  -0.2883782155E-02   0.1527314658E-14   0.1491908141E-14   0.3959633082E-14   0.8875000013E+01
   0.0000000000E+00   0.0000000000E+00   0.9971162178E+00   0.0000000000E+00   0.0000000000E+00  -0.1122759986E-02   0.0000000000E+00   0.0000000000E+00  -0.1761022165E-02  -0.8875000013E+01   0.6744529865E-12   0.7387438341E-12  -0.4242542415E-17   0.3294871024E-12   0.1493758322E-13   0.5732064310E-02  -0.2883782155E-02  -0.2883782155E-02   0.4200065646E-18   0.3930810964E-14   0.1178253135E-15   0.8875000013E+01
   0.1005732064E+01   0.0000000000E+00   0.9971162178E+00   0.2250019972E-02   0.0000000000E+00  -0.1122759986E-02   0.3482044330E-02   0.0000000000E+00  -0.1761022165E-02  -0.8875000013E+01  -0.2241192461E-12  -0.5125190836E-12   0.1118348199E-12   0.3095017732E-12  -0.2470280418E-12   0.5732064310E-02  -0.2883782155E-02  -0.2883782155E-02   0.1380922254E-14   0.3632783969E-14  -0.2952881319E-14   0.8875000013E+01
   0.1005732064E+01   0.9971162178E+00   0.9971162178E+00   0.2250019972E-02  -0.1122759986E-02  -0.1122759986E-02   0.3482044330E-02  -0.1761022165E-02  -0.1761022165E-02  -0.8875000012E+01   0.7899326277E-12   0.2761615801E-12   0.1079304152E-12   0.1872849509E-12  -0.4600193790E-13   0.5732064309E-02  -0.2883782154E-02  -0.2883782154E-02   0.1346364625E-14   0.2369035199E-14  -0.5271988540E-15   0.8875000012E+01
   0.0000000000E+00   0.9971162178E+00   0.9971162178E+00   0.0000000000E+00  -0.1122759986E-02  -0.1122759986E-02   0.0000000000E+00  -0.1761022165E-02  -0.1761022165E-02  -0.8875000012E+01  -0.9688865147E-12  -0.1134362079E-11   0.1311661603E-12  -0.4435544665E-14   0.2095867870E-12   0.5732064309E-02  -0.2883782155E-02  -0.2883782155E-02   0.1515287889E-14   0.1894239775E-16   0.2522983899E-14   0.8875000012E+01
   0.2011464129E+01   0.0000000000E+00   0.6097388548E-14   0.4500039944E-02   0.0000000000E+00   0.6077629765E-14   0.6964088659E-02   0.0000000000E+00   0.1975878297E-16  -0.8875000013E+01  -0.8100621117E-13   0.4118140006E-12   0.2240230953E-12   0.1446508523E-12  -0.1106655540E-12   0.5732064310E-02  -0.2883782155E-02  -0.2883782155E-02   0.2579374649E-14   0.1668682833E-14  -0.1363853771E-14   0.8875000013E+01
   0.2011464129E+01   0.9971162178E+00   0.5415773156E-14   0.4500039944E-02  -0.1122759986E-02   0.5416436300E-14   0.6964088659E-02  -0.1761022165E-02  -0.6631445274E-18  -0.8875000012E+01  -0.1832563892E-11  -0.1558168313E-11   0.7980832447E-13   0.2417012506E-12   0.9580633660E-13   0.5732064309E-02  -0.2883782155E-02  -0.2883782155E-02   0.8136705302E-15   0.3201028395E-14   0.1216020991E-14   0.8875000012E+01
   0.2011464129E+01   0.0000000000E+00   0.9971162178E+00   0.4500039944E-02   0.0000000000E+00  -0.1122759986E-02   0.6964088659E-02   0.0000000000E+00  -0.1761022165E-02  -0.8875000012E+01  -0.2069918462E-11  -0.1990207184E-11   0.2295134472E-12   0.2766282950E-12  -0.2197355344E-12   0.5732064309E-02  -0.2883782155E-02  -0.2883782155E-02   0.2970367351E-14   0.3203130354E-14  -0.2646693733E-14   0.8875000012E+01
   0.2011464129E+01   0.9971162178E+00   0.9971162178E+00   0.4500039944E-02  -0.1122759986E-02  -0.1122759986E-02   0.6964088659E-02  -0.1761022165E-02  -0.1761022165E-02  -0.8875000011E+01   0.1855796560E-11   0.1716482404E-11   0.8999547618E-13   0.3823974295E-12  -0.1319979722E-13   0.5732064309E-02  -0.2883782154E-02  -0.2883782154E-02   0.1388171006E-14   0.4740692944E-14  -0.6992822569E-16   0.8875000011E+01
     1     2     3     4     5     6     7     8
     2     9    10     3     6    11    12     7
 VARIABLES = X,Y,Z,DU1,DU2,DU3,U1,U2,U3,S11,S22,S33,S12,S13,S23,E11,E22,E33,E12,E13,E23,SMISES
 ZONE, T="0.6100D+01" F=FEPOINT, I=   12 J=    2 ET=BRICK
   0.0000000000E+00   0.0000000000E+00   0.0000000000E+00   0.0000000000E+00   0.0000000000E+00   0.0000000000E+00   0.0000000000E+00   0.0000000000E+00   0.0000000000E+00  -0.7750000012E+01  -0.2163660841E-13  -0.2182093372E-13   0.6291982645E-16  -0.1692519943E-15   0.2578722330E-16   0.7982064314E-02  -0.4006532157E-02  -0.4006532157E-02  -0.1108655325E-18  -0.1910565891E-16  -0.1037835766E-16   0.7750000012E+01
   0.1007982064E+01   0.0000000000E+00  -0.3614089964E-17   0.2250000000E-02   0.0000000000E+00  -0.2872722281E-14   0.5732064301E-02   0.0000000000E+00   0.2869108191E-14  -0.7750000012E+01   0.2862567148E-13   0.2605835258E-13   0.1019750482E-14   0.6918688907E-15   0.2047917611E-15   0.7982064314E-02  -0.4006532157E-02  -0.4006532157E-02  -0.1340857798E-15  -0.1723714352E-16  -0.2309934507E-16   0.7750000012E+01
   0.1007982064E+01   0.9959934678E+00  -0.1554447804E-16   0.2250000000E-02  -0.1122750000E-02  -0.2064259071E-14   0.5732064301E-02  -0.2883782151E-02   0.2048714593E-14  -0.7750000011E+01  -0.7977292799E-13  -0.7985420201E-13   0.1118475006E-14  -0.1262847303E-14  -0.9328123603E-15   0.7982064313E-02  -0.4006532156E-02  -0.4006532156E-02  -0.1401171487E-15   0.1184296709E-15  -0.2279498619E-16   0.7750000011E+01
   0.0000000000E+00   0.9959934678E+00  -0.5158867847E-17   0.0000000000E+00  -0.1122750000E-02  -0.7831347846E-15   0.0000000000E+00  -0.2883782151E-02   0.7779759168E-15  -0.7750000011E+01  -0.2816520778E-13  -0.2786188921E-13   0.3979674626E-15  -0.4645449229E-16   0.3891137041E-15   0.7982064313E-02  -0.4006532157E-02  -0.4006532157E-02   0.2704780698E-16  -0.3350924724E-16   0.4642920620E-16   0.7750000011E+01
   0.0000000000E+00   0.0000000000E+00   0.9959934678E+00   0.0000000000E+00   0.0000000000E+00  -0.1122750000E-02   0.0000000000E+00   0.0000000000E+00  -0.2883782151E-02  -0.7750000011E+01   0.4352086882E-13   0.4312538772E-13  -0.1173577235E-16  -0.3483437038E-15   0.1549809645E-15   0.7982064313E-02  -0.4006532157E-02  -0.4006532157E-02  -0.4851919445E-18  -0.2589778849E-16  -0.6002557532E-16   0.7750000011E+01
   0.1007982064E+01   0.0000000000E+00   0.9959934678E+00   0.2250000000E-02   0.0000000000E+00  -0.1122750000E-02   0.5732064301E-02   0.0000000000E+00  -0.2883782151E-02  -0.7750000011E+01  -0.1523881036E-13  -0.1441012876E-13  -0.1420037266E-14   0.9939048766E-15   0.3391987244E-15   0.7982064313E-02  -0.4006532156E-02  -0.4006532156E-02   0.2356729812E-16  -0.6695693275E-16   0.1487254288E-16   0.7750000011E+01
   0.1007982064E+01   0.9959934678E+00   0.9959934678E+00   0.2250000000E-02  -0.1122750000E-02  -0.1122750000E-02   0.5732064301E-02  -0.2883782151E-02  -0.2883782151E-02  -0.7750000010E+01   0.4317016243E-13   0.4399884412E-13  -0.1513018017E-14  -0.8532007790E-15  -0.6995947582E-15   0.7982064312E-02  -0.4006532156E-02  -0.4006532156E-02   0.3241632344E-16   0.1170689702E-15   0.1237494420E-16   0.7750000010E+01
   0.0000000000E+00   0.9959934678E+00   0.9959934678E+00   0.0000000000E+00  -0.1122750000E-02  -0.1122750000E-02   0.0000000000E+00  -0.2883782151E-02  -0.2883782151E-02  -0.7750000010E+01  -0.6977401917E-13  -0.6886114591E-13  -0.6289877767E-15   0.8940228982E-16  -0.9146169280E-15   0.7982064312E-02  -0.4006532156E-02  -0.4006532156E-02  -0.6372960370E-16   0.7319827200E-16   0.1322930303E-17   0.7750000010E+01
   0.2015964129E+01   0.0000000000E+00   0.1272574657E-16   0.4500000000E-02   0.0000000000E+00  -0.6084662802E-14   0.1146412860E-01   0.0000000000E+00   0.6097388548E-14  -0.7750000012E+01   0.1333600373E-12   0.1336633558E-12   0.5283239647E-15   0.2219365105E-14   0.9350096230E-15   0.7982064313E-02  -0.4006532157E-02  -0.4006532157E-02  -0.9819174732E-16  -0.5267484889E-16  -0.2579627354E-16   0.7750000012E+01
   0.2015964129E+01   0.9959934678E+00   0.2445856126E-18   0.4500000000E-02  -0.1122750000E-02  -0.5415528570E-14   0.1146412860E-01  -0.2883782151E-02   0.5415773156E-14  -0.7750000011E+01  -0.7769254315E-13  -0.7787686839E-13   0.1291332999E-15  -0.1641627892E-14   0.5636246305E-15   0.7982064313E-02  -0.4006532156E-02  -0.4006532156E-02  -0.1421397009E-15   0.2864296239E-15   0.7299838824E-16   0.7750000011E+01
   0.2015964129E+01   0.0000000000E+00   0.9959934678E+00   0.4500000000E-02   0.0000000000E+00  -0.1122750000E-02   0.1146412860E-01   0.0000000000E+00  -0.2883782151E-02  -0.7750000011E+01  -0.1615307323E-12  -0.1605286140E-12   0.4798035437E-15  -0.2335422083E-15   0.5875039164E-15   0.7982064313E-02  -0.4006532156E-02  -0.4006532156E-02   0.2182916219E-15  -0.1226921692E-15  -0.5853929085E-17   0.7750000011E+01
   0.2015964129E+01   0.9959934678E+00   0.9959934678E+00   0.4500000000E-02  -0.1122750000E-02  -0.1122750000E-02   0.1146412860E-01  -0.2883782151E-02  -0.2883782151E-02  -0.7750000010E+01   0.1093341051E-12   0.1086708891E-12   0.3883235370E-15   0.7397799282E-15   0.2530672311E-15   0.7982064312E-02  -0.4006532156E-02  -0.4006532156E-02   0.3180281487E-15   0.1523783534E-15   0.9392239084E-16   0.7750000010E+01
     1     2     3     4     5     6     7     8
     2     9    10     3     6    11    12     7
 VARIABLES = X,Y,Z,DU1,DU2,DU3,U1,U2,U3,S11,S22,S33,S12,S13,S23,E11,E22,E33,E12,E13,E23,SMISES
 ZONE, T="0.6150D+01" F=FEPOINT, I=   12 J=    2 ET=BRICK
   0.0000000000E+00   0.0000000000E+00   0.0000000000E+00   0.0000000000E+00   0.0000000000E+00   0.0000000000E+00   0.0000000000E+00   0.0000000000E+00   0.0000000000E+00  -0.6625000010E+01   0.9185969475E-13   0.9252038407E-13   0.7490034791E-16   0.4872898694E-16  -0.3851946678E-15   0.1023206432E-01  -0.5129282159E-02  -0.5129282159E-02   0.5636765994E-18  -0.1127058830E-16  -0.1702010735E-16   0.6625000010E+01
   0.1010232064E+01   0.0000000000E+00  -0.9685411065E-18   0.2250000000E-02   0.0000000000E+00   0.2645548858E-17   0.7982064301E-02   0.0000000000E+00  -0.3614089964E-17  -0.6625000010E+01  -0.2401070491E-14  -0.4210093007E-14   0.7766393253E-15   0.6568727032E-15  -0.2243196457E-15   0.1023206432E-01  -0.5129282159E-02  -0.5129282159E-02  -0.1345620142E-15  -0.3154653648E-16  -0.2881074007E-16   0.6625000010E+01
   0.1010232064E+01   0.9948707178E+00  -0.1534334400E-16   0.2250000000E-02  -0.1122750000E-02   0.2011340485E-18   0.7982064301E-02  -0.4006532151E-02  -0.1554447804E-16  -0.6625000009E+01  -0.2400358369E-13  -0.2327503572E-13   0.8662165114E-15  -0.1027752582E-14  -0.6276211868E-15   0.1023206432E-01  -0.5129282158E-02  -0.5129282158E-02  -0.1422080570E-15   0.1300974764E-15  -0.1795366089E-16   0.6625000009E+01
   0.0000000000E+00   0.9948707178E+00  -0.7605351908E-17   0.0000000000E+00  -0.1122750000E-02  -0.2446484061E-17   0.0000000000E+00  -0.4006532151E-02  -0.5158867847E-17  -0.6625000010E+01   0.8267522621E-13   0.8346472980E-13   0.4147791778E-15   0.1720055269E-15   0.6049007049E-15   0.1023206432E-01  -0.5129282158E-02  -0.5129282158E-02   0.2913353843E-16  -0.3257425022E-16   0.5146670958E-16   0.6625000010E+01
   0.0000000000E+00   0.0000000000E+00   0.9948707178E+00   0.0000000000E+00   0.0000000000E+00  -0.1122750000E-02   0.0000000000E+00   0.0000000000E+00  -0.4006532151E-02  -0.6625000010E+01  -0.8222002943E-13  -0.8366769555E-13  -0.1285849536E-16  -0.1756285764E-15   0.5283890492E-16   0.1023206432E-01  -0.5129282158E-02  -0.5129282158E-02   0.2632786986E-18  -0.2244990877E-16  -0.5882516073E-16   0.6625000010E+01
   0.1010232064E+01   0.0000000000E+00   0.9948707178E+00   0.2250000000E-02   0.0000000000E+00  -0.1122750000E-02   0.7982064301E-02   0.0000000000E+00  -0.4006532151E-02  -0.6625000009E+01   0.1475742163E-13   0.1485755518E-13  -0.1364126358E-14   0.8923612811E-15   0.9004637940E-16   0.1023206432E-01  -0.5129282158E-02  -0.5129282158E-02   0.2599624323E-16  -0.6996136784E-16   0.9387455611E-17   0.6625000009E+01
   0.1010232064E+01   0.9948707178E+00   0.9948707178E+00   0.2250000000E-02  -0.1122750000E-02  -0.1122750000E-02   0.7982064301E-02  -0.4006532151E-02  -0.4006532151E-02  -0.6625000009E+01  -0.2086502371E-14  -0.2178664945E-14  -0.1353016298E-14  -0.9301532576E-15  -0.3293901669E-15   0.1023206431E-01  -0.5129282157E-02  -0.5129282157E-02   0.3936557120E-16   0.1109932400E-15   0.2076991613E-16   0.6625000009E+01
   0.0000000000E+00   0.9948707178E+00   0.9948707178E+00   0.0000000000E+00  -0.1122750000E-02  -0.1122750000E-02   0.0000000000E+00  -0.4006532151E-02  -0.4006532151E-02  -0.6625000009E+01   0.4314810290E-13   0.4434796168E-13  -0.5633623775E-15   0.1966001721E-15  -0.5079669434E-15   0.1023206432E-01  -0.5129282158E-02  -0.5129282158E-02  -0.6269496606E-16   0.7506580307E-16   0.3226702970E-17   0.6625000009E+01
   0.2020464129E+01   0.0000000000E+00   0.2204993718E-16   0.4500000000E-02   0.0000000000E+00   0.9324190608E-17   0.1596412860E-01   0.0000000000E+00   0.1272574657E-16  -0.6625000010E+01  -0.1219153389E-13  -0.1111358608E-13   0.8122401281E-15   0.2116886726E-14   0.6293018421E-15   0.1023206432E-01  -0.5129282158E-02  -0.5129282158E-02  -0.1020273470E-15  -0.4063778105E-16  -0.2810443751E-16   0.6625000010E+01
   0.2020464129E+01   0.9948707178E+00   0.7933870560E-17   0.4500000000E-02  -0.1122750000E-02   0.7689284948E-17   0.1596412860E-01  -0.4006532151E-02   0.2445856126E-18  -0.6625000009E+01  -0.9931148265E-13  -0.9874694135E-13   0.2983255388E-15  -0.1941804085E-14   0.1163700179E-14   0.1023206432E-01  -0.5129282158E-02  -0.5129282158E-02  -0.1461866425E-15   0.2833354409E-15   0.7876154721E-16   0.6625000009E+01
   0.2020464129E+01   0.0000000000E+00   0.9948707178E+00   0.4500000000E-02   0.0000000000E+00  -0.1122750000E-02   0.1596412860E-01   0.0000000000E+00  -0.4006532151E-02  -0.6625000009E+01   0.1111313652E-12   0.1113439800E-12   0.2142091681E-16   0.6294593165E-15   0.1888885098E-15   0.1023206432E-01  -0.5129282158E-02  -0.5129282158E-02   0.2182790663E-15  -0.1218650497E-15  -0.1097014309E-16   0.6625000009E+01
   0.2020464129E+01   0.9948707178E+00   0.9948707178E+00   0.4500000000E-02  -0.1122750000E-02  -0.1122750000E-02   0.1596412860E-01  -0.4006532151E-02  -0.4006532151E-02  -0.6625000008E+01  -0.6410313063E-13  -0.6545970213E-13  -0.1963362001E-15  -0.2179323253E-15   0.6131326111E-15   0.1023206431E-01  -0.5129282157E-02  -0.5129282157E-02   0.3061997785E-15   0.1631062623E-15   0.9725493219E-16   0.6625000008E+01
     1     2     3     4     5     6     7     8
     2     9    10     3     6    11    12     7
 VARIABLES = X,Y,Z,DU1,DU2,DU3,U1,U2,U3,S11,S22,S33,S12,S13,S23,E11,E22,E33,E12,E13,E23,SMISES
 ZONE, T="0.6200D+01" F=FEPOINT, I=   12 J=    2 ET=BRICK
   0.0000000000E+00   0.0000000000E+00   0.0000000000E+00   0.0000000000E+00   0.0000000000E+00   0.0000000000E+00   0.0000000000E+00   0.0000000000E+00   0.0000000000E+00  -0.5500000009E+01  -0.6849546295E-13  -0.6770887719E-13   0.7073030199E-16  -0.1144198453E-16   0.1090739681E-16   0.1248206432E-01  -0.6252032161E-02  -0.6252032161E-02  -0.1238333927E-17  -0.1327122264E-16  -0.9511153517E-17   0.5500000009E+01
   0.1012482064E+01   0.0000000000E+00  -0.2367212695E-17   0.2250000000E-02   0.0000000000E+00  -0.1398671588E-17   0.1023206430E-01   0.0000000000E+00  -0.9685411065E-18  -0.5500000008E+01  -0.8562914500E-14  -0.1086755180E-13   0.1014224202E-14   0.7090887208E-15   0.4400625127E-16   0.1248206432E-01  -0.6252032160E-02  -0.6252032160E-02  -0.1309742455E-15  -0.2435206892E-16  -0.2619366448E-16   0.5500000008E+01
   0.1012482064E+01   0.9937479678E+00  -0.1509434349E-16   0.2250000000E-02  -0.1122750000E-02   0.2490005099E-18   0.1023206430E-01  -0.5129282151E-02  -0.1534334400E-16  -0.5500000008E+01   0.6976219336E-14   0.6824560005E-14   0.1155529165E-14  -0.9589978394E-15  -0.8863061008E-15   0.1248206432E-01  -0.6252032160E-02  -0.6252032160E-02  -0.1370434575E-15   0.1267493675E-15  -0.1963376395E-16   0.5500000008E+01
   0.0000000000E+00   0.9937479678E+00  -0.5219088046E-17   0.0000000000E+00  -0.1122750000E-02   0.2386263862E-17   0.0000000000E+00  -0.5129282151E-02  -0.7605351908E-17  -0.5500000008E+01  -0.1337254683E-12  -0.1336496386E-12   0.6012812738E-15  -0.1283870544E-15   0.7192211758E-15   0.1248206432E-01  -0.6252032160E-02  -0.6252032160E-02   0.3020999953E-16  -0.3493248649E-16   0.4856726616E-16   0.5500000008E+01
   0.0000000000E+00   0.0000000000E+00   0.9937479678E+00   0.0000000000E+00   0.0000000000E+00  -0.1122750000E-02   0.0000000000E+00   0.0000000000E+00  -0.5129282151E-02  -0.5500000008E+01  -0.4434944508E-13  -0.4504280035E-13  -0.2489425247E-17  -0.3449984383E-15   0.1079535220E-15   0.1248206432E-01  -0.6252032160E-02  -0.6252032160E-02   0.1284982538E-17  -0.2053560801E-16  -0.5743151768E-16   0.5500000008E+01
   0.1012482064E+01   0.0000000000E+00   0.9937479678E+00   0.2250000000E-02   0.0000000000E+00  -0.1122750000E-02   0.1023206430E-01   0.0000000000E+00  -0.5129282151E-02  -0.5500000008E+01   0.1753464632E-13   0.1843371322E-13  -0.1183736430E-14   0.8896453018E-15   0.1844915139E-15   0.1248206432E-01  -0.6252032160E-02  -0.6252032160E-02   0.2407730393E-16  -0.7521204416E-16   0.9162217818E-17   0.5500000008E+01
   0.1012482064E+01   0.9937479678E+00   0.9937479678E+00   0.2250000000E-02  -0.1122750000E-02  -0.1122750000E-02   0.1023206430E-01  -0.5129282151E-02  -0.5129282151E-02  -0.5500000007E+01  -0.1657943940E-13  -0.1625726114E-13  -0.1226720143E-14  -0.8355438006E-15  -0.7214254706E-15   0.1248206432E-01  -0.6252032159E-02  -0.6252032159E-02   0.3603423399E-16   0.1161773255E-15   0.1375182858E-16   0.5500000007E+01
   0.0000000000E+00   0.9937479678E+00   0.9937479678E+00   0.0000000000E+00  -0.1122750000E-02  -0.1122750000E-02   0.0000000000E+00  -0.5129282151E-02  -0.5129282151E-02  -0.5500000007E+01   0.5296709824E-13   0.5408169756E-13  -0.6184027116E-15   0.1156665793E-15  -0.9131847307E-15   0.1248206432E-01  -0.6252032159E-02  -0.6252032159E-02  -0.6237249242E-16   0.7317225620E-16  -0.1427812665E-17   0.5500000007E+01
   0.2024964129E+01   0.0000000000E+00   0.1551284284E-16   0.4500000000E-02   0.0000000000E+00  -0.6537094336E-17   0.2046412860E-01   0.0000000000E+00   0.2204993718E-16  -0.5500000008E+01  -0.3523614269E-13  -0.3422459467E-13   0.1222111283E-14   0.2186781488E-14   0.1018387260E-14   0.1248206432E-01  -0.6252032160E-02  -0.6252032160E-02  -0.9353228739E-16  -0.2361033367E-16  -0.2428743041E-16   0.5500000008E+01
   0.2024964129E+01   0.9937479678E+00   0.3463607151E-17   0.4500000000E-02  -0.1122750000E-02  -0.4470263409E-17   0.2046412860E-01  -0.5129282151E-02   0.7933870560E-17  -0.5500000008E+01   0.6168574863E-13   0.6225427545E-13   0.6190082236E-15  -0.2038326423E-14   0.8254443447E-15   0.1248206432E-01  -0.6252032159E-02  -0.6252032159E-02  -0.1413007271E-15   0.2752862168E-15   0.7537615209E-16   0.5500000008E+01
   0.2024964129E+01   0.0000000000E+00   0.9937479678E+00   0.4500000000E-02   0.0000000000E+00  -0.1122750000E-02   0.2046412860E-01   0.0000000000E+00  -0.5129282151E-02  -0.5500000008E+01   0.7003195669E-13   0.7080658607E-13   0.4399269773E-15   0.5669686979E-15   0.5573494979E-15   0.1248206432E-01  -0.6252032159E-02  -0.6252032159E-02   0.2134436794E-15  -0.1022132793E-15  -0.3284990444E-17   0.5500000008E+01
   0.2024964129E+01   0.9937479678E+00   0.9937479678E+00   0.4500000000E-02  -0.1122750000E-02  -0.1122750000E-02   0.2046412860E-01  -0.5129282151E-02  -0.5129282151E-02  -0.5500000007E+01  -0.5682448710E-13  -0.5754865866E-13   0.4239065768E-16   0.1376993286E-15   0.2907153645E-15   0.1248206432E-01  -0.6252032159E-02  -0.6252032159E-02   0.3058472179E-15   0.1405524523E-15   0.9218883479E-16   0.5500000007E+01
     1     2     3     4     5     6     7     8
     2     9    10     3     6    11    12     7
 VARIABLES = X,Y,Z,DU1,DU2,DU3,U1,U2,U3,S11,S22,S33,S12,S13,S23,E11,E22,E33,E12,E13,E23,SMISES
 ZONE, T="0.6250D+01" F=FEPOINT, I=   12 J=    2 ET=BRICK
   0.0000000000E+00   0.0000000000E+00   0.0000000000E+00   0.0000000000E+00   0.0000000000E+00   0.0000000000E+00   0.0000000000E+00   0.0000000000E+00   0.0000000000E+00  -0.4375000007E+01   0.7571361362E-14   0.8416180417E-14   0.7182971957E-16   0.9134527804E-16  -0.1499345929E-15   0.1473206432E-01  -0.7374782162E-02  -0.7374782162E-02  -0.7583707944E-18  -0.9852369042E-17  -0.1123670879E-16   0.4375000007E+01
   0.1014732064E+01   0.0000000000E+00  -0.9231055305E-18   0.2250000000E-02   0.0000000000E+00   0.1444107165E-17   0.1248206430E-01   0.0000000000E+00  -0.2367212695E-17  -0.4375000007E+01   0.2257495694E-13   0.2008346775E-13   0.8675444731E-15   0.8037234126E-15  -0.1784203568E-15   0.1473206432E-01  -0.7374782162E-02  -0.7374782162E-02  -0.1319496510E-15  -0.2581116773E-16  -0.3128070262E-16   0.4375000007E+01
   0.1014732064E+01   0.9926252178E+00  -0.1495418445E-16   0.2250000000E-02  -0.1122750000E-02   0.1401590386E-18   0.1248206430E-01  -0.6252032151E-02  -0.1509434349E-16  -0.4375000006E+01  -0.1080623297E-12  -0.1071320557E-12   0.1062738969E-14  -0.1076201859E-14  -0.6581851005E-15   0.1473206432E-01  -0.7374782161E-02  -0.7374782161E-02  -0.1374473841E-15   0.1279335280E-15  -0.1784044668E-16   0.4375000006E+01
   0.0000000000E+00   0.9926252178E+00  -0.6224320562E-17   0.0000000000E+00  -0.1122750000E-02  -0.1005232516E-17   0.0000000000E+00  -0.6252032151E-02  -0.5219088046E-17  -0.4375000006E+01   0.5955622799E-13   0.5979932058E-13   0.2894954954E-15   0.8128743577E-17   0.7167161682E-15   0.1473206432E-01  -0.7374782161E-02  -0.7374782161E-02   0.2585129286E-16  -0.3667561132E-16   0.4984127569E-16   0.4375000006E+01
   0.0000000000E+00   0.0000000000E+00   0.9926252178E+00   0.0000000000E+00   0.0000000000E+00  -0.1122750000E-02   0.0000000000E+00   0.0000000000E+00  -0.6252032151E-02  -0.4375000006E+01   0.4289715620E-13   0.4177784205E-13  -0.1263235104E-16  -0.2719051515E-15  -0.5627839932E-16   0.1473206432E-01  -0.7374782161E-02  -0.7374782161E-02  -0.2422891243E-18  -0.2316740527E-16  -0.5887159135E-16   0.4375000006E+01
   0.1014732064E+01   0.0000000000E+00   0.9926252178E+00   0.2250000000E-02   0.0000000000E+00  -0.1122750000E-02   0.1248206430E-01   0.0000000000E+00  -0.6252032151E-02  -0.4375000006E+01  -0.5210845114E-13  -0.5149238433E-13  -0.1380598998E-14   0.9092140664E-15   0.1879441704E-15   0.1473206432E-01  -0.7374782161E-02  -0.7374782161E-02   0.2519501276E-16  -0.7138640803E-16   0.1537177743E-16   0.4375000006E+01
   0.1014732064E+01   0.9926252178E+00   0.9926252178E+00   0.2250000000E-02  -0.1122750000E-02  -0.1122750000E-02   0.1248206430E-01  -0.6252032151E-02  -0.6252032151E-02  -0.4375000006E+01   0.3941626462E-13   0.3935929473E-13  -0.1509678429E-14  -0.8784502395E-15  -0.2899673039E-15   0.1473206432E-01  -0.7374782160E-02  -0.7374782160E-02   0.3785827313E-16   0.1093451481E-15   0.1861851525E-16   0.4375000006E+01
   0.0000000000E+00   0.9926252178E+00   0.9926252178E+00   0.0000000000E+00  -0.1122750000E-02  -0.1122750000E-02   0.0000000000E+00  -0.6252032151E-02  -0.6252032151E-02  -0.4375000006E+01  -0.4113756896E-13  -0.3986858823E-13  -0.4269905975E-15   0.2203166788E-15  -0.8822022627E-15   0.1473206432E-01  -0.7374782161E-02  -0.7374782161E-02  -0.6324230342E-16   0.7621007867E-16  -0.4372125857E-17   0.4375000006E+01
   0.2029464129E+01   0.0000000000E+00   0.2113712966E-16   0.4500000000E-02   0.0000000000E+00   0.5624286823E-17   0.2496412860E-01   0.0000000000E+00   0.1551284284E-16  -0.4375000007E+01   0.2493274983E-12   0.2504839978E-12   0.7076470859E-15   0.1922885724E-14   0.7616113868E-15   0.1473206432E-01  -0.7374782162E-02  -0.7374782162E-02  -0.1024011192E-15  -0.2150665674E-16  -0.2858225337E-16   0.4375000007E+01
   0.2029464129E+01   0.9926252178E+00   0.7493186790E-17   0.4500000000E-02  -0.1122750000E-02   0.4029579639E-17   0.2496412860E-01  -0.6252032151E-02   0.3463607151E-17  -0.4375000006E+01  -0.1145452878E-12  -0.1141331352E-12   0.3905263280E-15  -0.1794134609E-14   0.7713056128E-15   0.1473206432E-01  -0.7374782161E-02  -0.7374782161E-02  -0.1488025374E-15   0.2836595133E-15   0.7710540017E-16   0.4375000006E+01
   0.2029464129E+01   0.0000000000E+00   0.9926252178E+00   0.4500000000E-02   0.0000000000E+00  -0.1122750000E-02   0.2496412860E-01   0.0000000000E+00  -0.6252032151E-02  -0.4375000006E+01  -0.1824879051E-12  -0.1820078938E-12   0.3564798283E-15   0.7281823445E-16   0.4099922700E-15   0.1473206432E-01  -0.7374782161E-02  -0.7374782161E-02   0.2090810503E-15  -0.1304401284E-15  -0.5634766129E-17   0.4375000006E+01
   0.2029464129E+01   0.9926252178E+00   0.9926252178E+00   0.4500000000E-02  -0.1122750000E-02  -0.1122750000E-02   0.2496412860E-01  -0.6252032151E-02  -0.6252032151E-02  -0.4375000006E+01   0.6859622613E-13   0.6753626549E-13   0.1200180359E-15   0.2822605511E-15   0.3813483757E-15   0.1473206432E-01  -0.7374782160E-02  -0.7374782160E-02   0.3123431676E-15   0.1819339027E-15   0.9363857317E-16   0.4375000006E+01
     1     2     3     4     5     6     7     8
     2     9    10     3     6    11    12     7
 VARIABLES = X,Y,Z,DU1,DU2,DU3,U1,U2,U3,S11,S22,S33,S12,S13,S23,E11,E22,E33,E12,E13,E23,SMISES
 ZONE, T="0.6300D+01" F=FEPOINT, I=   12 J=    2 ET=BRICK
   0.0000000000E+00   0.0000000000E+00   0.0000000000E+00   0.0000000000E+00   0.0000000000E+00   0.0000000000E+00   0.0000000000E+00   0.0000000000E+00   0.0000000000E+00  -0.3250000005E+01   0.8140470553E-13   0.8236326901E-13   0.8737859981E-16   0.4915101060E-16  -0.9530352907E-16   0.1698206433E-01  -0.8497532164E-02  -0.8497532164E-02  -0.2398391532E-17  -0.2039925572E-16  -0.9362695598E-17   0.3250000005E+01
   0.1016982064E+01   0.0000000000E+00  -0.1011943254E-17   0.2250000000E-02   0.0000000000E+00  -0.8883772320E-19   0.1473206430E-01   0.0000000000E+00  -0.9231055305E-18  -0.3250000005E+01  -0.2455093259E-13  -0.2719952535E-13   0.6341351561E-15   0.7041106316E-15  -0.2565898761E-15   0.1698206433E-01  -0.8497532164E-02  -0.8497532164E-02  -0.1294532267E-15  -0.7814758102E-17  -0.2990987392E-16   0.3250000005E+01
   0.1016982064E+01   0.9915024678E+00  -0.1540086062E-16   0.2250000000E-02  -0.1122750000E-02  -0.4466761723E-18   0.1473206430E-01  -0.7374782151E-02  -0.1495418445E-16  -0.3250000005E+01   0.5267067654E-13   0.5359152070E-13   0.7800118078E-15  -0.8176033489E-15  -0.8096006585E-15   0.1698206433E-01  -0.8497532163E-02  -0.8497532163E-02  -0.1426481365E-15   0.1201327275E-15  -0.1974260513E-16   0.3250000005E+01
   0.0000000000E+00   0.9915024678E+00  -0.5732318237E-17   0.0000000000E+00  -0.1122750000E-02   0.4920023243E-18   0.0000000000E+00  -0.7374782151E-02  -0.6224320562E-17  -0.3250000005E+01  -0.9576831499E-13  -0.9565184824E-13   0.4790613285E-15  -0.1734957540E-15   0.6936164465E-15   0.1698206433E-01  -0.8497532163E-02  -0.8497532163E-02   0.2722415780E-16  -0.2996507312E-16   0.4799806631E-16   0.3250000005E+01
   0.0000000000E+00   0.0000000000E+00   0.9915024678E+00   0.0000000000E+00   0.0000000000E+00  -0.1122750000E-02   0.0000000000E+00   0.0000000000E+00  -0.7374782151E-02  -0.3250000005E+01  -0.8887109892E-13  -0.9018742421E-13  -0.2992015464E-16  -0.2271340079E-15   0.1215985874E-15   0.1698206433E-01  -0.8497532163E-02  -0.8497532163E-02   0.7770869530E-19  -0.1855420747E-16  -0.6417356363E-16   0.3250000005E+01
   0.1016982064E+01   0.0000000000E+00   0.9915024678E+00   0.2250000000E-02   0.0000000000E+00  -0.1122750000E-02   0.1473206430E-01   0.0000000000E+00  -0.7374782151E-02  -0.3250000005E+01   0.7798963680E-14   0.8546371243E-14  -0.1192356070E-14   0.9108207713E-15   0.1299071697E-15   0.1698206433E-01  -0.8497532163E-02  -0.8497532163E-02   0.2546539749E-16  -0.7242119761E-16   0.1450130972E-16   0.3250000005E+01
   0.1016982064E+01   0.9915024678E+00   0.9915024678E+00   0.2250000000E-02  -0.1122750000E-02  -0.1122750000E-02   0.1473206430E-01  -0.7374782151E-02  -0.7374782151E-02  -0.3250000004E+01   0.3639921968E-13   0.3625553153E-13  -0.1259806601E-14  -0.6807552350E-15  -0.4653144511E-15   0.1698206432E-01  -0.8497532162E-02  -0.8497532162E-02   0.3756102886E-16   0.1231077902E-15   0.2142551203E-16   0.3250000004E+01
   0.0000000000E+00   0.9915024678E+00   0.9915024678E+00   0.0000000000E+00  -0.1122750000E-02  -0.1122750000E-02   0.0000000000E+00  -0.7374782151E-02  -0.7374782151E-02  -0.3250000004E+01   0.5749125397E-13   0.5929376429E-13  -0.3812687849E-15   0.5193137485E-17  -0.8670018621E-15   0.1698206432E-01  -0.8497532162E-02  -0.8497532162E-02  -0.5784918815E-16   0.6449005925E-16   0.2391264329E-17   0.3250000004E+01
   0.2033964129E+01   0.0000000000E+00   0.2085206090E-16   0.4500000000E-02   0.0000000000E+00  -0.2850687589E-18   0.2946412860E-01   0.0000000000E+00   0.2113712966E-16  -0.3250000005E+01  -0.1755194164E-12  -0.1733040241E-12   0.1475659707E-14   0.2434741987E-14   0.6915106735E-15   0.1698206433E-01  -0.8497532164E-02  -0.8497532164E-02  -0.8888699063E-16  -0.5186621486E-16  -0.2732221745E-16   0.3250000005E+01
   0.2033964129E+01   0.9915024678E+00   0.6914867736E-17   0.4500000000E-02  -0.1122750000E-02  -0.5783190537E-18   0.2946412860E-01  -0.7374782151E-02   0.7493186790E-17  -0.3250000005E+01   0.1594403073E-12   0.1600494711E-12   0.7003103550E-15  -0.2316929774E-14   0.1143269114E-14   0.1698206433E-01  -0.8497532163E-02  -0.8497532163E-02  -0.1369236443E-15   0.2912874798E-15   0.7846004226E-16   0.3250000005E+01
   0.2033964129E+01   0.0000000000E+00   0.9915024678E+00   0.4500000000E-02   0.0000000000E+00  -0.1122750000E-02   0.2946412860E-01   0.0000000000E+00  -0.7374782151E-02  -0.3250000005E+01   0.8344981068E-13   0.8314649224E-13  -0.6149756452E-16   0.5506098779E-15   0.3744640021E-15   0.1698206433E-01  -0.8497532163E-02  -0.8497532163E-02   0.2087231698E-15  -0.1276742176E-15  -0.5871903906E-17   0.3250000005E+01
   0.2033964129E+01   0.9915024678E+00   0.9915024678E+00   0.4500000000E-02  -0.1122750000E-02  -0.1122750000E-02   0.2946412860E-01  -0.7374782151E-02  -0.7374782151E-02  -0.3250000004E+01   0.3224477531E-13   0.3129855910E-13  -0.1708916309E-15  -0.4606605464E-15   0.7847076424E-15   0.1698206432E-01  -0.8497532162E-02  -0.8497532162E-02   0.3099435595E-15   0.1454996696E-15   0.9182562274E-16   0.3250000004E+01
     1     2     3     4     5     6     7     8
     2     9    10     3     6    11    12     7
 VARIABLES = X,Y,Z,DU1,DU2,DU3,U1,U2,U3,S11,S22,S33,S12,S13,S23,E11,E22,E33,E12,E13,E23,SMISES
 ZONE, T="0.6350D+01" F=FEPOINT, I=   12 J=    2 ET=BRICK
   0.0000000000E+00   0.0000000000E+00   0.0000000000E+00   0.0000000000E+00   0.0000000000E+00   0.0000000000E+00   0.0000000000E+00   0.0000000000E+00   0.0000000000E+00  -0.2125000003E+01   0.6132146898E-13   0.6244656588E-13   0.9715164958E-16  -0.1209376836E-16  -0.2987800879E-16   0.1923206433E-01  -0.9620282166E-02  -0.9620282166E-02   0.2621460499E-17  -0.9104408329E-17  -0.1157780262E-16   0.2125000003E+01
   0.1019232064E+01   0.0000000000E+00  -0.1449033911E-17   0.2250000000E-02   0.0000000000E+00  -0.4370906573E-18   0.1698206430E-01   0.0000000000E+00  -0.1011943254E-17  -0.2125000003E+01   0.5409825652E-13   0.5115178953E-13   0.8081805660E-15   0.7488308764E-15  -0.5727466074E-16   0.1923206433E-01  -0.9620282166E-02  -0.9620282166E-02  -0.1368610727E-15  -0.1939357651E-16  -0.2839900597E-16   0.2125000003E+01
   0.1019232064E+01   0.9903797178E+00  -0.1469161923E-16   0.2250000000E-02  -0.1122750000E-02   0.7092413917E-18   0.1698206430E-01  -0.8497532151E-02  -0.1540086062E-16  -0.2125000003E+01  -0.5097429926E-14  -0.4955200610E-14   0.1145786424E-14  -0.9442595247E-15  -0.9264129346E-15   0.1923206433E-01  -0.9620282164E-02  -0.9620282164E-02  -0.1436327148E-15   0.1170360400E-15  -0.1853439766E-16   0.2125000003E+01
   0.0000000000E+00   0.9903797178E+00  -0.5218239368E-17   0.0000000000E+00  -0.1122750000E-02   0.5140788694E-18   0.0000000000E+00  -0.8497532151E-02  -0.5732318237E-17  -0.2125000003E+01  -0.5051634234E-13  -0.5059217187E-13   0.5807520660E-15  -0.7895452445E-16   0.8487503575E-15   0.1923206433E-01  -0.9620282165E-02  -0.9620282165E-02   0.3024502810E-16  -0.3520806652E-16   0.5202615129E-16   0.2125000003E+01
   0.0000000000E+00   0.0000000000E+00   0.9903797178E+00   0.0000000000E+00   0.0000000000E+00  -0.1122750000E-02   0.0000000000E+00   0.0000000000E+00  -0.8497532151E-02  -0.2125000003E+01   0.2848669396E-13   0.2717382024E-13  -0.3176554730E-16  -0.2804546007E-15   0.4283065706E-17   0.1923206433E-01  -0.9620282165E-02  -0.9620282165E-02  -0.2309407099E-17  -0.2389011552E-16  -0.6177153012E-16   0.2125000003E+01
   0.1019232064E+01   0.0000000000E+00   0.9903797178E+00   0.2250000000E-02   0.0000000000E+00  -0.1122750000E-02   0.1698206430E-01   0.0000000000E+00  -0.8497532151E-02  -0.2125000003E+01  -0.3246485950E-13  -0.3136805209E-13  -0.1167387653E-14   0.8241658234E-15   0.2080641769E-15   0.1923206433E-01  -0.9620282164E-02  -0.9620282164E-02   0.2851615242E-16  -0.7385754472E-16   0.1656360085E-16   0.2125000003E+01
   0.1019232064E+01   0.9903797178E+00   0.9903797178E+00   0.2250000000E-02  -0.1122750000E-02  -0.1122750000E-02   0.1698206430E-01  -0.8497532151E-02  -0.8497532151E-02  -0.2125000003E+01  -0.3192959224E-13  -0.3174964338E-13  -0.1454504389E-14  -0.7674702727E-15  -0.7029247199E-15   0.1923206433E-01  -0.9620282163E-02  -0.9620282163E-02   0.3205189081E-16   0.1176307841E-15   0.7654902828E-17   0.2125000003E+01
   0.0000000000E+00   0.9903797178E+00   0.9903797178E+00   0.0000000000E+00  -0.1122750000E-02  -0.1122750000E-02   0.0000000000E+00  -0.8497532151E-02  -0.8497532151E-02  -0.2125000003E+01   0.2413761429E-13   0.2546283555E-13  -0.6279492150E-15   0.1480557104E-15  -0.9375762184E-15   0.1923206433E-01  -0.9620282164E-02  -0.9620282164E-02  -0.6600317561E-16   0.7554072648E-16  -0.1148166348E-16   0.2125000003E+01
   0.2038464129E+01   0.0000000000E+00   0.1890766113E-16   0.4500000000E-02   0.0000000000E+00  -0.1944399779E-17   0.3396412860E-01   0.0000000000E+00   0.2085206090E-16  -0.2125000003E+01   0.2202212806E-13   0.2375677970E-13   0.1212260053E-14   0.2094170480E-14   0.1016553615E-14   0.1923206433E-01  -0.9620282165E-02  -0.9620282165E-02  -0.8666762996E-16  -0.3419151010E-16  -0.2313281094E-16   0.2125000003E+01
   0.2038464129E+01   0.9903797178E+00   0.6874476391E-17   0.4500000000E-02  -0.1122750000E-02  -0.4039134459E-19   0.3396412860E-01  -0.8497532151E-02   0.6914867736E-17  -0.2125000003E+01  -0.8988965524E-13  -0.9012006172E-13   0.6351410879E-15  -0.1705898325E-14   0.8419802113E-15   0.1923206433E-01  -0.9620282164E-02  -0.9620282164E-02  -0.1391363145E-15   0.2841392114E-15   0.7478640436E-16   0.2125000003E+01
   0.2038464129E+01   0.0000000000E+00   0.9903797178E+00   0.4500000000E-02   0.0000000000E+00  -0.1122750000E-02   0.3396412860E-01   0.0000000000E+00  -0.8497532151E-02  -0.2125000003E+01   0.6813901689E-13   0.6839027594E-13   0.4404969900E-17   0.7482448283E-15   0.5682817090E-15   0.1923206433E-01  -0.9620282164E-02  -0.9620282164E-02   0.2168991764E-15  -0.1315715209E-15  -0.1037221293E-16   0.2125000003E+01
   0.2038464129E+01   0.9903797178E+00   0.9903797178E+00   0.4500000000E-02  -0.1122750000E-02  -0.1122750000E-02   0.3396412860E-01  -0.8497532151E-02  -0.8497532151E-02  -0.2125000003E+01   0.3390618664E-14   0.2518239334E-14  -0.2400932909E-15  -0.4302336439E-15   0.3606357113E-15   0.1923206433E-01  -0.9620282163E-02  -0.9620282163E-02   0.3265727483E-15   0.1418357340E-15   0.1016939116E-15   0.2125000003E+01
     1     2     3     4     5     6     7     8
     2     9    10     3     6    11    12     7
 VARIABLES = X,Y,Z,DU1,DU2,DU3,U1,U2,U3,S11,S22,S33,S12,S13,S23,E11,E22,E33,E12,E13,E23,SMISES
 ZONE, T="0.6400D+01" F=FEPOINT, I=   12 J=    2 ET=BRICK
   0.0000000000E+00   0.0000000000E+00   0.0000000000E+00   0.0000000000E+00   0.0000000000E+00   0.0000000000E+00   0.0000000000E+00   0.0000000000E+00   0.0000000000E+00  -0.1000000002E+01  -0.2738576395E-14  -0.1859561095E-14   0.8826240310E-16  -0.2965260480E-16  -0.1739739165E-16   0.2148206434E-01  -0.1074303217E-01  -0.1074303217E-01  -0.1190484335E-17  -0.1963181342E-16  -0.9451439257E-17   0.1000000002E+01
   0.1021482064E+01   0.0000000000E+00  -0.1253305698E-17   0.2250000000E-02   0.0000000000E+00   0.1957282129E-18   0.1923206430E-01   0.0000000000E+00  -0.1449033911E-17  -0.1000000002E+01  -0.1935627368E-13  -0.2191144049E-13   0.8963593169E-15   0.9037749067E-15  -0.1786735785E-15   0.2148206433E-01  -0.1074303217E-01  -0.1074303217E-01  -0.1281516947E-15  -0.7337222216E-17  -0.2774807311E-16   0.1000000002E+01
   0.1021482064E+01   0.9892569678E+00  -0.1525647781E-16   0.2250000000E-02  -0.1122750000E-02  -0.5648585785E-18   0.1923206430E-01  -0.9620282151E-02  -0.1469161923E-16  -0.1000000001E+01  -0.1042013835E-13  -0.9747101579E-14   0.1141233038E-14  -0.9443047636E-15  -0.6754255692E-15   0.2148206433E-01  -0.1074303217E-01  -0.1074303217E-01  -0.1439354301E-15   0.1111242714E-15  -0.1813998934E-16   0.1000000001E+01
   0.0000000000E+00   0.9892569678E+00  -0.5221108504E-17   0.0000000000E+00  -0.1122750000E-02  -0.2869135898E-20   0.0000000000E+00  -0.9620282151E-02  -0.5218239368E-17  -0.1000000001E+01  -0.8108929734E-14  -0.8314738948E-14   0.1316461743E-15  -0.2187631439E-15   0.5594600527E-15   0.2148206433E-01  -0.1074303217E-01  -0.1074303217E-01   0.2125851332E-16  -0.3243363549E-16   0.4479859560E-16   0.1000000001E+01
   0.0000000000E+00   0.0000000000E+00   0.9892569678E+00   0.0000000000E+00   0.0000000000E+00  -0.1122750000E-02   0.0000000000E+00   0.0000000000E+00  -0.9620282151E-02  -0.1000000001E+01  -0.1039131263E-12  -0.1051823739E-12  -0.3198198063E-16  -0.2088153690E-15   0.1498894297E-15   0.2148206433E-01  -0.1074303217E-01  -0.1074303217E-01  -0.2489910211E-18  -0.2466579211E-16  -0.6100653695E-16   0.1000000001E+01
   0.1021482064E+01   0.0000000000E+00   0.9892569678E+00   0.2250000000E-02   0.0000000000E+00  -0.1122750000E-02   0.1923206430E-01   0.0000000000E+00  -0.9620282151E-02  -0.1000000001E+01   0.3581260508E-13   0.3672727549E-13  -0.1109317841E-14   0.9871278990E-15   0.1001551427E-15   0.2148206433E-01  -0.1074303217E-01  -0.1074303217E-01   0.2217441569E-16  -0.7336121232E-16   0.1262954168E-16   0.1000000001E+01
   0.1021482064E+01   0.9892569678E+00   0.9892569678E+00   0.2250000000E-02  -0.1122750000E-02  -0.1122750000E-02   0.1923206430E-01  -0.9620282151E-02  -0.9620282151E-02  -0.1000000001E+01  -0.3767034738E-14  -0.3773937785E-14  -0.1386291238E-14  -0.6847802447E-15  -0.4677480933E-15   0.2148206433E-01  -0.1074303216E-01  -0.1074303216E-01   0.3292089720E-16   0.1344241106E-15   0.1893713086E-16   0.1000000001E+01
   0.0000000000E+00   0.9892569678E+00   0.9892569678E+00   0.0000000000E+00  -0.1122750000E-02  -0.1122750000E-02   0.0000000000E+00  -0.9620282151E-02  -0.9620282151E-02  -0.1000000001E+01   0.5257841422E-13   0.5408268561E-13  -0.2541486537E-15  -0.3895698366E-16  -0.1057721331E-14   0.2148206433E-01  -0.1074303217E-01  -0.1074303217E-01  -0.6547181353E-16   0.5842408775E-16   0.8744727890E-18   0.1000000001E+01
   0.2042964129E+01   0.0000000000E+00   0.2052335669E-16   0.4500000000E-02   0.0000000000E+00   0.1615695566E-17   0.3846412860E-01   0.0000000000E+00   0.1890766113E-16  -0.1000000002E+01   0.1693398237E-13   0.1873330804E-13   0.1346953018E-14   0.2123758770E-14   0.8128150875E-15   0.2148206433E-01  -0.1074303217E-01  -0.1074303217E-01  -0.8144573989E-16  -0.5857521352E-16  -0.2670889447E-16   0.1000000002E+01
   0.2042964129E+01   0.9892569678E+00   0.7370055829E-17   0.4500000000E-02  -0.1122750000E-02   0.4955794381E-18   0.3846412860E-01  -0.9620282151E-02   0.6874476391E-17  -0.1000000001E+01   0.9752154474E-13   0.9772988086E-13   0.8873217986E-15  -0.2052516130E-14   0.8577470476E-15   0.2148206433E-01  -0.1074303217E-01  -0.1074303217E-01  -0.1178220865E-15   0.2730501317E-15   0.7229080247E-16   0.1000000001E+01
   0.2042964129E+01   0.0000000000E+00   0.9892569678E+00   0.4500000000E-02   0.0000000000E+00  -0.1122750000E-02   0.3846412860E-01   0.0000000000E+00  -0.9620282151E-02  -0.1000000001E+01   0.3432575042E-13   0.3424892451E-13  -0.1219128584E-15   0.5846108431E-15   0.6066926063E-15   0.2148206433E-01  -0.1074303217E-01  -0.1074303217E-01   0.2149258006E-15  -0.1105191518E-15  -0.1043317624E-17   0.1000000001E+01
   0.2042964129E+01   0.9892569678E+00   0.9892569678E+00   0.4500000000E-02  -0.1122750000E-02  -0.1122750000E-02   0.3846412860E-01  -0.9620282151E-02  -0.9620282151E-02  -0.1000000001E+01  -0.1087899220E-12  -0.1093471955E-12  -0.5286702735E-15  -0.7898702613E-15   0.5122955824E-15   0.2148206433E-01  -0.1074303216E-01  -0.1074303216E-01   0.3123804518E-15   0.1206267572E-15   0.9956913600E-16   0.1000000001E+01
     1     2     3     4     5     6     7     8
     2     9    10     3     6    11    12     7
 VARIABLES = X,Y,Z,DU1,DU2,DU3,U1,U2,U3,S11,S22,S33,S12,S13,S23,E11,E22,E33,E12,E13,E23,SMISES
 ZONE, T="0.6450D+01" F=FEPOINT, I=   12 J=    2 ET=BRICK
   0.0000000000E+00   0.0000000000E+00   0.0000000000E+00   0.0000000000E+00   0.0000000000E+00   0.0000000000E+00   0.0000000000E+00   0.0000000000E+00   0.0000000000E+00   0.1250000002E+00   0.1207287305E-12   0.1219702834E-12   0.8593607567E-16   0.3550937849E-16  -0.3739571949E-16   0.2373206434E-01  -0.1186578217E-01  -0.1186578217E-01  -0.3389689976E-18  -0.1671050805E-16  -0.1442747378E-16   0.1250000002E+00
   0.1023732064E+01   0.0000000000E+00  -0.9945840592E-18   0.2250000000E-02   0.0000000000E+00   0.2587216388E-18   0.2148206430E-01   0.0000000000E+00  -0.1253305698E-17   0.1250000002E+00   0.6270931598E-13   0.6004013448E-13   0.7519286674E-15   0.8331233565E-15  -0.1555205525E-15   0.2373206434E-01  -0.1186578217E-01  -0.1186578217E-01  -0.1329314470E-15  -0.1372355067E-16  -0.2700033248E-16   0.1250000002E+00
   0.1023732064E+01   0.9881342178E+00  -0.1479165902E-16   0.2250000000E-02  -0.1122750000E-02   0.4648187890E-18   0.2148206430E-01  -0.1074303215E-01  -0.1525647781E-16   0.1250000002E+00   0.1908389042E-13   0.1935323157E-13   0.9368548535E-15  -0.8725844194E-15  -0.6532277607E-15   0.2373206434E-01  -0.1186578217E-01  -0.1186578217E-01  -0.1363530488E-15   0.1232842053E-15  -0.2139942836E-16   0.1250000002E+00
   0.0000000000E+00   0.9881342178E+00  -0.5553070329E-17   0.0000000000E+00  -0.1122750000E-02  -0.3319618252E-18   0.0000000000E+00  -0.1074303215E-01  -0.5221108504E-17   0.1250000002E+00  -0.6573613785E-13  -0.6551977718E-13   0.3859801511E-15  -0.9073535970E-16   0.5546459724E-15   0.2373206434E-01  -0.1186578217E-01  -0.1186578217E-01   0.1925015148E-16  -0.3583986661E-16   0.4771691020E-16   0.1250000002E+00
   0.0000000000E+00   0.0000000000E+00   0.9881342178E+00   0.0000000000E+00   0.0000000000E+00  -0.1122750000E-02   0.0000000000E+00   0.0000000000E+00  -0.1074303215E-01   0.1250000002E+00   0.4924664467E-13   0.4798771140E-13  -0.6584756408E-16  -0.2586705788E-15   0.1553890297E-15   0.2373206434E-01  -0.1186578217E-01  -0.1186578217E-01  -0.1926210257E-17  -0.2692938162E-16  -0.5310694841E-16   0.1250000002E+00
   0.1023732064E+01   0.0000000000E+00   0.9881342178E+00   0.2250000000E-02   0.0000000000E+00  -0.1122750000E-02   0.2148206430E-01   0.0000000000E+00  -0.1074303215E-01   0.1250000002E+00  -0.4194001670E-15   0.5543297904E-15  -0.1200789417E-14   0.1101985412E-14   0.8187007644E-16   0.2373206434E-01  -0.1186578217E-01  -0.1186578217E-01   0.2150926852E-16  -0.6633301133E-16   0.1157994548E-16   0.1250000002E+00
   0.1023732064E+01   0.9881342178E+00   0.9881342178E+00   0.2250000000E-02  -0.1122750000E-02  -0.1122750000E-02   0.2148206430E-01  -0.1074303215E-01  -0.1074303215E-01   0.1250000002E+00  -0.3852458639E-13  -0.3876592053E-13  -0.1547706055E-14  -0.8087633566E-15  -0.6196372340E-15   0.2373206433E-01  -0.1186578217E-01  -0.1186578217E-01   0.2980614226E-16   0.9837638720E-16   0.2723246685E-16   0.1250000002E+00
   0.0000000000E+00   0.9881342178E+00   0.9881342178E+00   0.0000000000E+00  -0.1122750000E-02  -0.1122750000E-02   0.0000000000E+00  -0.1074303215E-01  -0.1074303215E-01   0.1250000002E+00  -0.2405560864E-14  -0.8048116418E-15  -0.2972950115E-15  -0.1348181737E-15  -0.8104647178E-15   0.2373206433E-01  -0.1186578217E-01  -0.1186578217E-01  -0.6168310913E-16   0.7567445833E-16  -0.1756396169E-16   0.1250000002E+00
   0.2047464129E+01   0.0000000000E+00   0.2102524414E-16   0.4500000000E-02   0.0000000000E+00   0.5018874522E-18   0.4296412860E-01   0.0000000000E+00   0.2052335669E-16   0.1250000002E+00  -0.5141641788E-13  -0.4895218681E-13   0.1437026370E-14   0.2111613283E-14   0.9817809230E-15   0.2373206434E-01  -0.1186578217E-01  -0.1186578217E-01  -0.8349676565E-16  -0.5777005447E-16  -0.2618713913E-16   0.1250000002E+00
   0.2047464129E+01   0.9881342178E+00   0.8859945805E-17   0.4500000000E-02  -0.1122750000E-02   0.1489889976E-17   0.4296412860E-01  -0.1074303215E-01   0.7370055829E-17   0.1250000002E+00   0.5082365672E-13   0.5084211794E-13   0.6831544211E-15  -0.2235631158E-14   0.1119528232E-14   0.2373206433E-01  -0.1186578217E-01  -0.1186578217E-01  -0.1249842217E-15   0.2747971528E-15   0.8397399125E-16   0.1250000002E+00
   0.2047464129E+01   0.0000000000E+00   0.9881342178E+00   0.4500000000E-02   0.0000000000E+00  -0.1122750000E-02   0.4296412860E-01   0.0000000000E+00  -0.1074303215E-01   0.1250000002E+00  -0.2874608088E-13  -0.2852889965E-13   0.2235184103E-15   0.4130557329E-15   0.2844221400E-15   0.2373206433E-01  -0.1186578217E-01  -0.1186578217E-01   0.2307818896E-15  -0.1053788806E-15  -0.2268418282E-17   0.1250000002E+00
   0.2047464129E+01   0.9881342178E+00   0.9881342178E+00   0.4500000000E-02  -0.1122750000E-02  -0.1122750000E-02   0.4296412860E-01  -0.1074303215E-01  -0.1074303215E-01   0.1250000002E+00  -0.1465531459E-13  -0.1577145636E-13  -0.4351228537E-16  -0.6408782311E-15   0.4368287932E-15   0.2373206433E-01  -0.1186578217E-01  -0.1186578217E-01   0.3113727528E-15   0.1372673847E-15   0.1091053900E-15   0.1250000002E+00
     1     2     3     4     5     6     7     8
     2     9    10     3     6    11    12     7
 VARIABLES = X,Y,Z,DU1,DU2,DU3,U1,U2,U3,S11,S22,S33,S12,S13,S23,E11,E22,E33,E12,E13,E23,SMISES
 ZONE, T="0.6500D+01" F=FEPOINT, I=   12 J=    2 ET=BRICK
   0.0000000000E+00   0.0000000000E+00   0.0000000000E+00   0.0000000000E+00   0.0000000000E+00   0.0000000000E+00   0.0000000000E+00   0.0000000000E+00   0.0000000000E+00   0.1250000002E+01  -0.6475273210E-13  -0.6398932053E-13   0.8433008596E-16   0.1450426403E-16  -0.2277174836E-16   0.2598206434E-01  -0.1298853217E-01  -0.1298853217E-01   0.5701277057E-18  -0.1835779454E-16  -0.7165187425E-17   0.1250000002E+01
   0.1025982064E+01   0.0000000000E+00  -0.1240248314E-17   0.2250000000E-02   0.0000000000E+00  -0.2456642548E-18   0.2373206430E-01   0.0000000000E+00  -0.9945840592E-18   0.1250000002E+01  -0.7211323735E-13  -0.7460373015E-13   0.1050554957E-14   0.9493591690E-15  -0.2784097026E-15   0.2598206434E-01  -0.1298853217E-01  -0.1298853217E-01  -0.1322580794E-15  -0.2328340314E-16  -0.3121542621E-16   0.1250000002E+01
   0.1025982064E+01   0.9870114678E+00  -0.1583568360E-16   0.2250000000E-02  -0.1122750000E-02  -0.1044024587E-17   0.2373206430E-01  -0.1186578215E-01  -0.1479165902E-16   0.1250000002E+01  -0.6459570419E-13  -0.6385327849E-13   0.1113788566E-14  -0.7648458415E-15  -0.6350047412E-15   0.2598206434E-01  -0.1298853217E-01  -0.1298853217E-01  -0.1382020861E-15   0.1279906572E-15  -0.2237369704E-16   0.1250000002E+01
   0.0000000000E+00   0.9870114678E+00  -0.5555879577E-17   0.0000000000E+00  -0.1122750000E-02  -0.2809248094E-20   0.0000000000E+00  -0.1186578215E-01  -0.5553070329E-17   0.1250000002E+01  -0.2270810643E-13  -0.2288765465E-13   0.1342357806E-15  -0.3075733890E-15   0.4550027611E-15   0.2598206434E-01  -0.1298853217E-01  -0.1298853217E-01   0.1972008383E-16  -0.3587929047E-16   0.3903397289E-16   0.1250000002E+01
   0.0000000000E+00   0.0000000000E+00   0.9870114678E+00   0.0000000000E+00   0.0000000000E+00  -0.1122750000E-02   0.0000000000E+00   0.0000000000E+00  -0.1186578215E-01   0.1250000002E+01  -0.3949853066E-15  -0.1762240331E-14  -0.4131495472E-16  -0.2598913112E-15   0.2739614285E-15   0.2598206434E-01  -0.1298853217E-01  -0.1298853217E-01   0.3901664037E-18  -0.3061145272E-16  -0.6052332008E-16   0.1250000002E+01
   0.1025982064E+01   0.0000000000E+00   0.9870114678E+00   0.2250000000E-02   0.0000000000E+00  -0.1122750000E-02   0.2373206430E-01   0.0000000000E+00  -0.1186578215E-01   0.1250000002E+01  -0.6659281949E-13  -0.6593711209E-13  -0.1042449180E-14   0.1393202007E-14   0.6080020774E-16   0.2598206434E-01  -0.1298853217E-01  -0.1298853217E-01   0.2354945712E-16  -0.6254543605E-16   0.8204932690E-17   0.1250000002E+01
   0.1025982064E+01   0.9870114678E+00   0.9870114678E+00   0.2250000000E-02  -0.1122750000E-02  -0.1122750000E-02   0.2373206430E-01  -0.1186578215E-01  -0.1186578215E-01   0.1250000002E+01   0.5463480961E-13   0.5460114735E-13  -0.1258688070E-14  -0.8219276881E-15  -0.3780835830E-15   0.2598206434E-01  -0.1298853217E-01  -0.1298853217E-01   0.3658031254E-16   0.1055049118E-15   0.3986447160E-16   0.1250000002E+01
   0.0000000000E+00   0.9870114678E+00   0.9870114678E+00   0.0000000000E+00  -0.1122750000E-02  -0.1122750000E-02   0.0000000000E+00  -0.1186578215E-01  -0.1186578215E-01   0.1250000002E+01   0.1226484023E-12   0.1240827866E-12  -0.2782098721E-15  -0.1591289862E-15  -0.8753293039E-15   0.2598206434E-01  -0.1298853217E-01  -0.1298853217E-01  -0.6275019638E-16   0.7045940154E-16  -0.5909835383E-17   0.1250000002E+01
   0.2051964129E+01   0.0000000000E+00   0.2026065181E-16   0.4500000000E-02   0.0000000000E+00  -0.7645923324E-18   0.4746412860E-01   0.0000000000E+00   0.2102524414E-16   0.1250000002E+01   0.1330632478E-12   0.1353092513E-12   0.1156137714E-14   0.1901775074E-14   0.8479632690E-15   0.2598206434E-01  -0.1298853217E-01  -0.1298853217E-01  -0.9226531868E-16  -0.7315432641E-16  -0.2576772915E-16   0.1250000002E+01
   0.2051964129E+01   0.9870114678E+00   0.7360308422E-17   0.4500000000E-02  -0.1122750000E-02  -0.1499637383E-17   0.4746412860E-01  -0.1186578215E-01   0.8859945805E-17   0.1250000002E+01   0.5735557609E-15   0.7184454697E-15   0.6227504828E-15  -0.2275141699E-14   0.1026208170E-14   0.2598206434E-01  -0.1298853217E-01  -0.1298853217E-01  -0.1339087146E-15   0.2825173604E-15   0.7494416346E-16   0.1250000002E+01
   0.2051964129E+01   0.0000000000E+00   0.9870114678E+00   0.4500000000E-02   0.0000000000E+00  -0.1122750000E-02   0.4746412860E-01   0.0000000000E+00  -0.1186578215E-01   0.1250000002E+01  -0.1146626470E-12  -0.1145026877E-12   0.3463429034E-15   0.3943538555E-15   0.4549006092E-15   0.2598206434E-01  -0.1298853217E-01  -0.1298853217E-01   0.2385230041E-15  -0.1311445545E-15   0.6921241282E-17   0.1250000002E+01
   0.2051964129E+01   0.9870114678E+00   0.9870114678E+00   0.4500000000E-02  -0.1122750000E-02  -0.1122750000E-02   0.4746412860E-01  -0.1186578215E-01  -0.1186578215E-01   0.1250000002E+01  -0.6496381107E-13  -0.6580259003E-13   0.1371997844E-16  -0.3551929489E-15   0.4197487338E-15   0.2598206433E-01  -0.1298853217E-01  -0.1298853217E-01   0.3045847166E-15   0.1603319674E-15   0.1051369956E-15   0.1250000002E+01
     1     2     3     4     5     6     7     8
     2     9    10     3     6    11    12     7
 VARIABLES = X,Y,Z,DU1,DU2,DU3,U1,U2,U3,S11,S22,S33,S12,S13,S23,E11,E22,E33,E12,E13,E23,SMISES
 ZONE, T="0.6550D+01" F=FEPOINT, I=   12 J=    2 ET=BRICK
   0.0000000000E+00   0.0000000000E+00   0.0000000000E+00   0.0000000000E+00   0.0000000000E+00   0.0000000000E+00   0.0000000000E+00   0.0000000000E+00   0.0000000000E+00   0.2375000004E+01   0.2982236265E-14   0.3788775758E-14   0.7873986927E-16  -0.1436226462E-15  -0.5065972525E-16   0.2823206435E-01  -0.1411128217E-01  -0.1411128217E-01   0.1163036815E-17  -0.1053891635E-16  -0.7386965159E-17   0.2375000004E+01
   0.1028232064E+01   0.0000000000E+00  -0.2020410214E-17   0.2250000000E-02   0.0000000000E+00  -0.7801619004E-18   0.2598206430E-01   0.0000000000E+00  -0.1240248314E-17   0.2375000004E+01   0.1022123770E-12   0.9938709158E-13   0.1066055533E-14   0.8326461762E-15  -0.4095080549E-16   0.2823206434E-01  -0.1411128217E-01  -0.1411128217E-01  -0.1381511598E-15  -0.4074083718E-16  -0.2541698118E-16   0.2375000004E+01
   0.1028232064E+01   0.9858887178E+00  -0.1531232186E-16   0.2250000000E-02  -0.1122750000E-02   0.5233617442E-18   0.2598206430E-01  -0.1298853215E-01  -0.1583568360E-16   0.2375000003E+01  -0.3400420818E-13  -0.3369272326E-13   0.1125282849E-14  -0.1053522519E-14  -0.7517858382E-15   0.2823206434E-01  -0.1411128217E-01  -0.1411128217E-01  -0.1473367623E-15   0.1311744192E-15  -0.2444660828E-16   0.2375000003E+01
   0.0000000000E+00   0.9858887178E+00  -0.5516132130E-17   0.0000000000E+00  -0.1122750000E-02   0.3974744727E-19   0.0000000000E+00  -0.1298853215E-01  -0.5555879577E-17   0.2375000003E+01   0.9693916784E-13   0.9683149950E-13   0.4453800214E-15  -0.1151436789E-15   0.4252584598E-15   0.2823206434E-01  -0.1411128217E-01  -0.1411128217E-01   0.2780734022E-16  -0.3382703052E-16   0.4340042992E-16   0.2375000003E+01
   0.0000000000E+00   0.0000000000E+00   0.9858887178E+00   0.0000000000E+00   0.0000000000E+00  -0.1122750000E-02   0.0000000000E+00   0.0000000000E+00  -0.1298853215E-01   0.2375000003E+01  -0.8033936464E-13  -0.8168407717E-13  -0.6371518989E-16  -0.9556521252E-16   0.2788836254E-15   0.2823206434E-01  -0.1411128217E-01  -0.1411128217E-01  -0.3348831380E-17  -0.2103067911E-16  -0.5873453624E-16   0.2375000003E+01
   0.1028232064E+01   0.0000000000E+00   0.9858887178E+00   0.2250000000E-02   0.0000000000E+00  -0.1122750000E-02   0.2598206430E-01   0.0000000000E+00  -0.1298853215E-01   0.2375000003E+01  -0.3236599027E-13  -0.3109992725E-13  -0.1068545639E-14   0.1058177570E-14   0.5234657475E-16   0.2823206434E-01  -0.1411128217E-01  -0.1411128217E-01   0.2702323373E-16  -0.7781485984E-16   0.1294221224E-16   0.2375000003E+01
   0.1028232064E+01   0.9858887178E+00   0.9858887178E+00   0.2250000000E-02  -0.1122750000E-02  -0.1122750000E-02   0.2598206430E-01  -0.1298853215E-01  -0.1298853215E-01   0.2375000003E+01  -0.9542927094E-15  -0.7845030840E-15  -0.1285886811E-14  -0.9579629782E-15  -0.7020480759E-15   0.2823206434E-01  -0.1411128217E-01  -0.1411128217E-01   0.3694906608E-16   0.1123213879E-15   0.1888003079E-16   0.2375000003E+01
   0.0000000000E+00   0.9858887178E+00   0.9858887178E+00   0.0000000000E+00  -0.1122750000E-02  -0.1122750000E-02   0.0000000000E+00  -0.1298853215E-01  -0.1298853215E-01   0.2375000003E+01   0.6765723662E-13   0.6924550415E-13  -0.2910958402E-15  -0.8888646939E-16  -0.9470343379E-15   0.2823206434E-01  -0.1411128217E-01  -0.1411128217E-01  -0.6451351919E-16   0.6424448008E-16   0.1249107047E-17   0.2375000003E+01
   0.2056464129E+01   0.0000000000E+00   0.1846123064E-16   0.4500000000E-02   0.0000000000E+00  -0.1799421174E-17   0.5196412860E-01   0.0000000000E+00   0.2026065181E-16   0.2375000004E+01   0.1780013496E-13   0.1992917366E-13   0.1280573763E-14   0.2019490322E-14   0.1059312039E-14   0.2823206434E-01  -0.1411128217E-01  -0.1411128217E-01  -0.1006819593E-15  -0.4404811976E-16  -0.2081858876E-16   0.2375000004E+01
   0.2056464129E+01   0.9858887178E+00   0.6903945944E-17   0.4500000000E-02  -0.1122750000E-02  -0.4563624783E-18   0.5196412860E-01  -0.1298853215E-01   0.7360308422E-17   0.2375000003E+01  -0.2378204638E-12  -0.2379689646E-12   0.5474442736E-15  -0.2255801545E-14   0.1150814461E-14   0.2823206434E-01  -0.1411128217E-01  -0.1411128217E-01  -0.1228303766E-15   0.2775078080E-15   0.7635055825E-16   0.2375000003E+01
   0.2056464129E+01   0.0000000000E+00   0.9858887178E+00   0.4500000000E-02   0.0000000000E+00  -0.1122750000E-02   0.5196412860E-01   0.0000000000E+00  -0.1298853215E-01   0.2375000003E+01  -0.3728148400E-13  -0.3694831929E-13   0.2214302903E-15   0.5621802629E-15   0.6439838294E-15   0.2823206434E-01  -0.1411128217E-01  -0.1411128217E-01   0.2357412174E-15  -0.1454608470E-15  -0.7919967571E-17   0.2375000003E+01
   0.2056464129E+01   0.9858887178E+00   0.9858887178E+00   0.4500000000E-02  -0.1122750000E-02  -0.1122750000E-02   0.5196412860E-01  -0.1298853215E-01  -0.1298853215E-01   0.2375000003E+01   0.2523568842E-13   0.2424647777E-13   0.8432887707E-16  -0.5378592674E-15   0.4041685319E-15   0.2823206434E-01  -0.1411128217E-01  -0.1411128217E-01   0.3027944879E-15   0.1283394496E-15   0.1143534820E-15   0.2375000003E+01
     1     2     3     4     5     6     7     8
     2     9    10     3     6    11    12     7
 VARIABLES = X,Y,Z,DU1,DU2,DU3,U1,U2,U3,S11,S22,S33,S12,S13,S23,E11,E22,E33,E12,E13,E23,SMISES
 ZONE, T="0.6600D+01" F=FEPOINT, I=   12 J=    2 ET=BRICK
   0.0000000000E+00   0.0000000000E+00   0.0000000000E+00   0.0000000000E+00   0.0000000000E+00   0.0000000000E+00   0.0000000000E+00   0.0000000000E+00   0.0000000000E+00   0.3500000005E+01   0.1355810017E-12   0.1369031098E-12   0.1107323298E-15   0.8493407871E-16  -0.1288863777E-15   0.3048206435E-01  -0.1523403217E-01  -0.1523403217E-01   0.1754769725E-17  -0.3411808684E-17  -0.1519587287E-16   0.3500000005E+01
   0.1030482064E+01   0.0000000000E+00  -0.5841921383E-18   0.2250000000E-02   0.0000000000E+00   0.1436218076E-17   0.2823206430E-01   0.0000000000E+00  -0.2020410214E-17   0.3500000005E+01  -0.1862675977E-13  -0.2128478237E-13   0.8608395691E-15   0.9542411711E-15  -0.3216019292E-15   0.3048206435E-01  -0.1523403217E-01  -0.1523403217E-01  -0.1386016586E-15  -0.4023393256E-16  -0.3315426377E-16   0.3500000005E+01
   0.1030482064E+01   0.9847659678E+00  -0.1556387472E-16   0.2250000000E-02  -0.1122750000E-02  -0.2515528634E-18   0.2823206430E-01  -0.1411128215E-01  -0.1531232186E-16   0.3500000005E+01   0.4991462698E-13   0.5094104911E-13   0.1008074106E-14  -0.8329029636E-15  -0.5340301157E-15   0.3048206434E-01  -0.1523403217E-01  -0.1523403217E-01  -0.1470307149E-15   0.1360802044E-15  -0.1974850224E-16   0.3500000005E+01
   0.0000000000E+00   0.9847659678E+00  -0.6068753680E-17   0.0000000000E+00  -0.1122750000E-02  -0.5526215502E-18   0.0000000000E+00  -0.1411128215E-01  -0.5516132130E-17   0.3500000005E+01  -0.8720273251E-13  -0.8711329192E-13   0.2687857713E-15  -0.2691568932E-15   0.4573938964E-15   0.3048206435E-01  -0.1523403217E-01  -0.1523403217E-01   0.2922028577E-16  -0.3927462819E-16   0.5640558820E-16   0.3500000005E+01
   0.0000000000E+00   0.0000000000E+00   0.9847659678E+00   0.0000000000E+00   0.0000000000E+00  -0.1122750000E-02   0.0000000000E+00   0.0000000000E+00  -0.1411128215E-01   0.3500000005E+01   0.1594841614E-13   0.1468487982E-13  -0.8927670735E-16  -0.5641390832E-16   0.1397800175E-15   0.3048206435E-01  -0.1523403217E-01  -0.1523403217E-01  -0.1510484795E-17  -0.2183617549E-16  -0.4994657641E-16   0.3500000005E+01
   0.1030482064E+01   0.0000000000E+00   0.9847659678E+00   0.2250000000E-02   0.0000000000E+00  -0.1122750000E-02   0.2823206430E-01   0.0000000000E+00  -0.1411128215E-01   0.3500000005E+01   0.1596842753E-13   0.1641796089E-13  -0.1252926619E-14   0.1123727502E-14  -0.2015008828E-15   0.3048206434E-01  -0.1523403217E-01  -0.1523403217E-01   0.2587466300E-16  -0.5917578066E-16   0.1715535733E-16   0.3500000005E+01
   0.1030482064E+01   0.9847659678E+00   0.9847659678E+00   0.2250000000E-02  -0.1122750000E-02  -0.1122750000E-02   0.2823206430E-01  -0.1411128215E-01  -0.1411128215E-01   0.3500000005E+01  -0.1831219165E-13  -0.1851683529E-13  -0.1522063972E-14  -0.8507032902E-15  -0.4507952251E-15   0.3048206434E-01  -0.1523403217E-01  -0.1523403217E-01   0.3448768434E-16   0.1025993183E-15   0.2849687404E-16   0.3500000005E+01
   0.0000000000E+00   0.9847659678E+00   0.9847659678E+00   0.0000000000E+00  -0.1122750000E-02  -0.1122750000E-02   0.0000000000E+00  -0.1411128215E-01  -0.1411128215E-01   0.3500000005E+01  -0.1807011008E-13  -0.1666633702E-13   0.7251618643E-17  -0.1877069310E-15  -0.8699180242E-15   0.3048206434E-01  -0.1523403217E-01  -0.1523403217E-01  -0.6423348057E-16   0.6466968315E-16  -0.1113753905E-16   0.3500000005E+01
   0.2060964129E+01   0.0000000000E+00   0.2176980046E-16   0.4500000000E-02   0.0000000000E+00   0.3308569823E-17   0.5646412860E-01   0.0000000000E+00   0.1846123064E-16   0.3500000005E+01  -0.5721222618E-13  -0.5490540068E-13   0.1879195799E-14   0.2215492026E-14   0.1085961681E-14   0.3048206435E-01  -0.1523403217E-01  -0.1523403217E-01  -0.7122046915E-16  -0.5344879638E-16  -0.1901015948E-16   0.3500000005E+01
   0.2060964129E+01   0.9847659678E+00   0.1031735063E-16   0.4500000000E-02  -0.1122750000E-02   0.3413404685E-17   0.5646412860E-01  -0.1411128215E-01   0.6903945944E-17   0.3500000005E+01   0.1975964608E-12   0.1978291986E-12   0.1465183420E-14  -0.2799677309E-14   0.1292996467E-14   0.3048206434E-01  -0.1523403217E-01  -0.1523403217E-01  -0.1025151667E-15   0.2921708012E-15   0.7904854806E-16   0.3500000005E+01
   0.2060964129E+01   0.0000000000E+00   0.9847659678E+00   0.4500000000E-02   0.0000000000E+00  -0.1122750000E-02   0.5646412860E-01   0.0000000000E+00  -0.1411128215E-01   0.3500000005E+01   0.9849535454E-13   0.9892729177E-13  -0.1322554740E-15   0.1233412744E-14   0.5114073865E-15   0.3048206434E-01  -0.1523403217E-01  -0.1523403217E-01   0.2145036691E-15  -0.1437520335E-15  -0.1132610237E-16   0.3500000005E+01
   0.2060964129E+01   0.9847659678E+00   0.9847659678E+00   0.4500000000E-02  -0.1122750000E-02  -0.1122750000E-02   0.5646412860E-01  -0.1411128215E-01  -0.1411128215E-01   0.3500000004E+01  -0.4184302986E-14  -0.5712122852E-14  -0.6450218321E-15  -0.9715355506E-15   0.4238906822E-15   0.3048206434E-01  -0.1523403217E-01  -0.1523403217E-01   0.3208616248E-15   0.1361231441E-15   0.1180021155E-15   0.3500000004E+01
     1     2     3     4     5     6     7     8
     2     9    10     3     6    11    12     7
 VARIABLES = X,Y,Z,DU1,DU2,DU3,U1,U2,U3,S11,S22,S33,S12,S13,S23,E11,E22,E33,E12,E13,E23,SMISES
 ZONE, T="0.6650D+01" F=FEPOINT, I=   12 J=    2 ET=BRICK
   0.0000000000E+00   0.0000000000E+00   0.0000000000E+00   0.0000000000E+00   0.0000000000E+00   0.0000000000E+00   0.0000000000E+00   0.0000000000E+00   0.0000000000E+00   0.4625000007E+01  -0.1117622974E-12  -0.1117746450E-12   0.8693712145E-16  -0.1783885559E-15   0.1275988238E-15   0.3273206435E-01  -0.1635678218E-01  -0.1635678218E-01  -0.2328678141E-17  -0.1197834475E-16  -0.9426876953E-17   0.4625000007E+01
   0.1032732064E+01   0.0000000000E+00  -0.2830214657E-17   0.2250000000E-02   0.0000000000E+00  -0.2246022519E-17   0.3048206430E-01   0.0000000000E+00  -0.5841921383E-18   0.4625000007E+01   0.3657788888E-13   0.3366661456E-13   0.1193410499E-14   0.1121547836E-14  -0.5436617835E-16   0.3273206435E-01  -0.1635678218E-01  -0.1635678218E-01  -0.1264556204E-15  -0.1750066325E-16  -0.2432669259E-16   0.4625000007E+01
   0.1032732064E+01   0.9836432178E+00  -0.1613699814E-16   0.2250000000E-02  -0.1122750000E-02  -0.5731234175E-18   0.3048206430E-01  -0.1523403215E-01  -0.1556387472E-16   0.4625000007E+01  -0.5553088975E-13  -0.5466157123E-13   0.1086352787E-14  -0.7116469570E-15  -0.6275887792E-15   0.3273206435E-01  -0.1635678217E-01  -0.1635678217E-01  -0.1442433915E-15   0.1262049183E-15  -0.2611203910E-16   0.4625000007E+01
   0.0000000000E+00   0.9836432178E+00  -0.4460525673E-17   0.0000000000E+00  -0.1122750000E-02   0.1608228007E-17   0.0000000000E+00  -0.1523403215E-01  -0.6068753680E-17   0.4625000007E+01  -0.6123322791E-14  -0.6750278251E-14   0.4668036038E-16  -0.5533305183E-15   0.3014496490E-16   0.3273206435E-01  -0.1635678217E-01  -0.1635678217E-01   0.2746967485E-16  -0.4072730918E-16   0.4180695471E-16   0.4625000007E+01
   0.0000000000E+00   0.0000000000E+00   0.9836432178E+00   0.0000000000E+00   0.0000000000E+00  -0.1122750000E-02   0.0000000000E+00   0.0000000000E+00  -0.1523403215E-01   0.4625000007E+01  -0.6525685767E-13  -0.6602205704E-13  -0.8721417408E-16  -0.7696284351E-16   0.5251084268E-15   0.3273206435E-01  -0.1635678217E-01  -0.1635678217E-01  -0.4761564300E-18  -0.1438459428E-16  -0.5597958409E-16   0.4625000007E+01
   0.1032732064E+01   0.0000000000E+00   0.9836432178E+00   0.2250000000E-02   0.0000000000E+00  -0.1122750000E-02   0.3048206430E-01   0.0000000000E+00  -0.1523403215E-01   0.4625000007E+01   0.6909431846E-13   0.7041861478E-13  -0.1059240067E-14   0.1297699587E-14   0.2347396397E-16   0.3273206435E-01  -0.1635678217E-01  -0.1635678217E-01   0.3154262682E-16  -0.7394997957E-16   0.9982985333E-17   0.4625000007E+01
   0.1032732064E+01   0.9836432178E+00   0.9836432178E+00   0.2250000000E-02  -0.1122750000E-02  -0.1122750000E-02   0.3048206430E-01  -0.1523403215E-01  -0.1523403215E-01   0.4625000006E+01   0.3600136102E-13   0.3597958382E-13  -0.1208019215E-14  -0.8831092902E-15  -0.6548228326E-15   0.3273206434E-01  -0.1635678217E-01  -0.1635678217E-01   0.4470780079E-16   0.1175009030E-15   0.2613544245E-16   0.4625000006E+01
   0.0000000000E+00   0.9836432178E+00   0.9836432178E+00   0.0000000000E+00  -0.1122750000E-02  -0.1122750000E-02   0.0000000000E+00  -0.1523403215E-01  -0.1523403215E-01   0.4625000006E+01  -0.1306518716E-13  -0.1115019574E-13   0.2023100930E-15  -0.3940494142E-15  -0.1309698632E-14   0.3273206435E-01  -0.1635678217E-01  -0.1635678217E-01  -0.6469734235E-16   0.5857868020E-16  -0.2433283592E-17   0.4625000006E+01
   0.2065464129E+01   0.0000000000E+00   0.1540150272E-16   0.4500000000E-02   0.0000000000E+00  -0.6368297745E-17   0.6096412860E-01   0.0000000000E+00   0.2176980046E-16   0.4625000007E+01   0.1766500565E-12   0.1789264043E-12   0.1655746722E-14   0.2085899526E-14   0.1190077253E-14   0.3273206435E-01  -0.1635678218E-01  -0.1635678218E-01  -0.6403255857E-16  -0.5414570165E-16  -0.2537651952E-16   0.4625000007E+01
   0.2065464129E+01   0.9836432178E+00   0.4507211029E-17   0.4500000000E-02  -0.1122750000E-02  -0.5810139600E-17   0.6096412860E-01  -0.1523403215E-01   0.1031735063E-16   0.4625000006E+01  -0.5779140228E-13  -0.5759259372E-13   0.1078997909E-14  -0.2658893124E-14   0.1166317080E-14   0.3273206435E-01  -0.1635678217E-01  -0.1635678217E-01  -0.1109657153E-15   0.2674083372E-15   0.9429623772E-16   0.4625000006E+01
   0.2065464129E+01   0.0000000000E+00   0.9836432178E+00   0.4500000000E-02   0.0000000000E+00  -0.1122750000E-02   0.6096412860E-01   0.0000000000E+00  -0.1523403215E-01   0.4625000006E+01  -0.2538263053E-14  -0.1957388681E-14   0.2199354192E-15   0.7826567332E-15   0.5256365649E-15   0.3273206435E-01  -0.1635678217E-01  -0.1635678217E-01   0.2155346742E-15  -0.6443070755E-16   0.4244026052E-17   0.4625000006E+01
   0.2065464129E+01   0.9836432178E+00   0.9836432178E+00   0.4500000000E-02  -0.1122750000E-02  -0.1122750000E-02   0.6096412860E-01  -0.1523403215E-01  -0.1523403215E-01   0.4625000006E+01  -0.2511856797E-13  -0.2631803588E-13  -0.2502187784E-15  -0.5206431998E-15   0.3766630673E-15   0.3273206434E-01  -0.1635678217E-01  -0.1635678217E-01   0.3240339996E-15   0.1374534939E-15   0.8987577988E-16   0.4625000006E+01
     1     2     3     4     5     6     7     8
     2     9    10     3     6    11    12     7
 VARIABLES = X,Y,Z,DU1,DU2,DU3,U1,U2,U3,S11,S22,S33,S12,S13,S23,E11,E22,E33,E12,E13,E23,SMISES
 ZONE, T="0.6700D+01" F=FEPOINT, I=   12 J=    2 ET=BRICK
   0.0000000000E+00   0.0000000000E+00   0.0000000000E+00   0.0000000000E+00   0.0000000000E+00   0.0000000000E+00   0.0000000000E+00   0.0000000000E+00   0.0000000000E+00   0.5750000009E+01   0.9142970228E-13   0.9195015486E-13   0.7901482650E-16   0.8437009978E-17  -0.1377590108E-16   0.3498206436E-01  -0.1747953218E-01  -0.1747953218E-01   0.3597440397E-17  -0.1327604425E-16  -0.5606744192E-17   0.5750000009E+01
   0.1034982064E+01   0.0000000000E+00  -0.1497281961E-17   0.2250000000E-02   0.0000000000E+00   0.1332932696E-17   0.3273206430E-01   0.0000000000E+00  -0.2830214657E-17   0.5750000009E+01  -0.3180090268E-13  -0.3498973274E-13   0.9513200472E-15   0.8216806733E-15  -0.2124780175E-15   0.3498206436E-01  -0.1747953218E-01  -0.1747953218E-01  -0.1398436232E-15  -0.2140414172E-16  -0.3295669783E-16   0.5750000009E+01
   0.1034982064E+01   0.9825204678E+00  -0.1563676264E-16   0.2250000000E-02  -0.1122750000E-02   0.5002355043E-18   0.3273206430E-01  -0.1635678215E-01  -0.1613699814E-16   0.5750000008E+01   0.8416727351E-13   0.8502171787E-13   0.9367180280E-15  -0.6303025452E-15  -0.6777099445E-15   0.3498206435E-01  -0.1747953218E-01  -0.1747953218E-01  -0.1419343193E-15   0.1134198774E-15  -0.1514119284E-16   0.5750000008E+01
   0.0000000000E+00   0.9825204678E+00  -0.5480547485E-17   0.0000000000E+00  -0.1122750000E-02  -0.1020021812E-17   0.0000000000E+00  -0.1635678215E-01  -0.4460525673E-17   0.5750000008E+01  -0.8673196178E-13  -0.8688016938E-13   0.3005380034E-15  -0.3084468833E-15   0.1924757806E-15   0.3498206435E-01  -0.1747953218E-01  -0.1747953218E-01   0.3298879622E-16  -0.3164935529E-16   0.3171415040E-16   0.5750000008E+01
   0.0000000000E+00   0.0000000000E+00   0.9825204678E+00   0.0000000000E+00   0.0000000000E+00  -0.1122750000E-02   0.0000000000E+00   0.0000000000E+00  -0.1635678215E-01   0.5750000008E+01  -0.4299494122E-13  -0.4401538509E-13  -0.1116791760E-15  -0.1707490309E-15   0.4274529986E-15   0.3498206435E-01  -0.1747953218E-01  -0.1747953218E-01  -0.7248852082E-17  -0.2195190179E-16  -0.4791589754E-16   0.5750000008E+01
   0.1034982064E+01   0.0000000000E+00   0.9825204678E+00   0.2250000000E-02   0.0000000000E+00  -0.1122750000E-02   0.3273206430E-01   0.0000000000E+00  -0.1635678215E-01   0.5750000008E+01  -0.4016357978E-13  -0.3969372792E-13  -0.9261209952E-15   0.1063181722E-14   0.1589786905E-15   0.3498206435E-01  -0.1747953218E-01  -0.1747953218E-01   0.3201229341E-16  -0.7205700789E-16   0.1839937211E-16   0.5750000008E+01
   0.1034982064E+01   0.9825204678E+00   0.9825204678E+00   0.2250000000E-02  -0.1122750000E-02  -0.1122750000E-02   0.3273206430E-01  -0.1635678215E-01  -0.1635678215E-01   0.5750000008E+01   0.2554182229E-13   0.2583823776E-13  -0.1212943171E-14  -0.8181618676E-15  -0.5556712286E-15   0.3498206435E-01  -0.1747953217E-01  -0.1747953217E-01   0.2590880715E-16   0.9186633208E-16   0.1789503342E-16   0.5750000008E+01
   0.0000000000E+00   0.9825204678E+00   0.9825204678E+00   0.0000000000E+00  -0.1122750000E-02  -0.1122750000E-02   0.0000000000E+00  -0.1635678215E-01  -0.1635678215E-01   0.5750000008E+01   0.1053524566E-12   0.1067143293E-12  -0.3337314171E-16  -0.1540046256E-15  -0.9482664520E-15   0.3498206435E-01  -0.1747953217E-01  -0.1747953217E-01  -0.5909190532E-16   0.7343230839E-16   0.5062947675E-17   0.5750000008E+01
   0.2069964129E+01   0.0000000000E+00   0.1916323415E-16   0.4500000000E-02   0.0000000000E+00   0.3761731436E-17   0.6546412860E-01   0.0000000000E+00   0.1540150272E-16   0.5750000009E+01   0.1580444700E-13   0.1779978747E-13   0.1607940647E-14   0.2110531506E-14   0.9884694362E-15   0.3498206435E-01  -0.1747953218E-01  -0.1747953218E-01  -0.4775227017E-16  -0.6437758806E-16  -0.2375096346E-16   0.5750000009E+01
   0.2069964129E+01   0.9825204678E+00   0.6916289643E-17   0.4500000000E-02  -0.1122750000E-02   0.2409078614E-17   0.6546412860E-01  -0.1635678215E-01   0.4507211029E-17   0.5750000008E+01   0.2094696486E-12   0.2097883753E-12   0.1060145338E-14  -0.2503692232E-14   0.9793347757E-15   0.3498206435E-01  -0.1747953218E-01  -0.1747953218E-01  -0.8997094417E-16   0.2590530179E-15   0.8981616641E-16   0.5750000008E+01
   0.2069964129E+01   0.0000000000E+00   0.9825204678E+00   0.4500000000E-02   0.0000000000E+00  -0.1122750000E-02   0.6546412860E-01   0.0000000000E+00  -0.1635678215E-01   0.5750000008E+01   0.9825929222E-13   0.9868107019E-13   0.2035000851E-15   0.9844380149E-15   0.4410176945E-15   0.3498206435E-01  -0.1747953218E-01  -0.1747953218E-01   0.2079001121E-15  -0.1328196969E-15   0.4261594115E-17   0.5750000008E+01
   0.2069964129E+01   0.9825204678E+00   0.9825204678E+00   0.4500000000E-02  -0.1122750000E-02  -0.1122750000E-02   0.6546412860E-01  -0.1635678215E-01  -0.1635678215E-01   0.5750000007E+01  -0.9126657673E-13  -0.9246803739E-13  -0.8468367507E-16  -0.6746288825E-15   0.4263838697E-15   0.3498206435E-01  -0.1747953217E-01  -0.1747953217E-01   0.3063535668E-15   0.1402631822E-15   0.1082766215E-15   0.5750000007E+01
     1     2     3     4     5     6     7     8
     2     9    10     3     6    11    12     7
 VARIABLES = X,Y,Z,DU1,DU2,DU3,U1,U2,U3,S11,S22,S33,S12,S13,S23,E11,E22,E33,E12,E13,E23,SMISES
 ZONE, T="0.6750D+01" F=FEPOINT, I=   12 J=    2 ET=BRICK
   0.0000000000E+00   0.0000000000E+00   0.0000000000E+00   0.0000000000E+00   0.0000000000E+00   0.0000000000E+00   0.0000000000E+00   0.0000000000E+00   0.0000000000E+00   0.6875000011E+01   0.6875971589E-13   0.6845493842E-13   0.6878260489E-16  -0.1301706602E-15  -0.3633020710E-16   0.3723206436E-01  -0.1860228218E-01  -0.1860228218E-01   0.4112222916E-18  -0.1292226384E-16  -0.1228931760E-16   0.6875000011E+01
   0.1037232064E+01   0.0000000000E+00  -0.1968406206E-17   0.2250000000E-02   0.0000000000E+00  -0.4711242451E-18   0.3498206430E-01   0.0000000000E+00  -0.1497281961E-17   0.6875000011E+01   0.3007536648E-13   0.2732664002E-13   0.1112914925E-14   0.9875107126E-15  -0.4918810480E-16   0.3723206436E-01  -0.1860228218E-01  -0.1860228218E-01  -0.1259969761E-15  -0.3043274643E-16  -0.2998669021E-16   0.6875000011E+01
   0.1037232064E+01   0.9813977178E+00  -0.1527779053E-16   0.2250000000E-02  -0.1122750000E-02   0.3589721081E-18   0.3498206430E-01  -0.1747953215E-01  -0.1563676264E-16   0.6875000010E+01  -0.8490173213E-13  -0.8444675440E-13   0.8532238113E-15  -0.8663631038E-15  -0.4242839068E-15   0.3723206435E-01  -0.1860228218E-01  -0.1860228218E-01  -0.1299122585E-15   0.1005638950E-15  -0.1783499418E-16   0.6875000010E+01
   0.0000000000E+00   0.9813977178E+00  -0.5689687614E-17   0.0000000000E+00  -0.1122750000E-02  -0.2091401289E-18   0.0000000000E+00  -0.1747953215E-01  -0.5480547485E-17   0.6875000010E+01   0.7999572662E-16   0.2370993615E-15   0.1886504912E-15  -0.1394535915E-15   0.3685169093E-16   0.3723206436E-01  -0.1860228218E-01  -0.1860228218E-01   0.2845072006E-16  -0.3141115028E-16   0.5730831941E-16   0.6875000010E+01
   0.0000000000E+00   0.0000000000E+00   0.9813977178E+00   0.0000000000E+00   0.0000000000E+00  -0.1122750000E-02   0.0000000000E+00   0.0000000000E+00  -0.1747953215E-01   0.6875000010E+01  -0.6337885061E-13  -0.6358747980E-13  -0.1038207685E-15  -0.7433033057E-16   0.4748511842E-15   0.3723206436E-01  -0.1860228218E-01  -0.1860228218E-01   0.3747768213E-17  -0.2809435865E-16  -0.5880438384E-16   0.6875000010E+01
   0.1037232064E+01   0.0000000000E+00   0.9813977178E+00   0.2250000000E-02   0.0000000000E+00  -0.1122750000E-02   0.3498206430E-01   0.0000000000E+00  -0.1747953215E-01   0.6875000010E+01   0.3068825922E-13   0.3089941505E-13  -0.1019534092E-14   0.1113562690E-14  -0.3406365199E-16   0.3723206435E-01  -0.1860228218E-01  -0.1860228218E-01   0.9478212992E-17  -0.7577936675E-16   0.2222131338E-16   0.6875000010E+01
   0.1037232064E+01   0.9813977178E+00   0.9813977178E+00   0.2250000000E-02  -0.1122750000E-02  -0.1122750000E-02   0.3498206430E-01  -0.1747953215E-01  -0.1747953215E-01   0.6875000009E+01  -0.2654870647E-13  -0.2652984677E-13  -0.1157781790E-14  -0.9463581683E-15  -0.5975752737E-15   0.3723206435E-01  -0.1860228218E-01  -0.1860228218E-01   0.2794007188E-16   0.1119118164E-15   0.1684759110E-16   0.6875000009E+01
   0.0000000000E+00   0.9813977178E+00   0.9813977178E+00   0.0000000000E+00  -0.1122750000E-02  -0.1122750000E-02   0.0000000000E+00  -0.1747953215E-01  -0.1747953215E-01   0.6875000009E+01  -0.2084456212E-13  -0.1973793382E-13  -0.3064769811E-16  -0.2975987561E-15  -0.9638782129E-15   0.3723206435E-01  -0.1860228218E-01  -0.1860228218E-01  -0.5955441021E-16   0.5447111390E-16  -0.1747761346E-16   0.6875000009E+01
   0.2074464129E+01   0.0000000000E+00   0.1996391280E-16   0.4500000000E-02   0.0000000000E+00   0.8006786463E-18   0.6996412860E-01   0.0000000000E+00   0.1916323415E-16   0.6875000010E+01  -0.1595471965E-12  -0.1572817373E-12   0.1242842221E-14   0.1891902902E-14   0.7783572260E-15   0.3723206436E-01  -0.1860228218E-01  -0.1860228218E-01  -0.6176754275E-16  -0.8946382283E-16  -0.2148801548E-16   0.6875000010E+01
   0.2074464129E+01   0.9813977178E+00   0.6460830710E-17   0.4500000000E-02  -0.1122750000E-02  -0.4554589332E-18   0.6996412860E-01  -0.1747953215E-01   0.6916289643E-17   0.6875000010E+01  -0.4946611815E-13  -0.4804713234E-13   0.4163704717E-15  -0.2233282056E-14   0.1154891762E-14   0.3723206435E-01  -0.1860228218E-01  -0.1860228218E-01  -0.1180834624E-15   0.3003948369E-15   0.7665365913E-16   0.6875000010E+01
   0.2074464129E+01   0.0000000000E+00   0.9813977178E+00   0.4500000000E-02   0.0000000000E+00  -0.1122750000E-02   0.6996412860E-01   0.0000000000E+00  -0.1747953215E-01   0.6875000010E+01  -0.6258106588E-13  -0.6261625850E-13   0.6129501529E-15   0.7210720312E-15   0.3162253207E-15   0.3723206435E-01  -0.1860228218E-01  -0.1860228218E-01   0.2231306624E-15  -0.1723770349E-15  -0.6436104068E-17   0.6875000010E+01
   0.2074464129E+01   0.9813977178E+00   0.9813977178E+00   0.4500000000E-02  -0.1122750000E-02  -0.1122750000E-02   0.6996412860E-01  -0.1747953215E-01  -0.1747953215E-01   0.6875000009E+01   0.9791736375E-13   0.9631298489E-13   0.4256612821E-15  -0.4530346700E-15   0.7392682813E-15   0.3723206435E-01  -0.1860228217E-01  -0.1860228217E-01   0.3234736280E-15   0.9298838292E-16   0.1253472437E-15   0.6875000009E+01
     1     2     3     4     5     6     7     8
     2     9    10     3     6    11    12     7
 VARIABLES = X,Y,Z,DU1,DU2,DU3,U1,U2,U3,S11,S22,S33,S12,S13,S23,E11,E22,E33,E12,E13,E23,SMISES
 ZONE, T="0.6800D+01" F=FEPOINT, I=   12 J=    2 ET=BRICK
   0.0000000000E+00   0.0000000000E+00   0.0000000000E+00   0.0000000000E+00   0.0000000000E+00   0.0000000000E+00   0.0000000000E+00   0.0000000000E+00   0.0000000000E+00   0.8000000013E+01  -0.4314084020E-13  -0.4362848405E-13   0.6002574179E-16  -0.2106523721E-15   0.1776707853E-15   0.3948206436E-01  -0.1972503218E-01  -0.1972503218E-01  -0.2113676817E-17  -0.1602359604E-16  -0.4535255459E-18   0.8000000013E+01
   0.1039482064E+01   0.0000000000E+00  -0.3355965168E-17   0.2250000000E-02   0.0000000000E+00  -0.1387558962E-17   0.3723206430E-01   0.0000000000E+00  -0.1968406206E-17   0.8000000012E+01   0.3085252574E-13   0.2784111774E-13   0.1344424087E-14   0.1057456844E-14   0.9261498859E-16   0.3948206436E-01  -0.1972503218E-01  -0.1972503218E-01  -0.1123403819E-15  -0.1710310596E-16  -0.2296907954E-16   0.8000000012E+01
   0.1039482064E+01   0.9802749678E+00  -0.1586589127E-16   0.2250000000E-02  -0.1122750000E-02  -0.5881007401E-18   0.3723206430E-01  -0.1860228215E-01  -0.1527779053E-16   0.8000000011E+01  -0.4974694773E-13  -0.4946540655E-13   0.1002025939E-14  -0.9262181143E-15  -0.8060469760E-15   0.3948206436E-01  -0.1972503218E-01  -0.1972503218E-01  -0.1406911097E-15   0.8263487108E-16  -0.2457241108E-16   0.8000000011E+01
   0.0000000000E+00   0.9802749678E+00  -0.4265123799E-17   0.0000000000E+00  -0.1122750000E-02   0.1424563815E-17   0.0000000000E+00  -0.1860228215E-01  -0.5689687614E-17   0.8000000012E+01  -0.5896369018E-14  -0.5633687443E-14   0.1436984424E-15  -0.3582970609E-15  -0.8858958322E-16   0.3948206436E-01  -0.1972503218E-01  -0.1972503218E-01   0.4271677453E-16  -0.2324822483E-16   0.4211738051E-16   0.8000000012E+01
   0.0000000000E+00   0.0000000000E+00   0.9802749678E+00   0.0000000000E+00   0.0000000000E+00  -0.1122750000E-02   0.0000000000E+00   0.0000000000E+00  -0.1860228215E-01   0.8000000012E+01  -0.5461192941E-13  -0.5380502504E-13  -0.1088777381E-15  -0.3406637921E-15   0.6754010824E-15   0.3948206436E-01  -0.1972503218E-01  -0.1972503218E-01   0.5345237355E-17  -0.2956843465E-16  -0.6435990651E-16   0.8000000012E+01
   0.1039482064E+01   0.0000000000E+00   0.9802749678E+00   0.2250000000E-02   0.0000000000E+00  -0.1122750000E-02   0.3723206430E-01   0.0000000000E+00  -0.1860228215E-01   0.8000000011E+01  -0.6543041722E-13  -0.6490505413E-13  -0.9531822614E-15   0.1276418438E-14   0.3075145716E-15   0.3948206436E-01  -0.1972503218E-01  -0.1972503218E-01  -0.1283123849E-17  -0.6304370047E-16   0.1820347590E-16   0.8000000011E+01
   0.1039482064E+01   0.9802749678E+00   0.9802749678E+00   0.2250000000E-02  -0.1122750000E-02  -0.1122750000E-02   0.3723206430E-01  -0.1860228215E-01  -0.1860228215E-01   0.8000000010E+01   0.7242695784E-13   0.7375922534E-13  -0.1157007802E-14  -0.1015295566E-14  -0.8038477399E-15   0.3948206435E-01  -0.1972503218E-01  -0.1972503218E-01   0.4058421680E-16   0.1024450494E-15   0.1959358937E-16   0.8000000010E+01
   0.0000000000E+00   0.9802749678E+00   0.9802749678E+00   0.0000000000E+00  -0.1122750000E-02  -0.1122750000E-02   0.0000000000E+00  -0.1860228215E-01  -0.1860228215E-01   0.8000000011E+01   0.1506428530E-13   0.1544382446E-13  -0.2419113000E-15  -0.3034995471E-15  -0.1174194139E-14   0.3948206435E-01  -0.1972503218E-01  -0.1972503218E-01  -0.6521763183E-16   0.6028861117E-16   0.1094846115E-16   0.8000000011E+01
   0.2078964129E+01   0.0000000000E+00   0.1313249656E-16   0.4500000000E-02   0.0000000000E+00  -0.6831416241E-17   0.7446412860E-01   0.0000000000E+00   0.1996391280E-16   0.8000000012E+01   0.2464528154E-12   0.2496049940E-12   0.1125141914E-14   0.1707366791E-14   0.1170165612E-14   0.3948206436E-01  -0.1972503218E-01  -0.1972503218E-01  -0.5047343716E-16  -0.1221910312E-15  -0.1904025971E-16   0.8000000012E+01
   0.2078964129E+01   0.9802749678E+00   0.2041912416E-17   0.4500000000E-02  -0.1122750000E-02  -0.4418918294E-17   0.7446412860E-01  -0.1860228215E-01   0.6460830710E-17   0.8000000011E+01  -0.1718847496E-12  -0.1718658899E-12   0.3037510492E-15  -0.1820854545E-14   0.9576826923E-15   0.3948206436E-01  -0.1972503218E-01  -0.1972503218E-01  -0.1291074785E-15   0.3340995958E-15   0.8530016611E-16   0.8000000011E+01
   0.2078964129E+01   0.0000000000E+00   0.9802749678E+00   0.4500000000E-02   0.0000000000E+00  -0.1122750000E-02   0.7446412860E-01   0.0000000000E+00  -0.1860228215E-01   0.8000000011E+01   0.2665224252E-13   0.2794679073E-13   0.7560720704E-15   0.1098092694E-14   0.4260269368E-15   0.3948206436E-01  -0.1972503218E-01  -0.1972503218E-01   0.2179797878E-15  -0.1846370810E-15  -0.3034414934E-17   0.8000000011E+01
   0.2078964129E+01   0.9802749678E+00   0.9802749678E+00   0.4500000000E-02  -0.1122750000E-02  -0.1122750000E-02   0.7446412860E-01  -0.1860228215E-01  -0.1860228215E-01   0.8000000010E+01   0.6356283467E-13   0.6254477446E-13   0.6078822229E-15  -0.3225943495E-15   0.2240804212E-15   0.3948206435E-01  -0.1972503218E-01  -0.1972503218E-01   0.3279935879E-15   0.1046694112E-15   0.1314555920E-15   0.8000000010E+01
     1     2     3     4     5     6     7     8
     2     9    10     3     6    11    12     7
 VARIABLES = X,Y,Z,DU1,DU2,DU3,U1,U2,U3,S11,S22,S33,S12,S13,S23,E11,E22,E33,E12,E13,E23,SMISES
 ZONE, T="0.6850D+01" F=FEPOINT, I=   12 J=    2 ET=BRICK
   0.0000000000E+00   0.0000000000E+00   0.0000000000E+00   0.0000000000E+00   0.0000000000E+00   0.0000000000E+00   0.0000000000E+00   0.0000000000E+00   0.0000000000E+00   0.9125000014E+01   0.1007773527E-13   0.8942817333E-14   0.4126310384E-16  -0.2530552130E-15   0.2568566896E-15   0.4173206437E-01  -0.2084778218E-01  -0.2084778218E-01   0.3326068089E-18  -0.2233138187E-16  -0.1476823823E-17   0.9125000014E+01
   0.1041732064E+01   0.0000000000E+00  -0.4062097333E-17   0.2250000000E-02   0.0000000000E+00  -0.7061321645E-18   0.3948206430E-01   0.0000000000E+00  -0.3355965168E-17   0.9125000014E+01  -0.1896053587E-13  -0.2249730703E-13   0.1376455538E-14   0.1188378214E-14   0.1383019051E-15   0.4173206437E-01  -0.2084778218E-01  -0.2084778218E-01  -0.1209648646E-15  -0.1189794746E-16  -0.2543891133E-16   0.9125000014E+01
   0.1041732064E+01   0.9791522178E+00  -0.1627701688E-16   0.2250000000E-02  -0.1122750000E-02  -0.4111256125E-18   0.3948206430E-01  -0.1972503215E-01  -0.1586589127E-16   0.9125000013E+01   0.2395924711E-13   0.2371542514E-13   0.9880422071E-15  -0.1009831380E-14  -0.9205255928E-15   0.4173206436E-01  -0.2084778218E-01  -0.2084778218E-01  -0.1274873067E-15   0.1075041218E-15  -0.1987540636E-16   0.9125000013E+01
   0.0000000000E+00   0.9791522178E+00  -0.3830890103E-17   0.0000000000E+00  -0.1122750000E-02   0.4342336963E-18   0.0000000000E+00  -0.1972503215E-01  -0.4265123799E-17   0.9125000013E+01   0.1985908200E-13   0.1947448949E-13   0.1159897266E-15  -0.4437416281E-15  -0.3351111004E-15   0.4173206436E-01  -0.2084778218E-01  -0.2084778218E-01   0.2782889430E-16  -0.3122463685E-16   0.4196220133E-16   0.9125000013E+01
   0.0000000000E+00   0.0000000000E+00   0.9791522178E+00   0.0000000000E+00   0.0000000000E+00  -0.1122750000E-02   0.0000000000E+00   0.0000000000E+00  -0.1972503215E-01   0.9125000013E+01   0.3273787760E-13   0.3385898914E-13  -0.8873106411E-16  -0.2478523277E-15   0.8364831752E-15   0.4173206436E-01  -0.2084778218E-01  -0.2084778218E-01  -0.2269629500E-17  -0.3515614007E-16  -0.6657810693E-16   0.9125000013E+01
   0.1041732064E+01   0.0000000000E+00   0.9791522178E+00   0.2250000000E-02   0.0000000000E+00  -0.1122750000E-02   0.3948206430E-01   0.0000000000E+00  -0.1972503215E-01   0.9125000013E+01   0.1506850061E-13   0.1545309305E-13  -0.1131041006E-14   0.1384171561E-14   0.2269655023E-15   0.4173206436E-01  -0.2084778218E-01  -0.2084778218E-01   0.9157528209E-17  -0.4927536675E-16   0.2997506959E-16   0.9125000013E+01
   0.1041732064E+01   0.9791522178E+00   0.9791522178E+00   0.2250000000E-02  -0.1122750000E-02  -0.1122750000E-02   0.3948206430E-01  -0.1972503215E-01  -0.1972503215E-01   0.9125000012E+01   0.3264976841E-14   0.4456473688E-14  -0.1074066325E-14  -0.9260645697E-15  -0.9803611871E-15   0.4173206436E-01  -0.2084778218E-01  -0.2084778218E-01   0.3098026357E-16   0.9472145127E-16   0.1042616841E-16   0.9125000012E+01
   0.0000000000E+00   0.9791522178E+00   0.9791522178E+00   0.0000000000E+00  -0.1122750000E-02  -0.1122750000E-02   0.0000000000E+00  -0.1972503215E-01  -0.1972503215E-01   0.9125000012E+01   0.4924823713E-13   0.4994198347E-13  -0.1280115696E-15  -0.5548085406E-15  -0.1377213987E-14   0.4173206436E-01  -0.2084778218E-01  -0.2084778218E-01  -0.6292487032E-16   0.6390982102E-16   0.2640350494E-16   0.9125000012E+01
   0.2083464129E+01   0.0000000000E+00   0.1059514467E-16   0.4500000000E-02   0.0000000000E+00  -0.2537351883E-17   0.7896412860E-01   0.0000000000E+00   0.1313249656E-16   0.9125000014E+01  -0.9854213348E-13  -0.9579340704E-13   0.1634642875E-14   0.2404739165E-14   0.1177337739E-14   0.4173206436E-01  -0.2084778218E-01  -0.2084778218E-01  -0.4128019782E-16  -0.9896888235E-16  -0.2234425018E-16   0.9125000014E+01
   0.2083464129E+01   0.9791522178E+00  -0.5668338404E-18   0.4500000000E-02  -0.1122750000E-02  -0.2608746257E-17   0.7896412860E-01  -0.1972503215E-01   0.2041912416E-17   0.9125000013E+01   0.2527702923E-13   0.2489243676E-13   0.6832549041E-15  -0.2528973568E-14   0.1035295408E-14   0.4173206436E-01  -0.2084778218E-01  -0.2084778218E-01  -0.1075163848E-15   0.2186652836E-15   0.9568274194E-16   0.9125000013E+01
   0.2083464129E+01   0.0000000000E+00   0.9791522178E+00   0.4500000000E-02   0.0000000000E+00  -0.1122750000E-02   0.7896412860E-01   0.0000000000E+00  -0.1972503215E-01   0.9125000013E+01  -0.4135448003E-13  -0.4065568030E-13   0.3027709119E-15   0.1458457271E-14   0.7425329983E-15   0.4173206436E-01  -0.2084778218E-01  -0.2084778218E-01   0.2293736510E-15  -0.1018584205E-15   0.1794068110E-16   0.9125000013E+01
   0.2083464129E+01   0.9791522178E+00   0.9791522178E+00   0.4500000000E-02  -0.1122750000E-02  -0.1122750000E-02   0.7896412860E-01  -0.1972503215E-01  -0.1972503215E-01   0.9125000012E+01   0.2397792408E-13   0.2236411538E-13   0.1479189153E-15  -0.8213797923E-15   0.6837978066E-15   0.4173206435E-01  -0.2084778218E-01  -0.2084778218E-01   0.3022048267E-15   0.5905044229E-16   0.1043677839E-15   0.9125000012E+01
     1     2     3     4     5     6     7     8
     2     9    10     3     6    11    12     7
 VARIABLES = X,Y,Z,DU1,DU2,DU3,U1,U2,U3,S11,S22,S33,S12,S13,S23,E11,E22,E33,E12,E13,E23,SMISES
 ZONE, T="0.6900D+01" F=FEPOINT, I=   12 J=    2 ET=BRICK
   0.0000000000E+00   0.0000000000E+00   0.0000000000E+00   0.0000000000E+00   0.0000000000E+00   0.0000000000E+00   0.0000000000E+00   0.0000000000E+00   0.0000000000E+00   0.1024999973E+02   0.1434330005E-06   0.1434330006E-06   0.2567047790E-17  -0.1083308952E-14  -0.1130724096E-14   0.4905839968E-01  -0.2450869984E-01  -0.2450869984E-01   0.9391442564E-18  -0.4392172586E-16  -0.2802113122E-16   0.1024999959E+02
   0.1049058400E+01   0.0000000000E+00  -0.6785504636E-17   0.7326335306E-02   0.0000000000E+00  -0.2723407303E-17   0.4173206430E-01   0.0000000000E+00  -0.4062097333E-17   0.1024999973E+02   0.1434329285E-06   0.1434329271E-06   0.1006340599E-14   0.3883790097E-15  -0.6062211788E-15   0.4905839968E-01  -0.2450869984E-01  -0.2450869984E-01  -0.1260789486E-15   0.2184393672E-17  -0.3726387324E-16   0.1024999959E+02
   0.1049058400E+01   0.9754913002E+00  -0.2427307242E-16   0.7326335306E-02  -0.3660917653E-02  -0.7996055536E-17   0.4173206430E-01  -0.2084778215E-01  -0.1627701688E-16   0.1024999973E+02   0.1434328223E-06   0.1434328233E-06   0.6544138186E-15  -0.1069137300E-14  -0.2708892975E-15   0.4905839968E-01  -0.2450869984E-01  -0.2450869984E-01  -0.1415774812E-15   0.8880631356E-16  -0.1689597184E-16   0.1024999958E+02
   0.0000000000E+00   0.9754913002E+00  -0.1437764406E-16   0.0000000000E+00  -0.3660917653E-02  -0.1054675396E-16   0.0000000000E+00  -0.2084778215E-01  -0.3830890103E-17   0.1024999973E+02   0.1434331145E-06   0.1434331166E-06  -0.1515616022E-15  -0.4916987860E-15  -0.7107435220E-15   0.4905839968E-01  -0.2450869984E-01  -0.2450869984E-01   0.3343041353E-16  -0.3225736814E-16   0.2795041140E-16   0.1024999958E+02
   0.0000000000E+00   0.0000000000E+00   0.9754913002E+00   0.0000000000E+00   0.0000000000E+00  -0.3660917653E-02   0.0000000000E+00   0.0000000000E+00  -0.2084778215E-01   0.1024999973E+02   0.1434330975E-06   0.1434330960E-06  -0.3943981677E-16  -0.5620408669E-15  -0.5801950504E-15   0.4905839968E-01  -0.2450869984E-01  -0.2450869984E-01  -0.3814876750E-17  -0.2827365331E-16  -0.6398300964E-16   0.1024999958E+02
   0.1049058400E+01   0.0000000000E+00   0.9754913002E+00   0.7326335306E-02   0.0000000000E+00  -0.3660917653E-02   0.4173206430E-01   0.0000000000E+00  -0.2084778215E-01   0.1024999973E+02   0.1434329655E-06   0.1434329644E-06  -0.1232257980E-14   0.5558710824E-15  -0.7020101592E-15   0.4905839968E-01  -0.2450869984E-01  -0.2450869984E-01   0.8749668853E-17  -0.7839323464E-16   0.1122313640E-16   0.1024999958E+02
   0.1049058400E+01   0.9754913002E+00   0.9754913002E+00   0.7326335306E-02  -0.3660917653E-02  -0.3660917653E-02   0.4173206430E-01  -0.2084778215E-01  -0.2084778215E-01   0.1024999973E+02   0.1434329106E-06   0.1434329113E-06  -0.1249217560E-14  -0.9891545107E-15  -0.3811902873E-15   0.4905839967E-01  -0.2450869984E-01  -0.2450869984E-01   0.1114067111E-16   0.1254029757E-15   0.4799737082E-17   0.1024999958E+02
   0.0000000000E+00   0.9754913002E+00   0.9754913002E+00   0.0000000000E+00  -0.3660917653E-02  -0.3660917653E-02   0.0000000000E+00  -0.2084778215E-01  -0.2084778215E-01   0.1024999973E+02   0.1434328392E-06   0.1434328382E-06  -0.2078632751E-15  -0.4978237803E-15  -0.8807163019E-15   0.4905839967E-01  -0.2450869984E-01  -0.2450869984E-01  -0.6392212570E-16   0.3404164618E-16   0.1184639061E-16   0.1024999958E+02
   0.2098116799E+01   0.0000000000E+00   0.1888073609E-16   0.1465267061E-01   0.0000000000E+00   0.8285591411E-17   0.8346412860E-01   0.0000000000E+00   0.1059514467E-16   0.1024999973E+02   0.1434329112E-06   0.1434329147E-06   0.9691415292E-15   0.1760101932E-14   0.5369292154E-15   0.4905839968E-01  -0.2450869984E-01  -0.2450869984E-01  -0.6684945954E-16  -0.1178606957E-15  -0.2594814322E-16   0.1024999959E+02
   0.2098116799E+01   0.9754913002E+00   0.4977318970E-17   0.1465267061E-01  -0.3660917653E-02   0.5544152811E-17   0.8346412860E-01  -0.2084778215E-01  -0.5668338404E-18   0.1024999973E+02   0.1434326369E-06   0.1434326365E-06   0.1999640800E-15  -0.2400034003E-14   0.1498113203E-14   0.4905839968E-01  -0.2450869984E-01  -0.2450869984E-01  -0.1302478169E-15   0.2699692835E-15   0.9420992615E-16   0.1024999958E+02
   0.2098116799E+01   0.0000000000E+00   0.9754913002E+00   0.1465267061E-01   0.0000000000E+00  -0.3660917653E-02   0.8346412860E-01   0.0000000000E+00  -0.2084778215E-01   0.1024999973E+02   0.1434326844E-06   0.1434326848E-06   0.1222799648E-15   0.1046282302E-14  -0.3304591887E-15   0.4905839968E-01  -0.2450869984E-01  -0.2450869984E-01   0.2174095914E-15  -0.1939641206E-15  -0.1099906695E-16   0.1024999958E+02
   0.2098116799E+01   0.9754913002E+00   0.9754913002E+00   0.1465267061E-01  -0.3660917653E-02  -0.3660917653E-02   0.8346412860E-01  -0.2084778215E-01  -0.2084778215E-01   0.1024999973E+02   0.1434329474E-06   0.1434329441E-06  -0.4882539191E-16  -0.8885831684E-15   0.6867198040E-15   0.4905839967E-01  -0.2450869984E-01  -0.2450869984E-01   0.3350637158E-15   0.9728799296E-16   0.1345896008E-15   0.1024999958E+02
     1     2     3     4     5     6     7     8
     2     9    10     3     6    11    12     7
 VARIABLES = X,Y,Z,DU1,DU2,DU3,U1,U2,U3,S11,S22,S33,S12,S13,S23,E11,E22,E33,E12,E13,E23,SMISES
 ZONE, T="0.6950D+01" F=FEPOINT, I=   12 J=    2 ET=BRICK
   0.0000000000E+00   0.0000000000E+00   0.0000000000E+00   0.0000000000E+00   0.0000000000E+00   0.0000000000E+00   0.0000000000E+00   0.0000000000E+00   0.0000000000E+00   0.1137499401E+02   0.3005158417E-05   0.3005158417E-05  -0.9622973732E-16   0.3007174072E-15   0.2450494821E-15   0.7583134173E-01  -0.3789292086E-01  -0.3789292086E-01  -0.1950737138E-17  -0.7810821193E-17  -0.7909074937E-17   0.1137499100E+02
   0.1075831342E+01   0.0000000000E+00   0.2264299675E-17   0.2677294200E-01   0.0000000000E+00   0.9049804311E-17   0.4905839961E-01   0.0000000000E+00  -0.6785504636E-17   0.1137499401E+02   0.3005158617E-05   0.3005158616E-05  -0.4890973569E-17   0.3756391836E-15  -0.3107126188E-15   0.7583134173E-01  -0.3789292086E-01  -0.3789292086E-01  -0.1269051265E-15  -0.1303078853E-16  -0.3351395570E-16   0.1137499100E+02
   0.1075831342E+01   0.9621070792E+00  -0.1444210450E-16   0.2677294200E-01  -0.1338422100E-01   0.9830967915E-17   0.4905839961E-01  -0.2450869980E-01  -0.2427307242E-16   0.1137499401E+02   0.3005158109E-05   0.3005158110E-05  -0.3362875000E-16   0.2015725800E-15  -0.2872794793E-15   0.7583134172E-01  -0.3789292086E-01  -0.3789292086E-01  -0.1297183534E-15   0.1172930626E-15  -0.1669090763E-16   0.1137499100E+02
   0.0000000000E+00   0.9621070792E+00  -0.7494971491E-17   0.0000000000E+00  -0.1338422100E-01   0.6882672570E-17   0.0000000000E+00  -0.2450869980E-01  -0.1437764406E-16   0.1137499401E+02   0.3005158159E-05   0.3005158161E-05   0.3974186232E-16  -0.1897179365E-15   0.1473375104E-15   0.7583134172E-01  -0.3789292086E-01  -0.3789292086E-01   0.3688884125E-16  -0.3744730951E-16   0.2995646977E-16   0.1137499100E+02
   0.0000000000E+00   0.0000000000E+00   0.9621070792E+00   0.0000000000E+00   0.0000000000E+00  -0.1338422100E-01   0.0000000000E+00   0.0000000000E+00  -0.2450869980E-01   0.1137499401E+02   0.3005157790E-05   0.3005157788E-05   0.7739247555E-16   0.3924746534E-15   0.2649350321E-15   0.7583134172E-01  -0.3789292086E-01  -0.3789292086E-01   0.5271149149E-17  -0.1755345147E-16  -0.5493847085E-16   0.1137499100E+02
   0.1075831342E+01   0.0000000000E+00   0.9621070792E+00   0.2677294200E-01   0.0000000000E+00  -0.1338422100E-01   0.4905839961E-01   0.0000000000E+00  -0.2450869980E-01   0.1137499401E+02   0.3005157455E-05   0.3005157455E-05  -0.4647764820E-15   0.8609314180E-15   0.2306869875E-15   0.7583134172E-01  -0.3789292086E-01  -0.3789292086E-01  -0.7942757234E-17  -0.6647997182E-16   0.8754789024E-17   0.1137499100E+02
   0.1075831342E+01   0.9621070792E+00   0.9621070792E+00   0.2677294200E-01  -0.1338422100E-01  -0.1338422100E-01   0.4905839961E-01  -0.2450869980E-01  -0.2450869980E-01   0.1137499400E+02   0.3005158301E-05   0.3005158303E-05  -0.4209786621E-15  -0.2204399834E-15  -0.1354257906E-15   0.7583134171E-01  -0.3789292086E-01  -0.3789292086E-01   0.1197159480E-16   0.1197004493E-15   0.1984616833E-16   0.1137499100E+02
   0.0000000000E+00   0.9621070792E+00   0.9621070792E+00   0.0000000000E+00  -0.1338422100E-01  -0.1338422100E-01   0.0000000000E+00  -0.2450869980E-01  -0.2450869980E-01   0.1137499400E+02   0.3005157812E-05   0.3005157813E-05  -0.2177793373E-15   0.3792860026E-15   0.5756509638E-15   0.7583134171E-01  -0.3789292086E-01  -0.3789292086E-01  -0.7828464843E-16   0.6845782068E-16   0.5516514925E-16   0.1137499100E+02
   0.2151662683E+01   0.0000000000E+00   0.3344585880E-16   0.5354588401E-01   0.0000000000E+00   0.1456512271E-16   0.9811679922E-01   0.0000000000E+00   0.1888073609E-16   0.1137499401E+02   0.3005158529E-05   0.3005158530E-05   0.4100249448E-15   0.1258575138E-14  -0.3009066752E-15   0.7583134173E-01  -0.3789292086E-01  -0.3789292086E-01  -0.5769065725E-16  -0.7690217441E-16  -0.3265083024E-16   0.1137499100E+02
   0.2151662683E+01   0.9621070792E+00   0.1399331900E-16   0.5354588401E-01  -0.1338422100E-01   0.9016000034E-17   0.9811679922E-01  -0.2450869980E-01   0.4977318970E-17   0.1137499401E+02   0.3005157824E-05   0.3005157824E-05  -0.5100375818E-15  -0.3247935535E-14   0.3780709746E-15   0.7583134172E-01  -0.3789292086E-01  -0.3789292086E-01  -0.1342749149E-15   0.2872019781E-15   0.8307166749E-16   0.1137499100E+02
   0.2151662683E+01   0.0000000000E+00   0.9621070792E+00   0.5354588401E-01   0.0000000000E+00  -0.1338422100E-01   0.9811679922E-01   0.0000000000E+00  -0.2450869980E-01   0.1137499401E+02   0.3005157065E-05   0.3005157065E-05   0.3125422844E-15  -0.8360953798E-15   0.8433021013E-16   0.7583134172E-01  -0.3789292086E-01  -0.3789292086E-01   0.2111502599E-15  -0.1809025783E-15  -0.5352962888E-17   0.1137499100E+02
   0.2151662683E+01   0.9621070792E+00   0.9621070792E+00   0.5354588401E-01  -0.1338422100E-01  -0.1338422100E-01   0.9811679922E-01  -0.2450869980E-01  -0.2450869980E-01   0.1137499400E+02   0.3005158849E-05   0.3005158846E-05   0.7462283403E-15   0.1608389535E-14   0.2118914069E-15   0.7583134171E-01  -0.3789292085E-01  -0.3789292085E-01   0.3497394355E-15   0.8236768377E-16   0.1055396207E-15   0.1137499100E+02
     1     2     3     4     5     6     7     8
     2     9    10     3     6    11    12     7
 VARIABLES = X,Y,Z,DU1,DU2,DU3,U1,U2,U3,S11,S22,S33,S12,S13,S23,E11,E22,E33,E12,E13,E23,SMISES
 ZONE, T="0.7000D+01" F=FEPOINT, I=   12 J=    2 ET=BRICK
   0.0000000000E+00   0.0000000000E+00   0.0000000000E+00   0.0000000000E+00   0.0000000000E+00   0.0000000000E+00   0.0000000000E+00   0.0000000000E+00   0.0000000000E+00   0.1249998613E+02   0.6944758664E-05   0.6944758663E-05  -0.6602832862E-17   0.3138954969E-15  -0.5770575793E-15   0.1045515894E+00  -0.5225079468E-01  -0.5225079468E-01   0.1308324462E-16  -0.2538086657E-16  -0.4146890576E-16   0.1249997919E+02
   0.1104551589E+01   0.0000000000E+00  -0.3192533406E-17   0.2872024759E-01   0.0000000000E+00  -0.5456833082E-17   0.7583134161E-01   0.0000000000E+00   0.2264299675E-17   0.1249998613E+02   0.6944757267E-05   0.6944757269E-05  -0.8150846349E-16  -0.6835267146E-15  -0.3647202602E-15   0.1045515894E+00  -0.5225079468E-01  -0.5225079468E-01  -0.1901286145E-15  -0.2575567343E-16  -0.4247444074E-16   0.1249997918E+02
   0.1104551589E+01   0.9477492054E+00  -0.2193801149E-16   0.2872024759E-01  -0.1435787380E-01  -0.7495906983E-17   0.7583134161E-01  -0.3789292081E-01  -0.1444210450E-16   0.1249998613E+02   0.6944757858E-05   0.6944757858E-05   0.1883916147E-15   0.6529667059E-15  -0.2915991303E-15   0.1045515894E+00  -0.5225079468E-01  -0.5225079468E-01  -0.1888254611E-15   0.1445705220E-15  -0.8812352000E-17   0.1249997918E+02
   0.0000000000E+00   0.9477492054E+00  -0.1679108756E-16   0.0000000000E+00  -0.1435787380E-01  -0.9296116067E-17   0.0000000000E+00  -0.3789292081E-01  -0.7494971491E-17   0.1249998613E+02   0.6944757458E-05   0.6944757460E-05  -0.2008311392E-15  -0.5048762772E-15  -0.3531151311E-15   0.1045515894E+00  -0.5225079468E-01  -0.5225079468E-01   0.5484110305E-16  -0.3145614329E-16   0.3936745552E-16   0.1249997918E+02
   0.0000000000E+00   0.0000000000E+00   0.9477492054E+00   0.0000000000E+00   0.0000000000E+00  -0.1435787380E-01   0.0000000000E+00   0.0000000000E+00  -0.3789292081E-01   0.1249998613E+02   0.6944758036E-05   0.6944758035E-05   0.2603643632E-16  -0.1997411299E-15  -0.2418528884E-15   0.1045515894E+00  -0.5225079468E-01  -0.5225079468E-01   0.8553461903E-17   0.1270104398E-16  -0.5517077333E-16   0.1249997918E+02
   0.1104551589E+01   0.0000000000E+00   0.9477492054E+00   0.2872024759E-01   0.0000000000E+00  -0.1435787380E-01   0.7583134161E-01   0.0000000000E+00  -0.3789292081E-01   0.1249998613E+02   0.6944757407E-05   0.6944757406E-05  -0.1228462782E-14   0.8965205398E-15  -0.2173662760E-16   0.1045515894E+00  -0.5225079468E-01  -0.5225079468E-01  -0.4005684783E-16  -0.1285468680E-15   0.9357285489E-17   0.1249997918E+02
   0.1104551589E+01   0.9477492054E+00   0.9477492054E+00   0.2872024759E-01  -0.1435787380E-01  -0.1435787380E-01   0.7583134161E-01  -0.3789292081E-01  -0.3789292081E-01   0.1249998613E+02   0.6944757184E-05   0.6944757185E-05  -0.1459889052E-14  -0.6628602250E-15  -0.1663567867E-15   0.1045515893E+00  -0.5225079467E-01  -0.5225079467E-01  -0.3286365412E-17   0.8596607881E-16  -0.1868108163E-16   0.1249997918E+02
   0.0000000000E+00   0.9477492054E+00   0.9477492054E+00   0.0000000000E+00  -0.1435787380E-01  -0.1435787380E-01   0.0000000000E+00  -0.3789292081E-01  -0.3789292081E-01   0.1249998613E+02   0.6944756894E-05   0.6944756896E-05  -0.3257163919E-15  -0.2793368116E-15   0.2608196524E-15   0.1045515893E+00  -0.5225079467E-01  -0.5225079467E-01  -0.8839188047E-16   0.5105806670E-16   0.3308224635E-16   0.1249997918E+02
   0.2209103178E+01   0.0000000000E+00   0.1515393730E-16   0.5744049519E-01   0.0000000000E+00  -0.1829192150E-16   0.1516626832E+00   0.0000000000E+00   0.3344585880E-16   0.1249998613E+02   0.6944757297E-05   0.6944757297E-05   0.1039751272E-14   0.2740436906E-14   0.1190022234E-14   0.1045515894E+00  -0.5225079468E-01  -0.5225079468E-01  -0.6018636893E-16  -0.2129059243E-15   0.6946679983E-17   0.1249997918E+02
   0.2209103178E+01   0.9477492054E+00   0.1238378379E-16   0.5744049519E-01  -0.1435787380E-01  -0.1609535212E-17   0.1516626832E+00  -0.3789292081E-01   0.1399331900E-16   0.1249998613E+02   0.6944758431E-05   0.6944758430E-05   0.1164091001E-14  -0.3732838283E-14   0.1803652105E-15   0.1045515894E+00  -0.5225079468E-01  -0.5225079468E-01  -0.8650516128E-16   0.3570726233E-15   0.6518994656E-16   0.1249997918E+02
   0.2209103178E+01   0.0000000000E+00   0.9477492054E+00   0.5744049519E-01   0.0000000000E+00  -0.1435787380E-01   0.1516626832E+00   0.0000000000E+00  -0.3789292081E-01   0.1249998613E+02   0.6944757569E-05   0.6944757569E-05  -0.2614095288E-14  -0.1163250913E-14   0.3694089526E-15   0.1045515894E+00  -0.5225079468E-01  -0.5225079468E-01   0.2000738402E-15  -0.7979633914E-16   0.8938100709E-17   0.1249997918E+02
   0.2209103178E+01   0.9477492054E+00   0.9477492054E+00   0.5744049519E-01  -0.1435787380E-01  -0.1435787380E-01   0.1516626832E+00  -0.3789292081E-01  -0.3789292081E-01   0.1249998613E+02   0.6944757065E-05   0.6944757063E-05  -0.1221303043E-14   0.1744751752E-14   0.1468752926E-16   0.1045515893E+00  -0.5225079467E-01  -0.5225079467E-01   0.2549450372E-15   0.1025836395E-15   0.1786119721E-15   0.1249997918E+02
     1     2     3     4     5     6     7     8
     2     9    10     3     6    11    12     7
 VARIABLES = X,Y,Z,DU1,DU2,DU3,U1,U2,U3,S11,S22,S33,S12,S13,S23,E11,E22,E33,E12,E13,E23,SMISES
 ZONE, T="0.7050D+01" F=FEPOINT, I=   12 J=    2 ET=BRICK
   0.0000000000E+00   0.0000000000E+00   0.0000000000E+00   0.0000000000E+00   0.0000000000E+00   0.0000000000E+00   0.0000000000E+00   0.0000000000E+00   0.0000000000E+00   0.1137500002E+02  -0.1885648371E-11  -0.2321268730E-11   0.1152688656E-16  -0.4348826923E-12  -0.1236132390E-12   0.1023016310E+00  -0.5112806550E-01  -0.5112806550E-01  -0.5480639149E-17  -0.5262037226E-14  -0.1511997883E-14   0.1137500002E+02
   0.1102301631E+01   0.0000000000E+00  -0.2690317561E-14  -0.2249958359E-02   0.0000000000E+00  -0.2687125028E-14   0.1045515892E+00   0.0000000000E+00  -0.3192533406E-17   0.1137500002E+02  -0.4049165526E-12  -0.5060225999E-12  -0.1083023420E-12  -0.2855013316E-12   0.1262398789E-12   0.1023016310E+00  -0.5112806550E-01  -0.5112806550E-01  -0.1467349602E-14  -0.3391781624E-14   0.1465222654E-14   0.1137500002E+02
   0.1102301631E+01   0.9488719346E+00  -0.1950058627E-14  -0.2249958359E-02   0.1122729180E-02  -0.1928120616E-14   0.1045515892E+00  -0.5225079460E-01  -0.2193801149E-16   0.1137500002E+02   0.6550424399E-13   0.1699150672E-12  -0.9895361387E-13  -0.1711307289E-12  -0.6116587481E-13   0.1023016310E+00  -0.5112806550E-01  -0.5112806550E-01  -0.1343548672E-14  -0.2031689276E-14  -0.7019126645E-15   0.1137500002E+02
   0.0000000000E+00   0.9488719346E+00  -0.7544861986E-15   0.0000000000E+00   0.1122729180E-02  -0.7376951110E-15   0.0000000000E+00  -0.5225079460E-01  -0.1679108756E-16   0.1137500002E+02  -0.4106269883E-12  -0.6110557184E-12  -0.1184090141E-12  -0.1181216748E-12  -0.3082735743E-12   0.1023016310E+00  -0.5112806550E-01  -0.5112806550E-01  -0.1385523240E-14  -0.1415794059E-14  -0.3711145763E-14   0.1137500002E+02
   0.0000000000E+00   0.0000000000E+00   0.9488719346E+00   0.0000000000E+00   0.0000000000E+00   0.1122729180E-02   0.0000000000E+00   0.0000000000E+00  -0.5225079460E-01   0.1137500002E+02  -0.7768256989E-12  -0.8403459026E-12   0.2460128462E-16  -0.3016893453E-12  -0.7724901348E-14   0.1023016310E+00  -0.5112806550E-01  -0.5112806550E-01  -0.6358970622E-17  -0.3669884168E-14  -0.8418768468E-16   0.1137500002E+02
   0.1102301631E+01   0.0000000000E+00   0.9488719346E+00  -0.2249958359E-02   0.0000000000E+00   0.1122729180E-02   0.1045515892E+00   0.0000000000E+00  -0.5225079460E-01   0.1137500002E+02   0.5524608030E-12   0.8229879773E-12  -0.1100151180E-12  -0.2823329749E-12   0.2302349890E-12   0.1023016310E+00  -0.5112806550E-01  -0.5112806550E-01  -0.1312122205E-14  -0.3439587797E-14   0.2757027573E-14   0.1137500002E+02
   0.1102301631E+01   0.9488719346E+00   0.9488719346E+00  -0.2249958359E-02   0.1122729180E-02   0.1122729180E-02   0.1045515892E+00  -0.5225079460E-01  -0.5225079460E-01   0.1137500001E+02  -0.2260409699E-12   0.2550404962E-12  -0.1048198304E-12  -0.1780039505E-12   0.4263711554E-13   0.1023016310E+00  -0.5112806549E-01  -0.5112806549E-01  -0.1255976624E-14  -0.2072874929E-14   0.4953172973E-15   0.1137500001E+02
   0.0000000000E+00   0.9488719346E+00   0.9488719346E+00   0.0000000000E+00   0.1122729180E-02   0.1122729180E-02   0.0000000000E+00  -0.5225079460E-01  -0.5225079460E-01   0.1137500002E+02   0.3325734427E-12   0.4998409144E-12  -0.1206391800E-12   0.1760887366E-14  -0.1921641132E-12   0.1023016310E+00  -0.5112806549E-01  -0.5112806549E-01  -0.1506545372E-14   0.1447964539E-15  -0.2267663976E-14   0.1137500002E+02
   0.2204603262E+01   0.0000000000E+00  -0.5670301764E-14  -0.4499916718E-02   0.0000000000E+00  -0.5685455701E-14   0.2091031784E+00   0.0000000000E+00   0.1515393730E-16   0.1137500002E+02  -0.1036498301E-12  -0.5669096894E-12  -0.2072680697E-12  -0.1306089685E-12   0.1054653704E-12   0.1023016310E+00  -0.5112806550E-01  -0.5112806550E-01  -0.2497975777E-14  -0.1741708270E-14   0.1249294524E-14   0.1137500002E+02
   0.2204603262E+01   0.9488719346E+00  -0.5047845292E-14  -0.4499916718E-02   0.1122729180E-02  -0.5060229076E-14   0.2091031784E+00  -0.5225079460E-01   0.1238378379E-16   0.1137500002E+02   0.2490490607E-11   0.2227802644E-11  -0.7052190451E-13  -0.2288578168E-12  -0.8792173169E-13   0.1023016310E+00  -0.5112806549E-01  -0.5112806549E-01  -0.9112518195E-15  -0.2478294394E-14  -0.9824008484E-15   0.1137500002E+02
   0.2204603262E+01   0.0000000000E+00   0.9488719346E+00  -0.4499916718E-02   0.0000000000E+00   0.1122729180E-02   0.2091031784E+00   0.0000000000E+00  -0.5225079460E-01   0.1137500002E+02  -0.1025512354E-11  -0.1103534280E-11  -0.2119728888E-12  -0.2643979615E-12   0.2054655617E-12   0.1023016310E+00  -0.5112806549E-01  -0.5112806549E-01  -0.2397023930E-14  -0.3207998429E-14   0.2462646834E-14   0.1137500002E+02
   0.2204603262E+01   0.9488719346E+00   0.9488719346E+00  -0.4499916718E-02   0.1122729180E-02   0.1122729180E-02   0.2091031784E+00  -0.5225079460E-01  -0.5225079460E-01   0.1137500001E+02  -0.5012908376E-12  -0.3804149543E-12  -0.7980498511E-13  -0.3539121929E-12   0.1276010110E-13   0.1023016310E+00  -0.5112806549E-01  -0.5112806549E-01  -0.7339900164E-15  -0.4145338928E-14   0.2859129567E-15   0.1137500001E+02
     1     2     3     4     5     6     7     8
     2     9    10     3     6    11    12     7
 VARIABLES = X,Y,Z,DU1,DU2,DU3,U1,U2,U3,S11,S22,S33,S12,S13,S23,E11,E22,E33,E12,E13,E23,SMISES
 ZONE, T="0.7100D+01" F=FEPOINT, I=   12 J=    2 ET=BRICK
   0.0000000000E+00   0.0000000000E+00   0.0000000000E+00   0.0000000000E+00   0.0000000000E+00   0.0000000000E+00   0.0000000000E+00   0.0000000000E+00   0.0000000000E+00   0.1025000002E+02  -0.2538666763E-14  -0.5821118138E-14   0.1717638785E-16  -0.9460016994E-15  -0.1648486513E-14   0.1000516310E+00  -0.5000531550E-01  -0.5000531550E-01   0.5580632417E-18  -0.2528996788E-16  -0.5505700442E-16   0.1025000002E+02
   0.1100051631E+01   0.0000000000E+00  -0.8171905917E-17  -0.2250000000E-02   0.0000000000E+00   0.2682145655E-14   0.1023016308E+00   0.0000000000E+00  -0.2690317561E-14   0.1025000002E+02   0.9044081427E-13   0.9301902172E-13  -0.3948771326E-15  -0.1057931139E-14  -0.4250279071E-15   0.1000516310E+00  -0.5000531550E-01  -0.5000531550E-01  -0.1615581979E-15  -0.3987465541E-16  -0.2581532247E-16   0.1025000002E+02
   0.1100051631E+01   0.9499946846E+00  -0.2731712417E-16  -0.2250000000E-02   0.1122750000E-02   0.1922741503E-14   0.1023016308E+00  -0.5112806542E-01  -0.1950058627E-14   0.1025000001E+02  -0.3027855223E-13  -0.2898108626E-13   0.1962900113E-15   0.1012615315E-14   0.9471237903E-16   0.1000516310E+00  -0.5000531549E-01  -0.5000531549E-01  -0.1810292827E-15   0.1903614941E-15  -0.1664047571E-16   0.1025000001E+02
   0.0000000000E+00   0.9499946846E+00  -0.2328619262E-16   0.0000000000E+00   0.1122750000E-02   0.7312000060E-15   0.0000000000E+00  -0.5112806542E-01  -0.7544861986E-15   0.1025000001E+02  -0.6996357900E-14  -0.1960394928E-14   0.4690605219E-15  -0.1143715516E-15  -0.3324062621E-15   0.1000516310E+00  -0.5000531550E-01  -0.5000531550E-01   0.3844876814E-16  -0.4523274982E-16   0.3692506715E-16   0.1025000001E+02
   0.0000000000E+00   0.0000000000E+00   0.9499946846E+00   0.0000000000E+00   0.0000000000E+00   0.1122750000E-02   0.0000000000E+00   0.0000000000E+00  -0.5112806542E-01   0.1025000001E+02  -0.5853716716E-13  -0.6079465549E-13   0.2427445232E-16   0.6390885845E-15   0.3891440074E-15   0.1000516310E+00  -0.5000531550E-01  -0.5000531550E-01  -0.7790167054E-18  -0.7254278511E-18   0.4219781900E-17   0.1025000001E+02
   0.1100051631E+01   0.0000000000E+00   0.9499946846E+00  -0.2250000000E-02   0.0000000000E+00   0.1122750000E-02   0.1023016308E+00   0.0000000000E+00  -0.5112806542E-01   0.1025000001E+02   0.3848608300E-13   0.3688529880E-13  -0.4346113667E-15   0.4096796958E-15   0.1282800863E-15   0.1000516310E+00  -0.5000531549E-01  -0.5000531549E-01  -0.3613268941E-16  -0.1029297094E-16   0.1313274306E-17   0.1025000001E+02
   0.1100051631E+01   0.9499946846E+00   0.9499946846E+00  -0.2250000000E-02   0.1122750000E-02   0.1122750000E-02   0.1023016308E+00  -0.5112806542E-01  -0.5112806542E-01   0.1025000001E+02   0.2242785795E-13   0.2391761988E-13  -0.5858444356E-15  -0.2730175083E-15   0.4430040874E-15   0.1000516310E+00  -0.5000531549E-01  -0.5000531549E-01   0.6975773233E-16   0.1689145717E-16   0.7576916533E-17   0.1025000001E+02
   0.0000000000E+00   0.9499946846E+00   0.9499946846E+00   0.0000000000E+00   0.1122750000E-02   0.1122750000E-02   0.0000000000E+00  -0.5112806542E-01  -0.5112806542E-01   0.1025000001E+02   0.3367971263E-13   0.3367135087E-13  -0.6027292430E-15   0.1939580422E-15   0.1887796854E-14   0.1000516310E+00  -0.5000531549E-01  -0.5000531549E-01  -0.1235254792E-15   0.3592492056E-16   0.1952981302E-16   0.1025000001E+02
   0.2200103262E+01   0.0000000000E+00   0.1482152406E-16  -0.4500000000E-02   0.0000000000E+00   0.5685123288E-14   0.2046032617E+00   0.0000000000E+00  -0.5670301764E-14   0.1025000002E+02   0.7470044848E-13   0.7211679660E-13  -0.2737654171E-14   0.2559451720E-14  -0.6219483864E-15   0.1000516310E+00  -0.5000531550E-01  -0.5000531550E-01  -0.2154968597E-16   0.1613196272E-15  -0.3662283647E-16   0.1025000002E+02
   0.2200103262E+01   0.9499946846E+00   0.1255575908E-17  -0.4500000000E-02   0.1122750000E-02   0.5049100868E-14   0.2046032617E+00  -0.5112806542E-01  -0.5047845292E-14   0.1025000001E+02  -0.6486877475E-13  -0.6426067902E-13  -0.2324781331E-14  -0.2337019636E-14  -0.9597283024E-15   0.1000516310E+00  -0.5000531549E-01  -0.5000531549E-01  -0.3156096748E-16   0.2100770462E-15   0.1083928504E-15   0.1025000001E+02
   0.2200103262E+01   0.0000000000E+00   0.9499946846E+00  -0.4500000000E-02   0.0000000000E+00   0.1122750000E-02   0.2046032617E+00   0.0000000000E+00  -0.5112806542E-01   0.1025000001E+02  -0.1701904281E-13  -0.2024306585E-13  -0.1834139006E-14  -0.3323814077E-14   0.2304095297E-15   0.1000516310E+00  -0.5000531549E-01  -0.5000531549E-01   0.1364560052E-15  -0.1344205279E-15  -0.1888986631E-17   0.1025000001E+02
   0.2200103262E+01   0.9499946846E+00   0.9499946846E+00  -0.4500000000E-02   0.1122750000E-02   0.1122750000E-02   0.2046032617E+00  -0.5112806542E-01  -0.5112806542E-01   0.1025000001E+02   0.1836342305E-13   0.1699012765E-13  -0.3417768086E-15   0.3438643591E-14   0.5165609559E-15   0.1000516310E+00  -0.5000531549E-01  -0.5000531549E-01   0.1338701566E-15   0.2635238090E-15   0.1584141775E-15   0.1025000001E+02
     1     2     3     4     5     6     7     8
     2     9    10     3     6    11    12     7
 VARIABLES = X,Y,Z,DU1,DU2,DU3,U1,U2,U3,S11,S22,S33,S12,S13,S23,E11,E22,E33,E12,E13,E23,SMISES
 ZONE, T="0.7150D+01" F=FEPOINT, I=   12 J=    2 ET=BRICK
   0.0000000000E+00   0.0000000000E+00   0.0000000000E+00   0.0000000000E+00   0.0000000000E+00   0.0000000000E+00   0.0000000000E+00   0.0000000000E+00   0.0000000000E+00   0.9125000014E+01   0.5553672092E-13   0.5109796524E-13   0.1718526327E-16  -0.1022754564E-14  -0.5979750300E-15   0.9780163100E-01  -0.4888256550E-01  -0.4888256550E-01  -0.8152760420E-17  -0.5262097038E-16  -0.4256878282E-16   0.9125000014E+01
   0.1097801631E+01   0.0000000000E+00  -0.1144404921E-16  -0.2250000000E-02   0.0000000000E+00  -0.3272143291E-17   0.1000516308E+00   0.0000000000E+00  -0.8171905917E-17   0.9125000014E+01  -0.1060002956E-12  -0.1046462510E-12   0.4150223296E-15  -0.1184490879E-14   0.5961879084E-15   0.9780163100E-01  -0.4888256550E-01  -0.4888256550E-01  -0.1401324389E-15  -0.4574165332E-17  -0.1099441432E-16   0.9125000014E+01
   0.1097801631E+01   0.9511174346E+00  -0.2441896287E-16  -0.2250000000E-02   0.1122750000E-02   0.2898161300E-17   0.1000516308E+00  -0.5000531542E-01  -0.2731712417E-16   0.9125000013E+01  -0.2301360849E-14  -0.3433360921E-14   0.7623137273E-15   0.8445903822E-15  -0.1090373542E-15   0.9780163099E-01  -0.4888256549E-01  -0.4888256549E-01  -0.1850552950E-15   0.1782673406E-15  -0.2096404902E-16   0.9125000013E+01
   0.0000000000E+00   0.9511174346E+00  -0.1711168899E-16   0.0000000000E+00   0.1122750000E-02   0.6174503632E-17   0.0000000000E+00  -0.5000531542E-01  -0.2328619262E-16   0.9125000013E+01  -0.1087680608E-12  -0.1065933056E-12   0.6894367860E-15  -0.2617659535E-15  -0.5577862145E-15   0.9780163099E-01  -0.4888256549E-01  -0.4888256549E-01   0.2076638808E-16  -0.4266788157E-16   0.5103847598E-16   0.9125000013E+01
   0.0000000000E+00   0.0000000000E+00   0.9511174346E+00   0.0000000000E+00   0.0000000000E+00   0.1122750000E-02   0.0000000000E+00   0.0000000000E+00  -0.5000531542E-01   0.9125000013E+01  -0.3478959963E-14  -0.3963686266E-14   0.3777574451E-16   0.1756044255E-15   0.5787091119E-15   0.9780163099E-01  -0.4888256549E-01  -0.4888256549E-01  -0.7129003047E-17  -0.1192173445E-16   0.2407425622E-17   0.9125000013E+01
   0.1097801631E+01   0.0000000000E+00   0.9511174346E+00  -0.2250000000E-02   0.0000000000E+00   0.1122750000E-02   0.1000516308E+00   0.0000000000E+00  -0.5000531542E-01   0.9125000013E+01   0.2558258870E-13   0.2564208545E-13   0.1901623138E-15   0.5291184567E-15   0.3277751533E-15   0.9780163099E-01  -0.4888256549E-01  -0.4888256549E-01   0.2036158099E-16  -0.5590159016E-16   0.2645351599E-17   0.9125000013E+01
   0.1097801631E+01   0.9511174346E+00   0.9511174346E+00  -0.2250000000E-02   0.1122750000E-02   0.1122750000E-02   0.1000516308E+00  -0.5000531542E-01  -0.5000531542E-01   0.9125000012E+01   0.1762769729E-13   0.1866248141E-13  -0.1871784599E-15  -0.3673623267E-15  -0.6147708993E-15   0.9780163097E-01  -0.4888256549E-01  -0.4888256549E-01   0.2651550018E-16   0.4578812358E-16   0.3819582192E-16   0.9125000012E+01
   0.0000000000E+00   0.9511174346E+00   0.9511174346E+00   0.0000000000E+00   0.1122750000E-02   0.1122750000E-02   0.0000000000E+00  -0.5000531542E-01  -0.5000531542E-01   0.9125000012E+01   0.3862439768E-13   0.3913887226E-13  -0.3660467550E-15  -0.2248826000E-15   0.8025810177E-15   0.9780163098E-01  -0.4888256549E-01  -0.4888256549E-01  -0.6318710084E-16   0.9625584735E-16  -0.2078927112E-16   0.9125000012E+01
   0.2195603262E+01   0.0000000000E+00  -0.3403101990E-17  -0.4500000000E-02   0.0000000000E+00  -0.1822462605E-16   0.2001032617E+00   0.0000000000E+00   0.1482152406E-16   0.9125000014E+01  -0.1745029250E-12  -0.1756864507E-12  -0.4073870405E-15   0.2715844337E-14   0.6827053644E-15   0.9780163099E-01  -0.4888256550E-01  -0.4888256550E-01  -0.7145968744E-16  -0.1454185919E-15  -0.5064482187E-17   0.9125000014E+01
   0.2195603262E+01   0.9511174346E+00  -0.9072515448E-17  -0.4500000000E-02   0.1122750000E-02  -0.1032809136E-16   0.2001032617E+00  -0.5000531542E-01   0.1255575908E-17   0.9125000013E+01   0.7647666624E-13   0.7595927405E-13  -0.6970377319E-15  -0.2591810495E-14  -0.9728941640E-15   0.9780163098E-01  -0.4888256549E-01  -0.4888256549E-01  -0.8058093115E-16   0.2847301866E-15   0.6118468684E-16   0.9125000013E+01
   0.2195603262E+01   0.0000000000E+00   0.9511174346E+00  -0.4500000000E-02   0.0000000000E+00   0.1122750000E-02   0.2001032617E+00   0.0000000000E+00  -0.5000531542E-01   0.9125000013E+01   0.1015624407E-12   0.1020907214E-12  -0.1978566688E-15  -0.2276794177E-14   0.3737652101E-15   0.9780163098E-01  -0.4888256549E-01  -0.4888256549E-01   0.2082030737E-15  -0.1401944045E-15  -0.1232874118E-16   0.9125000013E+01
   0.2195603262E+01   0.9511174346E+00   0.9511174346E+00  -0.4500000000E-02   0.1122750000E-02   0.1122750000E-02   0.2001032617E+00  -0.5000531542E-01  -0.5000531542E-01   0.9125000012E+01  -0.1025467328E-13  -0.1036861315E-13   0.8067923796E-15   0.3702643137E-14  -0.7706584679E-15   0.9780163097E-01  -0.4888256549E-01  -0.4888256549E-01   0.3156508038E-15   0.9322770537E-16   0.1220493669E-15   0.9125000012E+01
     1     2     3     4     5     6     7     8
     2     9    10     3     6    11    12     7
 VARIABLES = X,Y,Z,DU1,DU2,DU3,U1,U2,U3,S11,S22,S33,S12,S13,S23,E11,E22,E33,E12,E13,E23,SMISES
 ZONE, T="0.7200D+01" F=FEPOINT, I=   12 J=    2 ET=BRICK
   0.0000000000E+00   0.0000000000E+00   0.0000000000E+00   0.0000000000E+00   0.0000000000E+00   0.0000000000E+00   0.0000000000E+00   0.0000000000E+00   0.0000000000E+00   0.8000000013E+01   0.6757676323E-13   0.6507438548E-13   0.3998157898E-16  -0.6493074924E-15  -0.1346607858E-14   0.9555163100E-01  -0.4775981550E-01  -0.4775981550E-01  -0.6742286389E-17  -0.1605421815E-16  -0.5803381222E-16   0.8000000013E+01
   0.1095551631E+01   0.0000000000E+00  -0.6492359619E-17  -0.2250000000E-02   0.0000000000E+00   0.4951689589E-17   0.9780163085E-01   0.0000000000E+00  -0.1144404921E-16   0.8000000012E+01   0.3181927324E-14   0.6366771885E-14   0.5993635471E-15  -0.1056137630E-14  -0.1001892654E-15   0.9555163099E-01  -0.4775981550E-01  -0.4775981550E-01  -0.1542502435E-15  -0.6894996340E-16  -0.4066238306E-16   0.8000000012E+01
   0.1095551631E+01   0.9522401846E+00  -0.2356429548E-16  -0.2250000000E-02   0.1122750000E-02   0.8546673893E-18   0.9780163085E-01  -0.4888256542E-01  -0.2441896287E-16   0.8000000011E+01  -0.1111874302E-13  -0.1113760248E-13   0.1073833582E-14   0.6628606524E-15   0.6423707600E-15   0.9555163098E-01  -0.4775981549E-01  -0.4775981549E-01  -0.1826084377E-15   0.1619916796E-15   0.7322653888E-17   0.8000000011E+01
   0.0000000000E+00   0.9522401846E+00  -0.2178213630E-16   0.0000000000E+00   0.1122750000E-02  -0.4670447304E-17   0.0000000000E+00  -0.4888256542E-01  -0.1711168899E-16   0.8000000012E+01   0.1012639807E-12   0.1056446985E-12   0.8646603287E-15   0.2519523548E-15   0.1837915394E-15   0.9555163098E-01  -0.4775981549E-01  -0.4775981549E-01   0.2741077593E-16  -0.1341796344E-17   0.2707132133E-16   0.8000000012E+01
   0.0000000000E+00   0.0000000000E+00   0.9522401846E+00   0.0000000000E+00   0.0000000000E+00   0.1122750000E-02   0.0000000000E+00   0.0000000000E+00  -0.4888256542E-01   0.8000000012E+01  -0.5135120440E-13  -0.5289900442E-13  -0.1248041679E-16   0.6051430924E-15  -0.2169368362E-15   0.9555163098E-01  -0.4775981549E-01  -0.4775981549E-01   0.1095620480E-17  -0.1145946399E-16  -0.1061091355E-16   0.8000000012E+01
   0.1095551631E+01   0.0000000000E+00   0.9522401846E+00  -0.2250000000E-02   0.0000000000E+00   0.1122750000E-02   0.9780163085E-01   0.0000000000E+00  -0.4888256542E-01   0.8000000011E+01  -0.4256509116E-13  -0.4408460136E-13   0.1225348456E-15   0.6312472872E-15  -0.3931562919E-15   0.9555163098E-01  -0.4775981549E-01  -0.4775981549E-01   0.4562957423E-17  -0.2850541930E-16   0.9827980573E-17   0.8000000011E+01
   0.1095551631E+01   0.9522401846E+00   0.9522401846E+00  -0.2250000000E-02   0.1122750000E-02   0.1122750000E-02   0.9780163085E-01  -0.4888256542E-01  -0.4888256542E-01   0.8000000010E+01   0.4706391448E-13   0.4737812157E-13  -0.4383438807E-15  -0.5384379946E-15   0.1596333221E-15   0.9555163097E-01  -0.4775981549E-01  -0.4775981549E-01   0.1678028422E-16   0.6454985532E-16   0.7109194193E-16   0.8000000010E+01
   0.0000000000E+00   0.9522401846E+00   0.9522401846E+00   0.0000000000E+00   0.1122750000E-02   0.1122750000E-02   0.0000000000E+00  -0.4888256542E-01  -0.4888256542E-01   0.8000000011E+01  -0.8291648582E-13  -0.8356123303E-13  -0.2590682154E-15   0.2318126556E-15   0.1535518047E-14   0.9555163097E-01  -0.4775981549E-01  -0.4775981549E-01  -0.6296111631E-16   0.1034163173E-15   0.1537258232E-16   0.8000000011E+01
   0.2191103262E+01   0.0000000000E+00   0.1709226102E-16  -0.4500000000E-02   0.0000000000E+00   0.2049536301E-16   0.1956032617E+00   0.0000000000E+00  -0.3403101990E-17   0.8000000012E+01   0.5501090881E-13   0.5621873880E-13  -0.7420629903E-15   0.2222858298E-14  -0.3498175888E-16   0.9555163099E-01  -0.4775981550E-01  -0.4775981550E-01   0.2701591527E-16   0.1142458689E-15   0.1777763937E-16   0.8000000012E+01
   0.2191103262E+01   0.9522401846E+00   0.7140809813E-17  -0.4500000000E-02   0.1122750000E-02   0.1621332526E-16   0.1956032617E+00  -0.4888256542E-01  -0.9072515448E-17   0.8000000011E+01  -0.1817790503E-12  -0.1811223464E-12  -0.1070433467E-14  -0.2755456875E-14  -0.3686789494E-15   0.9555163098E-01  -0.4775981549E-01  -0.4775981549E-01  -0.4705348911E-17   0.2363081329E-15   0.5544437400E-16   0.8000000011E+01
   0.2191103262E+01   0.0000000000E+00   0.9522401846E+00  -0.4500000000E-02   0.0000000000E+00   0.1122750000E-02   0.1956032617E+00   0.0000000000E+00  -0.4888256542E-01   0.8000000011E+01  -0.2011412020E-13  -0.2052700226E-13  -0.1812716346E-15  -0.2846941926E-14  -0.2531415222E-15   0.9555163098E-01  -0.4775981549E-01  -0.4775981549E-01   0.2027477983E-15   0.9099983133E-16  -0.2402271124E-16   0.8000000011E+01
   0.2191103262E+01   0.9522401846E+00   0.9522401846E+00  -0.4500000000E-02   0.1122750000E-02   0.1122750000E-02   0.1956032617E+00  -0.4888256542E-01  -0.4888256542E-01   0.8000000010E+01   0.8543441279E-13   0.8437240703E-13   0.9041340646E-15   0.3901308599E-14  -0.1481486993E-15   0.9555163097E-01  -0.4775981548E-01  -0.4775981548E-01   0.2869380713E-15   0.2437538796E-16   0.1441112539E-15   0.8000000010E+01
     1     2     3     4     5     6     7     8
     2     9    10     3     6    11    12     7
 VARIABLES = X,Y,Z,DU1,DU2,DU3,U1,U2,U3,S11,S22,S33,S12,S13,S23,E11,E22,E33,E12,E13,E23,SMISES
 ZONE, T="0.7250D+01" F=FEPOINT, I=   12 J=    2 ET=BRICK
   0.0000000000E+00   0.0000000000E+00   0.0000000000E+00   0.0000000000E+00   0.0000000000E+00   0.0000000000E+00   0.0000000000E+00   0.0000000000E+00   0.0000000000E+00   0.6875000011E+01   0.1265347132E-13   0.9664908621E-14   0.4990002461E-16  -0.9162631387E-15  -0.1165784299E-14   0.9330163099E-01  -0.4663706550E-01  -0.4663706550E-01   0.7490178942E-17  -0.5122375515E-16  -0.3717580619E-16   0.6875000011E+01
   0.1093301631E+01   0.0000000000E+00  -0.8990336034E-17  -0.2250000000E-02   0.0000000000E+00  -0.2497976415E-17   0.9555163085E-01   0.0000000000E+00  -0.6492359619E-17   0.6875000011E+01   0.1017789533E-13   0.1251519847E-13   0.5933529991E-15  -0.1163628318E-14   0.1900293004E-15   0.9330163099E-01  -0.4663706549E-01  -0.4663706549E-01  -0.1736572285E-15   0.2836987258E-17  -0.1942637685E-16   0.6875000011E+01
   0.1093301631E+01   0.9533629346E+00  -0.2429396959E-16  -0.2250000000E-02   0.1122750000E-02  -0.7296741112E-18   0.9555163085E-01  -0.4775981542E-01  -0.2356429548E-16   0.6875000010E+01   0.5060324091E-13   0.4944149260E-13   0.1009200852E-14   0.8432436250E-15   0.4636168805E-15   0.9330163098E-01  -0.4663706549E-01  -0.4663706549E-01  -0.1790663145E-15   0.1173274806E-15  -0.2477390242E-16   0.6875000010E+01
   0.0000000000E+00   0.9533629346E+00  -0.2077415857E-16   0.0000000000E+00   0.1122750000E-02   0.1007977723E-17   0.0000000000E+00  -0.4775981542E-01  -0.2178213630E-16   0.6875000010E+01  -0.4683374599E-13  -0.4279153946E-13   0.1006765850E-14   0.6531965669E-18   0.5771367599E-16   0.9330163098E-01  -0.4663706549E-01  -0.4663706549E-01   0.3407024502E-16  -0.8650718597E-17   0.5366070465E-16   0.6875000010E+01
   0.0000000000E+00   0.0000000000E+00   0.9533629346E+00   0.0000000000E+00   0.0000000000E+00   0.1122750000E-02   0.0000000000E+00   0.0000000000E+00  -0.4775981542E-01   0.6875000010E+01   0.3214884901E-13   0.3101286305E-13  -0.9539096394E-17   0.5240185970E-15  -0.8547869235E-16   0.9330163098E-01  -0.4663706549E-01  -0.4663706549E-01   0.9673827633E-17  -0.2326922649E-16  -0.3446162243E-16   0.6875000010E+01
   0.1093301631E+01   0.0000000000E+00   0.9533629346E+00  -0.2250000000E-02   0.0000000000E+00   0.1122750000E-02   0.9555163085E-01   0.0000000000E+00  -0.4775981542E-01   0.6875000010E+01   0.2094051763E-14   0.7262008467E-15   0.9273959963E-16   0.7915337679E-15  -0.3583283363E-15   0.9330163098E-01  -0.4663706549E-01  -0.4663706549E-01  -0.2577405856E-16  -0.1817255341E-16   0.1531304684E-16   0.6875000010E+01
   0.1093301631E+01   0.9533629346E+00   0.9533629346E+00  -0.2250000000E-02   0.1122750000E-02   0.1122750000E-02   0.9555163085E-01  -0.4775981542E-01  -0.4775981542E-01   0.6875000009E+01  -0.7119816170E-13  -0.7029617730E-13  -0.4149859060E-15  -0.5672358878E-15  -0.3403731289E-15   0.9330163097E-01  -0.4663706548E-01  -0.4663706548E-01   0.2172659081E-16   0.5613622216E-16   0.5988615536E-16   0.6875000009E+01
   0.0000000000E+00   0.9533629346E+00   0.9533629346E+00   0.0000000000E+00   0.1122750000E-02   0.1122750000E-02   0.0000000000E+00  -0.4775981542E-01  -0.4775981542E-01   0.6875000009E+01   0.1581043383E-13   0.1420566422E-13  -0.4900683548E-15   0.5087851985E-16   0.1369409107E-14   0.9330163097E-01  -0.4663706549E-01  -0.4663706549E-01  -0.8178504293E-16   0.9441906164E-16  -0.2987082324E-17   0.6875000009E+01
   0.2186603262E+01   0.0000000000E+00   0.1012762938E-16  -0.4500000000E-02   0.0000000000E+00  -0.6964631645E-17   0.1911032617E+00   0.0000000000E+00   0.1709226102E-16   0.6875000010E+01  -0.9274581103E-13  -0.9333757379E-13  -0.1653044520E-15   0.2648537625E-14   0.3084071791E-15   0.9330163099E-01  -0.4663706549E-01  -0.4663706549E-01  -0.2891346468E-16  -0.2277031918E-15  -0.1588970206E-16   0.6875000010E+01
   0.2186603262E+01   0.9533629346E+00   0.2079246147E-17  -0.4500000000E-02   0.1122750000E-02  -0.5061563666E-17   0.1911032617E+00  -0.4775981542E-01   0.7140809813E-17   0.6875000010E+01   0.8794273314E-13   0.8885667410E-13  -0.4387440578E-15  -0.2871626153E-14  -0.4670892998E-15   0.9330163098E-01  -0.4663706549E-01  -0.4663706549E-01  -0.2712199766E-16   0.3282837217E-15   0.9097573057E-16   0.6875000010E+01
   0.2186603262E+01   0.0000000000E+00   0.9533629346E+00  -0.4500000000E-02   0.0000000000E+00   0.1122750000E-02   0.1911032617E+00   0.0000000000E+00  -0.4775981542E-01   0.6875000010E+01  -0.1478353139E-13  -0.1443267288E-13  -0.3301281764E-15  -0.2916418304E-14   0.2602863422E-16   0.9330163098E-01  -0.4663706549E-01  -0.4663706549E-01   0.2100212475E-15  -0.2105866725E-15   0.2022965230E-16   0.6875000010E+01
   0.2186603262E+01   0.9533629346E+00   0.9533629346E+00  -0.4500000000E-02   0.1122750000E-02   0.1122750000E-02   0.1911032617E+00  -0.4775981542E-01  -0.4775981542E-01   0.6875000009E+01  -0.3083715676E-13  -0.3301881520E-13   0.8420852043E-15   0.3385234143E-14  -0.1815942196E-15   0.9330163097E-01  -0.4663706548E-01  -0.4663706548E-01   0.2779281243E-15   0.1137260522E-15   0.1247525932E-15   0.6875000009E+01
     1     2     3     4     5     6     7     8
     2     9    10     3     6    11    12     7
 VARIABLES = X,Y,Z,DU1,DU2,DU3,U1,U2,U3,S11,S22,S33,S12,S13,S23,E11,E22,E33,E12,E13,E23,SMISES
 ZONE, T="0.7300D+01" F=FEPOINT, I=   12 J=    2 ET=BRICK
   0.0000000000E+00   0.0000000000E+00   0.0000000000E+00   0.0000000000E+00   0.0000000000E+00   0.0000000000E+00   0.0000000000E+00   0.0000000000E+00   0.0000000000E+00   0.5750000009E+01   0.6958093250E-13   0.6662683304E-13   0.4871879255E-16  -0.9785000409E-15  -0.1032766481E-14   0.9105163099E-01  -0.4551431549E-01  -0.4551431549E-01   0.1486201109E-16  -0.2007245246E-17  -0.1725380944E-16   0.5750000009E+01
   0.1091051631E+01   0.0000000000E+00  -0.9827556636E-17  -0.2250000000E-02   0.0000000000E+00  -0.8372206015E-18   0.9330163085E-01   0.0000000000E+00  -0.8990336034E-17   0.5750000009E+01   0.1527937578E-13   0.1751508648E-13   0.3615871111E-15  -0.1092705496E-14   0.2257361962E-15   0.9105163099E-01  -0.4551431549E-01  -0.4551431549E-01  -0.1886599814E-15  -0.8654731837E-16  -0.3572580334E-16   0.5750000009E+01
   0.1091051631E+01   0.9544856846E+00  -0.2493208810E-16  -0.2250000000E-02   0.1122750000E-02  -0.6381185020E-18   0.9330163085E-01  -0.4663706542E-01  -0.2429396959E-16   0.5750000008E+01  -0.3422495462E-13  -0.3493716946E-13   0.7025932924E-15   0.8840928596E-15   0.3758128944E-15   0.9105163098E-01  -0.4551431549E-01  -0.4551431549E-01  -0.1684596505E-15   0.1707032430E-15   0.6483072860E-17   0.5750000008E+01
   0.0000000000E+00   0.9544856846E+00  -0.1991387793E-16   0.0000000000E+00   0.1122750000E-02   0.8602806472E-18   0.0000000000E+00  -0.4663706542E-01  -0.2077415857E-16   0.5750000008E+01  -0.1785980994E-13  -0.1455830340E-13   0.6686892591E-15  -0.1802405935E-15  -0.2929398260E-15   0.9105163098E-01  -0.4551431549E-01  -0.4551431549E-01   0.7447906120E-17  -0.2744011411E-16  -0.2566825326E-17   0.5750000008E+01
   0.0000000000E+00   0.0000000000E+00   0.9544856846E+00   0.0000000000E+00   0.0000000000E+00   0.1122750000E-02   0.0000000000E+00   0.0000000000E+00  -0.4663706542E-01   0.5750000008E+01   0.4009206418E-13   0.3932705993E-13   0.1546123569E-16   0.4659676528E-15   0.2187858518E-15   0.9105163098E-01  -0.4551431549E-01  -0.4551431549E-01  -0.2924776314E-16   0.1307987615E-18  -0.4895519867E-16   0.5750000008E+01
   0.1091051631E+01   0.0000000000E+00   0.9544856846E+00  -0.2250000000E-02   0.0000000000E+00   0.1122750000E-02   0.9330163085E-01   0.0000000000E+00  -0.4663706542E-01   0.5750000008E+01   0.9046251756E-13   0.8914074797E-13  -0.8678215575E-16   0.9426709725E-15  -0.9028416412E-16   0.9105163098E-01  -0.4551431549E-01  -0.4551431549E-01   0.5394488790E-16  -0.1183303926E-15   0.2716729142E-16   0.5750000008E+01
   0.1091051631E+01   0.9544856846E+00   0.9544856846E+00  -0.2250000000E-02   0.1122750000E-02   0.1122750000E-02   0.9330163085E-01  -0.4663706542E-01  -0.4663706542E-01   0.5750000008E+01   0.3606424563E-13   0.3744152636E-13  -0.4143748006E-15  -0.5031090313E-15  -0.1804519960E-15   0.9105163097E-01  -0.4551431548E-01  -0.4551431548E-01  -0.1171606062E-16   0.1148336415E-15   0.3526440467E-16   0.5750000008E+01
   0.0000000000E+00   0.9544856846E+00   0.9544856846E+00   0.0000000000E+00   0.1122750000E-02   0.1122750000E-02   0.0000000000E+00  -0.4663706542E-01  -0.4663706542E-01   0.5750000008E+01  -0.6018777182E-13  -0.6134772287E-13  -0.3429837504E-15  -0.2129069585E-16   0.1177976132E-14   0.9105163097E-01  -0.4551431548E-01  -0.4551431548E-01  -0.4654986514E-16   0.6938129508E-16   0.4735502379E-16   0.5750000008E+01
   0.2182103262E+01   0.0000000000E+00   0.7050465604E-17  -0.4500000000E-02   0.0000000000E+00  -0.3077163772E-17   0.1866032617E+00   0.0000000000E+00   0.1012762938E-16   0.5750000009E+01   0.6523613506E-13   0.6421442790E-13  -0.9140824080E-15   0.2904089328E-14   0.1855330774E-15   0.9105163098E-01  -0.4551431549E-01  -0.4551431549E-01   0.3787060561E-16  -0.1252222087E-15  -0.2911776196E-17   0.5750000009E+01
   0.2182103262E+01   0.9544856846E+00  -0.1718506828E-17  -0.4500000000E-02   0.1122750000E-02  -0.3797752975E-17   0.1866032617E+00  -0.4663706542E-01   0.2079246147E-17   0.5750000008E+01  -0.1274103222E-13  -0.1195570986E-13  -0.9113108221E-15  -0.2706529142E-14  -0.8062251917E-15   0.9105163097E-01  -0.4551431549E-01  -0.4551431549E-01  -0.5846868717E-17   0.2830924694E-15   0.4226170223E-16   0.5750000008E+01
   0.2182103262E+01   0.0000000000E+00   0.9544856846E+00  -0.4500000000E-02   0.0000000000E+00   0.1122750000E-02   0.1866032617E+00   0.0000000000E+00  -0.4663706542E-01   0.5750000008E+01   0.8875398638E-13   0.8905604142E-13  -0.5719651332E-15  -0.2979648511E-14   0.1505378641E-15   0.9105163097E-01  -0.4551431549E-01  -0.4551431549E-01   0.1258400983E-15  -0.3127484424E-16   0.5847458270E-17   0.5750000008E+01
   0.2182103262E+01   0.9544856846E+00   0.9544856846E+00  -0.4500000000E-02   0.1122750000E-02   0.1122750000E-02   0.1866032617E+00  -0.4663706542E-01  -0.4663706542E-01   0.5750000007E+01   0.8536222556E-13   0.8349404491E-13   0.5222610433E-15   0.3512204868E-14  -0.1836236023E-15   0.9105163096E-01  -0.4551431548E-01  -0.4551431548E-01   0.2318304826E-15  -0.8764046935E-16   0.1424364537E-15   0.5750000007E+01
     1     2     3     4     5     6     7     8
     2     9    10     3     6    11    12     7
 VARIABLES = X,Y,Z,DU1,DU2,DU3,U1,U2,U3,S11,S22,S33,S12,S13,S23,E11,E22,E33,E12,E13,E23,SMISES
 ZONE, T="0.7350D+01" F=FEPOINT, I=   12 J=    2 ET=BRICK
   0.0000000000E+00   0.0000000000E+00   0.0000000000E+00   0.0000000000E+00   0.0000000000E+00   0.0000000000E+00   0.0000000000E+00   0.0000000000E+00   0.0000000000E+00   0.4625000007E+01  -0.9636315049E-13  -0.9913982790E-13   0.6263891507E-16  -0.1016211624E-14  -0.1137393715E-14   0.8880163099E-01  -0.4439156549E-01  -0.4439156549E-01   0.1688114351E-17  -0.3107432328E-16  -0.3266346019E-16   0.4625000007E+01
   0.1088801631E+01   0.0000000000E+00  -0.9887228170E-17  -0.2250000000E-02   0.0000000000E+00  -0.5967153456E-19   0.9105163085E-01   0.0000000000E+00  -0.9827556636E-17   0.4625000007E+01   0.2585456661E-13   0.2785734409E-13   0.5537085661E-15  -0.1194594251E-14   0.2757006420E-15   0.8880163098E-01  -0.4439156549E-01  -0.4439156549E-01  -0.2010909017E-15  -0.7193078417E-16  -0.3563494205E-16   0.4625000007E+01
   0.1088801631E+01   0.9556084346E+00  -0.2478799406E-16  -0.2250000000E-02   0.1122750000E-02   0.1440940331E-18   0.9105163085E-01  -0.4551431542E-01  -0.2493208810E-16   0.4625000007E+01   0.2574993493E-13   0.2466401623E-13   0.8099308838E-15   0.1160950206E-14   0.3967219229E-15   0.8880163097E-01  -0.4439156549E-01  -0.4439156549E-01  -0.2184690465E-15   0.1599090618E-15  -0.1677916843E-16   0.4625000007E+01
   0.0000000000E+00   0.9556084346E+00  -0.2056814209E-16   0.0000000000E+00   0.1122750000E-02  -0.6542641620E-18   0.0000000000E+00  -0.4551431542E-01  -0.1991387793E-16   0.4625000007E+01  -0.2778875743E-13  -0.2440597693E-13   0.9345455219E-15  -0.9929099469E-16  -0.1873161527E-15   0.8880163098E-01  -0.4439156549E-01  -0.4439156549E-01   0.2209498948E-16  -0.1813659044E-18   0.6336873184E-17   0.4625000007E+01
   0.0000000000E+00   0.0000000000E+00   0.9556084346E+00   0.0000000000E+00   0.0000000000E+00   0.1122750000E-02   0.0000000000E+00   0.0000000000E+00  -0.4551431542E-01   0.4625000007E+01  -0.6281749241E-13  -0.6412273394E-13  -0.1400929809E-17   0.5586838889E-15   0.2527244396E-15   0.8880163098E-01  -0.4439156549E-01  -0.4439156549E-01   0.3872815245E-18   0.6594888514E-17  -0.6988349213E-16   0.4625000007E+01
   0.1088801631E+01   0.0000000000E+00   0.9556084346E+00  -0.2250000000E-02   0.0000000000E+00   0.1122750000E-02   0.9105163085E-01   0.0000000000E+00  -0.4551431542E-01   0.4625000007E+01  -0.5832864709E-13  -0.5969105370E-13   0.2895851846E-15   0.9769671123E-15  -0.3029166541E-15   0.8880163097E-01  -0.4439156549E-01  -0.4439156549E-01   0.7657703482E-17  -0.1392728413E-15   0.2013475225E-16   0.4625000007E+01
   0.1088801631E+01   0.9556084346E+00   0.9556084346E+00  -0.2250000000E-02   0.1122750000E-02   0.1122750000E-02   0.9105163085E-01  -0.4551431542E-01  -0.4551431542E-01   0.4625000006E+01  -0.9248478396E-14  -0.8296427139E-14  -0.2279722436E-15  -0.5202004474E-15  -0.3175355894E-15   0.8880163096E-01  -0.4439156548E-01  -0.4439156548E-01   0.2744665248E-16   0.1681618466E-15   0.3492946178E-16   0.4625000006E+01
   0.0000000000E+00   0.9556084346E+00   0.9556084346E+00   0.0000000000E+00   0.1122750000E-02   0.1122750000E-02   0.0000000000E+00  -0.4551431542E-01  -0.4551431542E-01   0.4625000006E+01   0.1277489279E-12   0.1268625471E-12  -0.3474667379E-15  -0.1418635799E-15   0.1348493288E-14   0.8880163096E-01  -0.4439156548E-01  -0.4439156548E-01  -0.4292889695E-16   0.7848623569E-16   0.6580408601E-16   0.4625000006E+01
   0.2177603262E+01   0.0000000000E+00   0.7356624126E-17  -0.4500000000E-02   0.0000000000E+00   0.3061585220E-18   0.1821032617E+00   0.0000000000E+00   0.7050465604E-17   0.4625000007E+01   0.4613730906E-13   0.4601068335E-13  -0.2328385637E-15   0.2604124436E-14   0.3518734438E-15   0.8880163098E-01  -0.4439156549E-01  -0.4439156549E-01  -0.1020710091E-16  -0.4428270934E-16  -0.1964528077E-16   0.4625000007E+01
   0.2177603262E+01   0.9556084346E+00  -0.5724449810E-18  -0.4500000000E-02   0.1122750000E-02   0.1146061847E-17   0.1821032617E+00  -0.4551431542E-01  -0.1718506828E-17   0.4625000006E+01   0.7439098596E-13   0.7539835294E-13  -0.5596183571E-15  -0.2869624875E-14  -0.6063517863E-15   0.8880163097E-01  -0.4439156548E-01  -0.4439156548E-01  -0.5058143984E-16   0.2636425692E-15   0.9795807060E-16   0.4625000006E+01
   0.2177603262E+01   0.0000000000E+00   0.9556084346E+00  -0.4500000000E-02   0.0000000000E+00   0.1122750000E-02   0.1821032617E+00   0.0000000000E+00  -0.4551431542E-01   0.4625000006E+01  -0.9470866375E-13  -0.9422918657E-13   0.2213508844E-15  -0.3436805768E-14   0.4991779393E-16   0.8880163097E-01  -0.4439156548E-01  -0.4439156548E-01   0.1965104971E-15  -0.5770761474E-16   0.4321607489E-16   0.4625000006E+01
   0.2177603262E+01   0.9556084346E+00   0.9556084346E+00  -0.4500000000E-02   0.1122750000E-02   0.1122750000E-02   0.1821032617E+00  -0.4551431542E-01  -0.4551431542E-01   0.4625000006E+01  -0.1969699479E-13  -0.2115083461E-13   0.9330540620E-15   0.3661987608E-14  -0.1557499609E-15   0.8880163096E-01  -0.4439156548E-01  -0.4439156548E-01   0.2803908870E-15   0.1083920781E-16   0.8136160651E-16   0.4625000006E+01
     1     2     3     4     5     6     7     8
     2     9    10     3     6    11    12     7
 VARIABLES = X,Y,Z,DU1,DU2,DU3,U1,U2,U3,S11,S22,S33,S12,S13,S23,E11,E22,E33,E12,E13,E23,SMISES
 ZONE, T="0.7400D+01" F=FEPOINT, I=   12 J=    2 ET=BRICK
   0.0000000000E+00   0.0000000000E+00   0.0000000000E+00   0.0000000000E+00   0.0000000000E+00   0.0000000000E+00   0.0000000000E+00   0.0000000000E+00   0.0000000000E+00   0.3500000005E+01   0.4201137309E-13   0.3887785880E-13   0.4163812801E-16  -0.1131050569E-14  -0.1085564160E-14   0.8655163098E-01  -0.4326881549E-01  -0.4326881549E-01   0.1528831531E-16  -0.3838727606E-16  -0.3569181590E-16   0.3500000005E+01
   0.1086551631E+01   0.0000000000E+00  -0.1052405887E-16  -0.2250000000E-02   0.0000000000E+00  -0.6368306980E-18   0.8880163085E-01   0.0000000000E+00  -0.9887228170E-17   0.3500000005E+01  -0.1660121357E-13  -0.1412858413E-13   0.4415280994E-15  -0.9716634195E-15   0.3127944855E-15   0.8655163098E-01  -0.4326881549E-01  -0.4326881549E-01  -0.2282627541E-15  -0.7480886911E-16  -0.4128297586E-16   0.3500000005E+01
   0.1086551631E+01   0.9567311846E+00  -0.2515433032E-16  -0.2250000000E-02   0.1122750000E-02  -0.3663362600E-18   0.8880163085E-01  -0.4439156542E-01  -0.2478799406E-16   0.3500000005E+01  -0.3903098037E-13  -0.4003163957E-13   0.6527627367E-15   0.9966558209E-15   0.4429541939E-15   0.8655163097E-01  -0.4326881548E-01  -0.4326881548E-01  -0.1975255495E-15   0.2166397849E-15   0.3048167311E-17   0.3500000005E+01
   0.0000000000E+00   0.9567311846E+00  -0.2018284584E-16   0.0000000000E+00   0.1122750000E-02   0.3852962496E-18   0.0000000000E+00  -0.4439156542E-01  -0.2056814209E-16   0.3500000005E+01  -0.6896334776E-13  -0.6574510794E-13   0.7605227955E-15  -0.1852374659E-15  -0.4314134838E-15   0.8655163097E-01  -0.4326881549E-01  -0.4326881549E-01   0.4182169672E-16  -0.1516876448E-16  -0.4643860939E-18   0.3500000005E+01
   0.0000000000E+00   0.0000000000E+00   0.9567311846E+00   0.0000000000E+00   0.0000000000E+00   0.1122750000E-02   0.0000000000E+00   0.0000000000E+00  -0.4439156542E-01   0.3500000005E+01   0.2011926290E-14   0.1679588600E-14  -0.3329745686E-17   0.5692427528E-15   0.2932686695E-15   0.8655163097E-01  -0.4326881549E-01  -0.4326881549E-01  -0.1692178988E-16  -0.3844182053E-17  -0.7686057467E-16   0.3500000005E+01
   0.1086551631E+01   0.0000000000E+00   0.9567311846E+00  -0.2250000000E-02   0.0000000000E+00   0.1122750000E-02   0.8880163085E-01   0.0000000000E+00  -0.4439156542E-01   0.3500000005E+01   0.9753274816E-13   0.9604444515E-13  -0.1330615295E-15   0.1042826275E-14  -0.2076163434E-15   0.8655163097E-01  -0.4326881548E-01  -0.4326881548E-01   0.3454965373E-16  -0.5912377331E-16   0.2317013647E-16   0.3500000005E+01
   0.1086551631E+01   0.9567311846E+00   0.9567311846E+00  -0.2250000000E-02   0.1122750000E-02   0.1122750000E-02   0.8880163085E-01  -0.4439156542E-01  -0.4439156542E-01   0.3500000005E+01   0.1579723107E-13   0.1714874899E-13  -0.6836881673E-15  -0.7769204902E-15  -0.2991098420E-15   0.8655163096E-01  -0.4326881548E-01  -0.4326881548E-01  -0.1607204283E-16   0.1175634752E-15   0.2482834016E-16   0.3500000005E+01
   0.0000000000E+00   0.9567311846E+00   0.9567311846E+00   0.0000000000E+00   0.1122750000E-02   0.1122750000E-02   0.0000000000E+00  -0.4439156542E-01  -0.4439156542E-01   0.3500000005E+01  -0.9401909619E-13  -0.9477214348E-13  -0.1374879956E-15  -0.1278350372E-15   0.1129482152E-14   0.8655163096E-01  -0.4326881548E-01  -0.4326881548E-01  -0.3916921879E-16   0.6144639014E-16   0.1235541380E-15   0.3500000005E+01
   0.2173103262E+01   0.0000000000E+00   0.4855361827E-17  -0.4500000000E-02   0.0000000000E+00  -0.2501262299E-17   0.1776032617E+00   0.0000000000E+00   0.7356624126E-17   0.3500000005E+01   0.5284855407E-13   0.5272392113E-13  -0.2915128489E-15   0.2700121932E-14   0.5366779097E-15   0.8655163098E-01  -0.4326881549E-01  -0.4326881549E-01   0.2333074910E-16  -0.9597984962E-16  -0.6041294192E-18   0.3500000005E+01
   0.2173103262E+01   0.9567311846E+00  -0.2148522472E-17  -0.4500000000E-02   0.1122750000E-02  -0.1576077491E-17   0.1776032617E+00  -0.4439156542E-01  -0.5724449810E-18   0.3500000005E+01   0.5231067057E-13   0.5284619282E-13  -0.4540591932E-15  -0.2724375974E-14  -0.6274409301E-15   0.8655163097E-01  -0.4326881548E-01  -0.4326881548E-01  -0.1862512979E-16   0.2186395224E-15   0.7408901095E-16   0.3500000005E+01
   0.2173103262E+01   0.0000000000E+00   0.9567311846E+00  -0.4500000000E-02   0.0000000000E+00   0.1122750000E-02   0.1776032617E+00   0.0000000000E+00  -0.4439156542E-01   0.3500000005E+01   0.5395660508E-13   0.5440288235E-13  -0.3122400620E-15  -0.2842518544E-14  -0.6275248988E-16   0.8655163097E-01  -0.4326881548E-01  -0.4326881548E-01   0.1180217966E-15  -0.1225470751E-15   0.1425058401E-16   0.3500000005E+01
   0.2173103262E+01   0.9567311846E+00   0.9567311846E+00  -0.4500000000E-02   0.1122750000E-02   0.1122750000E-02   0.1776032617E+00  -0.4439156542E-01  -0.4439156542E-01   0.3500000004E+01  -0.7448504024E-14  -0.8865158433E-14   0.6101319096E-15   0.3391419652E-14  -0.1894987195E-15   0.8655163096E-01  -0.4326881548E-01  -0.4326881548E-01   0.2076868868E-15   0.3406646805E-16   0.1453051982E-15   0.3500000004E+01
     1     2     3     4     5     6     7     8
     2     9    10     3     6    11    12     7
 VARIABLES = X,Y,Z,DU1,DU2,DU3,U1,U2,U3,S11,S22,S33,S12,S13,S23,E11,E22,E33,E12,E13,E23,SMISES
 ZONE, T="0.7450D+01" F=FEPOINT, I=   12 J=    2 ET=BRICK
   0.0000000000E+00   0.0000000000E+00   0.0000000000E+00   0.0000000000E+00   0.0000000000E+00   0.0000000000E+00   0.0000000000E+00   0.0000000000E+00   0.0000000000E+00   0.2375000004E+01  -0.7461407292E-13  -0.7809698709E-13   0.2133756027E-16  -0.1295016552E-14  -0.9638542959E-15   0.8430163098E-01  -0.4214606549E-01  -0.4214606549E-01  -0.7335614488E-17  -0.1942314289E-16  -0.3389926137E-16   0.2375000004E+01
   0.1084301631E+01   0.0000000000E+00  -0.1204921619E-16  -0.2250000000E-02   0.0000000000E+00  -0.1525157322E-17   0.8655163085E-01   0.0000000000E+00  -0.1052405887E-16   0.2375000004E+01   0.2518560749E-13   0.2665213318E-13   0.6319929003E-15  -0.1055445120E-14   0.5377954563E-15   0.8430163098E-01  -0.4214606549E-01  -0.4214606549E-01  -0.1723010329E-15  -0.3717636343E-16  -0.2216162997E-16   0.2375000004E+01
   0.1084301631E+01   0.9578539346E+00  -0.2520895107E-16  -0.2250000000E-02   0.1122750000E-02  -0.5462074918E-19   0.8655163085E-01  -0.4326881542E-01  -0.2515433032E-16   0.2375000003E+01   0.4238978174E-13   0.4057531504E-13   0.8704054302E-15   0.9660639532E-15   0.8802610677E-16   0.8430163097E-01  -0.4214606548E-01  -0.4214606548E-01  -0.2132542429E-15   0.1149460000E-15  -0.2792203997E-17   0.2375000003E+01
   0.0000000000E+00   0.9578539346E+00  -0.1949956512E-16   0.0000000000E+00   0.1122750000E-02   0.6832807166E-18   0.0000000000E+00  -0.4326881542E-01  -0.2018284584E-16   0.2375000003E+01   0.6589176307E-13   0.6895289926E-13   0.1054029244E-14  -0.1651418495E-15  -0.5723577512E-15   0.8430163097E-01  -0.4214606548E-01  -0.4214606548E-01   0.4942729837E-16  -0.2199600691E-16  -0.9777735330E-17   0.2375000003E+01
   0.0000000000E+00   0.0000000000E+00   0.9578539346E+00   0.0000000000E+00   0.0000000000E+00   0.1122750000E-02   0.0000000000E+00   0.0000000000E+00  -0.4326881542E-01   0.2375000003E+01  -0.2483913195E-13  -0.2522080705E-13  -0.7253675598E-18   0.3888792175E-15   0.5470696381E-15   0.8430163097E-01  -0.4214606548E-01  -0.4214606548E-01   0.3512373742E-18  -0.4976780742E-16  -0.4057676817E-16   0.2375000003E+01
   0.1084301631E+01   0.0000000000E+00   0.9578539346E+00  -0.2250000000E-02   0.0000000000E+00   0.1122750000E-02   0.8655163085E-01   0.0000000000E+00  -0.4326881542E-01   0.2375000003E+01  -0.2856672399E-13  -0.2956485655E-13  -0.1117125794E-16   0.1081642055E-14   0.7470996162E-16   0.8430163097E-01  -0.4214606548E-01  -0.4214606548E-01  -0.1859691897E-16  -0.8623539432E-16   0.1608888345E-16   0.2375000003E+01
   0.1084301631E+01   0.9578539346E+00   0.9578539346E+00  -0.2250000000E-02   0.1122750000E-02   0.1122750000E-02   0.8655163085E-01  -0.4326881542E-01  -0.4326881542E-01   0.2375000003E+01  -0.1660589105E-13  -0.1473843986E-13  -0.6577464285E-15  -0.8389718717E-15  -0.6822204514E-15   0.8430163096E-01  -0.4214606548E-01  -0.4214606548E-01   0.3051156230E-16   0.1198090096E-15   0.4955112943E-16   0.2375000003E+01
   0.0000000000E+00   0.9578539346E+00   0.9578539346E+00   0.0000000000E+00   0.1122750000E-02   0.1122750000E-02   0.0000000000E+00  -0.4326881542E-01  -0.4326881542E-01   0.2375000003E+01   0.1038676434E-12   0.1033408217E-12  -0.3584243439E-15  -0.1715429494E-15   0.1116218616E-14   0.8430163096E-01  -0.4214606548E-01  -0.4214606548E-01  -0.2124305181E-16   0.1065786846E-15   0.2312623222E-16   0.2375000003E+01
   0.2168603262E+01   0.0000000000E+00  -0.3662405900E-18  -0.4500000000E-02   0.0000000000E+00  -0.5221602417E-17   0.1731032617E+00   0.0000000000E+00   0.4855361827E-17   0.2375000004E+01   0.1284629427E-13   0.1237226147E-13  -0.1484794857E-15   0.2759307218E-14   0.6850851412E-15   0.8430163097E-01  -0.4214606549E-01  -0.4214606549E-01   0.2031909999E-16  -0.5308120177E-16  -0.7775672017E-17   0.2375000004E+01
   0.2168603262E+01   0.9578539346E+00  -0.6498725933E-17  -0.4500000000E-02   0.1122750000E-02  -0.4350203462E-17   0.1731032617E+00  -0.4326881542E-01  -0.2148522472E-17   0.2375000003E+01  -0.5177944600E-13  -0.5106796050E-13  -0.6161488521E-15  -0.2967309495E-14  -0.8104259584E-15   0.8430163096E-01  -0.4214606548E-01  -0.4214606548E-01  -0.2610603574E-16   0.2910178782E-15   0.6751269671E-16   0.2375000003E+01
   0.2168603262E+01   0.0000000000E+00   0.9578539346E+00  -0.4500000000E-02   0.0000000000E+00   0.1122750000E-02   0.1731032617E+00   0.0000000000E+00  -0.4326881542E-01   0.2375000003E+01   0.2260464301E-13   0.2339560523E-13  -0.4887218170E-16  -0.3045141285E-14   0.1729394014E-15   0.8430163096E-01  -0.4214606548E-01  -0.4214606548E-01   0.1820001657E-15  -0.4746918281E-16   0.1785789442E-16   0.2375000003E+01
   0.2168603262E+01   0.9578539346E+00   0.9578539346E+00  -0.4500000000E-02   0.1122750000E-02   0.1122750000E-02   0.1731032617E+00  -0.4326881542E-01  -0.4326881542E-01   0.2375000003E+01   0.3255614272E-13   0.3159320280E-13   0.1123692101E-14   0.3771085906E-14  -0.2522025561E-15   0.8430163095E-01  -0.4214606548E-01  -0.4214606548E-01   0.2630725897E-15  -0.2936888787E-16   0.1415378417E-15   0.2375000003E+01
     1     2     3     4     5     6     7     8
     2     9    10     3     6    11    12     7
 VARIABLES = X,Y,Z,DU1,DU2,DU3,U1,U2,U3,S11,S22,S33,S12,S13,S23,E11,E22,E33,E12,E13,E23,SMISES
 ZONE, T="0.7500D+01" F=FEPOINT, I=   12 J=    2 ET=BRICK
   0.0000000000E+00   0.0000000000E+00   0.0000000000E+00   0.0000000000E+00   0.0000000000E+00   0.0000000000E+00   0.0000000000E+00   0.0000000000E+00   0.0000000000E+00   0.1250000002E+01   0.1196580155E-12   0.1166118511E-12   0.4041132776E-16  -0.1089412223E-14  -0.1073627681E-14   0.8205163097E-01  -0.4102331549E-01  -0.4102331549E-01  -0.9925525474E-17  -0.2166145817E-16  -0.3107260306E-16   0.1250000002E+01
   0.1082051631E+01   0.0000000000E+00  -0.1030366761E-16  -0.2250000000E-02   0.0000000000E+00   0.1745548575E-17   0.8430163085E-01   0.0000000000E+00  -0.1204921619E-16   0.1250000002E+01  -0.1149622456E-13  -0.9513765585E-14   0.3682807982E-15  -0.1122740044E-14   0.3089565943E-15   0.8205163097E-01  -0.4102331549E-01  -0.4102331549E-01  -0.1642644778E-15  -0.5569064979E-16  -0.3745711857E-16   0.1250000002E+01
   0.1082051631E+01   0.9589766846E+00  -0.2481850212E-16  -0.2250000000E-02   0.1122750000E-02   0.3904489506E-18   0.8430163085E-01  -0.4214606542E-01  -0.2520895107E-16   0.1250000002E+01   0.1706056875E-13   0.1570107985E-13   0.7285514629E-15   0.9974365553E-15   0.3580901413E-15   0.8205163096E-01  -0.4102331548E-01  -0.4102331548E-01  -0.1871812319E-15   0.7615640184E-16   0.6415537846E-17   0.1250000002E+01
   0.0000000000E+00   0.9589766846E+00  -0.2008653899E-16   0.0000000000E+00   0.1122750000E-02  -0.5869738719E-18   0.0000000000E+00  -0.4214606542E-01  -0.1949956512E-16   0.1250000002E+01  -0.5112281843E-13  -0.4795501014E-13   0.9220918976E-15  -0.1332997842E-15  -0.3230176655E-15   0.8205163097E-01  -0.4102331548E-01  -0.4102331548E-01   0.3674686197E-16   0.4234668367E-17  -0.2348703798E-17   0.1250000002E+01
   0.0000000000E+00   0.0000000000E+00   0.9589766846E+00   0.0000000000E+00   0.0000000000E+00   0.1122750000E-02   0.0000000000E+00   0.0000000000E+00  -0.4214606542E-01   0.1250000002E+01  -0.1506922352E-13  -0.1548954285E-13   0.5539822991E-17   0.5385032361E-15   0.3177018481E-15   0.8205163097E-01  -0.4102331548E-01  -0.4102331548E-01   0.1243954700E-16  -0.1593479357E-16  -0.1893325605E-16   0.1250000002E+01
   0.1082051631E+01   0.0000000000E+00   0.9589766846E+00  -0.2250000000E-02   0.0000000000E+00   0.1122750000E-02   0.8430163085E-01   0.0000000000E+00  -0.4214606542E-01   0.1250000002E+01  -0.4568541290E-14  -0.5991173933E-14  -0.1448982871E-15   0.1030618185E-14  -0.1951067445E-15   0.8205163096E-01  -0.4102331548E-01  -0.4102331548E-01  -0.2861917702E-16  -0.9373242845E-16   0.4585262609E-16   0.1250000002E+01
   0.1082051631E+01   0.9589766846E+00   0.9589766846E+00  -0.2250000000E-02   0.1122750000E-02   0.1122750000E-02   0.8430163085E-01  -0.4214606542E-01  -0.4214606542E-01   0.1250000002E+01   0.1906383276E-13   0.2030160622E-13  -0.8205083368E-15  -0.7833694063E-15  -0.3915747798E-15   0.8205163095E-01  -0.4102331548E-01  -0.4102331548E-01   0.5430349561E-17   0.8721102632E-16   0.1372259676E-17   0.1250000002E+01
   0.0000000000E+00   0.9589766846E+00   0.9589766846E+00   0.0000000000E+00   0.1122750000E-02   0.1122750000E-02   0.0000000000E+00  -0.4214606542E-01  -0.4214606542E-01   0.1250000002E+01  -0.3558271029E-13  -0.3645893189E-13  -0.1811211717E-15  -0.3476192312E-16   0.1168035926E-14   0.8205163096E-01  -0.4102331548E-01  -0.4102331548E-01  -0.4601695484E-16   0.8384605856E-16   0.7791695817E-16   0.1250000002E+01
   0.2164103262E+01   0.0000000000E+00   0.5205121689E-17  -0.4500000000E-02   0.0000000000E+00   0.5571362279E-17   0.1686032617E+00   0.0000000000E+00  -0.3662405900E-18   0.1250000002E+01  -0.1119612349E-12  -0.1121122624E-12   0.2570958680E-17   0.2839202489E-14   0.5831386228E-15   0.8205163097E-01  -0.4102331549E-01  -0.4102331549E-01   0.1228994360E-16  -0.2926138935E-16   0.3131356182E-17   0.1250000002E+01
   0.2164103262E+01   0.9589766846E+00  -0.1388491859E-17  -0.4500000000E-02   0.1122750000E-02   0.5110234075E-17   0.1686032617E+00  -0.4214606542E-01  -0.6498725933E-17   0.1250000002E+01   0.4962951465E-13   0.5025066106E-13  -0.2913604455E-15  -0.2864333320E-14  -0.6794755174E-15   0.8205163096E-01  -0.4102331548E-01  -0.4102331548E-01  -0.1898686471E-16   0.2423402416E-15   0.6015232574E-16   0.1250000002E+01
   0.2164103262E+01   0.0000000000E+00   0.9589766846E+00  -0.4500000000E-02   0.0000000000E+00   0.1122750000E-02   0.1686032617E+00   0.0000000000E+00  -0.4214606542E-01   0.1250000002E+01  -0.6748538872E-13  -0.6689960418E-13  -0.1166677928E-15  -0.3103308367E-14   0.3282993286E-16   0.8205163096E-01  -0.4102331548E-01  -0.4102331548E-01   0.1311913252E-15  -0.4084321259E-17  -0.9564455146E-17   0.1250000002E+01
   0.2164103262E+01   0.9589766846E+00   0.9589766846E+00  -0.4500000000E-02   0.1122750000E-02   0.1122750000E-02   0.1686032617E+00  -0.4214606542E-01  -0.4214606542E-01   0.1250000002E+01   0.5811815517E-14   0.4499475722E-14   0.1057922859E-14   0.3861033499E-14  -0.2520645163E-15   0.8205163095E-01  -0.4102331548E-01  -0.4102331548E-01   0.1912323079E-15  -0.1118980942E-15   0.1757145116E-15   0.1250000002E+01
     1     2     3     4     5     6     7     8
     2     9    10     3     6    11    12     7
 VARIABLES = X,Y,Z,DU1,DU2,DU3,U1,U2,U3,S11,S22,S33,S12,S13,S23,E11,E22,E33,E12,E13,E23,SMISES
 ZONE, T="0.7550D+01" F=FEPOINT, I=   12 J=    2 ET=BRICK
   0.0000000000E+00   0.0000000000E+00   0.0000000000E+00   0.0000000000E+00   0.0000000000E+00   0.0000000000E+00   0.0000000000E+00   0.0000000000E+00   0.0000000000E+00   0.1250000002E+00  -0.7558709918E-13  -0.7848982528E-13   0.3845268805E-16  -0.1099249258E-14  -0.1112074363E-14   0.7980163097E-01  -0.3990056549E-01  -0.3990056549E-01  -0.1308936914E-16  -0.3626144515E-16  -0.4013165524E-16   0.1250000002E+00
   0.1079801631E+01   0.0000000000E+00  -0.1032190228E-16  -0.2250000000E-02   0.0000000000E+00  -0.1823466792E-19   0.8205163085E-01   0.0000000000E+00  -0.1030366761E-16   0.1250000002E+00  -0.6192415842E-13  -0.5983412216E-13   0.5832786418E-15  -0.9458064788E-15   0.2486172998E-15   0.7980163097E-01  -0.3990056548E-01  -0.3990056548E-01  -0.1761033686E-15  -0.4769814512E-16  -0.2213985813E-16   0.1250000002E+00
   0.1079801631E+01   0.9600994346E+00  -0.2502102355E-16  -0.2250000000E-02   0.1122750000E-02  -0.2025214255E-18   0.8205163085E-01  -0.4102331542E-01  -0.2481850212E-16   0.1250000002E+00   0.1073516406E-13   0.9573549228E-14   0.9567340621E-15   0.8219169792E-15   0.4001767250E-15   0.7980163096E-01  -0.3990056548E-01  -0.3990056548E-01  -0.1848991243E-15   0.1569141528E-15  -0.6582581951E-17   0.1250000002E+00
   0.0000000000E+00   0.9600994346E+00  -0.2049034529E-16   0.0000000000E+00   0.1122750000E-02  -0.4038062962E-18   0.0000000000E+00  -0.4102331542E-01  -0.2008653899E-16   0.1250000002E+00  -0.1221417052E-13  -0.8948072374E-14   0.9200800035E-15  -0.7746855021E-16  -0.3017707434E-15   0.7980163096E-01  -0.3990056548E-01  -0.3990056548E-01   0.4412904406E-16  -0.1315647819E-16   0.1199040246E-16   0.1250000002E+00
   0.0000000000E+00   0.0000000000E+00   0.9600994346E+00   0.0000000000E+00   0.0000000000E+00   0.1122750000E-02   0.0000000000E+00   0.0000000000E+00  -0.4102331542E-01   0.1250000002E+00   0.8529395437E-13   0.8470296056E-13   0.1978023721E-16   0.5490008820E-15   0.2429518254E-15   0.7980163096E-01  -0.3990056548E-01  -0.3990056548E-01   0.1047753726E-16  -0.1849534495E-16  -0.7250532056E-16   0.1250000002E+00
   0.1079801631E+01   0.0000000000E+00   0.9600994346E+00  -0.2250000000E-02   0.0000000000E+00   0.1122750000E-02   0.8205163085E-01   0.0000000000E+00  -0.4102331542E-01   0.1250000002E+00   0.3452989113E-13   0.3319052521E-13  -0.2377425339E-15   0.1045399749E-14  -0.1631111188E-15   0.7980163096E-01  -0.3990056548E-01  -0.3990056548E-01  -0.1503115708E-16  -0.1006923777E-15   0.4026685648E-16   0.1250000002E+00
   0.1079801631E+01   0.9600994346E+00   0.9600994346E+00  -0.2250000000E-02   0.1122750000E-02   0.1122750000E-02   0.8205163085E-01  -0.4102331542E-01  -0.4102331542E-01   0.1250000002E+00  -0.5849888762E-14  -0.4438551796E-14  -0.9656710410E-15  -0.8422267343E-15  -0.4487768497E-15   0.7980163095E-01  -0.3990056548E-01  -0.3990056548E-01  -0.8402869040E-17   0.1652286155E-15   0.3368317330E-16   0.1250000002E+00
   0.0000000000E+00   0.9600994346E+00   0.9600994346E+00   0.0000000000E+00   0.1122750000E-02   0.1122750000E-02   0.0000000000E+00  -0.4102331542E-01  -0.4102331542E-01   0.1250000002E+00   0.2813662223E-13   0.2704457776E-13  -0.3688148808E-15  -0.7577197465E-16   0.1359912616E-14   0.7980163095E-01  -0.3990056548E-01  -0.3990056548E-01  -0.5143555555E-16   0.7619206082E-16   0.6374031472E-16   0.1250000002E+00
   0.2159603262E+01   0.0000000000E+00   0.5325226509E-17  -0.4500000000E-02   0.0000000000E+00   0.1201048198E-18   0.1641032617E+00   0.0000000000E+00   0.5205121689E-17   0.1250000002E+00   0.2046045395E-14   0.1966503037E-14  -0.1221753140E-15   0.2917565896E-14   0.5495223235E-15   0.7980163097E-01  -0.3990056548E-01  -0.3990056548E-01   0.1819422085E-16   0.1121327050E-16  -0.2879849617E-16   0.1250000002E+00
   0.2159603262E+01   0.9600994346E+00  -0.1694043100E-17  -0.4500000000E-02   0.1122750000E-02  -0.3055512414E-18   0.1641032617E+00  -0.4102331542E-01  -0.1388491859E-17   0.1250000002E+00  -0.3590056539E-13  -0.3521117539E-13  -0.3619048338E-15  -0.3118647446E-14  -0.7454992660E-15   0.7980163096E-01  -0.3990056548E-01  -0.3990056548E-01  -0.5314721769E-16   0.1768341419E-15   0.8285384808E-16   0.1250000002E+00
   0.2159603262E+01   0.0000000000E+00   0.9600994346E+00  -0.4500000000E-02   0.0000000000E+00   0.1122750000E-02   0.1641032617E+00   0.0000000000E+00  -0.4102331542E-01   0.1250000002E+00   0.3897675222E-13   0.3950399656E-13  -0.4516500383E-15  -0.3162829217E-14  -0.2066388838E-16   0.7980163096E-01  -0.3990056548E-01  -0.3990056548E-01   0.1597241157E-15  -0.1317037386E-15   0.2966428033E-16   0.1250000002E+00
   0.2159603262E+01   0.9600994346E+00   0.9600994346E+00  -0.4500000000E-02   0.1122750000E-02   0.1122750000E-02   0.1641032617E+00  -0.4102331542E-01  -0.4102331542E-01   0.1250000002E+00  -0.3345232859E-13  -0.3482645009E-13   0.8127944304E-15   0.3726727092E-14  -0.1413226423E-15   0.7980163095E-01  -0.3990056547E-01  -0.3990056547E-01   0.2613899315E-15   0.4326286380E-16   0.1216411231E-15   0.1250000002E+00
     1     2     3     4     5     6     7     8
     2     9    10     3     6    11    12     7
 VARIABLES = X,Y,Z,DU1,DU2,DU3,U1,U2,U3,S11,S22,S33,S12,S13,S23,E11,E22,E33,E12,E13,E23,SMISES
 ZONE, T="0.7600D+01" F=FEPOINT, I=   12 J=    2 ET=BRICK
   0.0000000000E+00   0.0000000000E+00   0.0000000000E+00   0.0000000000E+00   0.0000000000E+00   0.0000000000E+00   0.0000000000E+00   0.0000000000E+00   0.0000000000E+00  -0.1000000002E+01   0.6365562212E-13   0.6073961984E-13   0.7588076825E-16  -0.1089780422E-14  -0.1063666315E-14   0.7755163097E-01  -0.3877781548E-01  -0.3877781548E-01  -0.8860433687E-17  -0.3298894915E-16  -0.3126685097E-16   0.1000000002E+01
   0.1077551631E+01   0.0000000000E+00  -0.9785934896E-17  -0.2250000000E-02   0.0000000000E+00   0.5359673869E-18   0.7980163085E-01   0.0000000000E+00  -0.1032190228E-16  -0.1000000002E+01   0.4342047868E-14   0.6405416104E-14   0.3707848371E-15  -0.1083733737E-14   0.3765780902E-15   0.7755163097E-01  -0.3877781548E-01  -0.3877781548E-01  -0.1802586944E-15  -0.8197975398E-16  -0.4286047956E-16   0.1000000002E+01
   0.1077551631E+01   0.9612221846E+00  -0.2371772073E-16  -0.2250000000E-02   0.1122750000E-02   0.1303302822E-17   0.7980163085E-01  -0.3990056542E-01  -0.2502102355E-16  -0.1000000001E+01   0.5806681238E-14   0.4569734956E-14   0.7802992329E-15   0.9425494596E-15   0.5271035843E-15   0.7755163096E-01  -0.3877781548E-01  -0.3877781548E-01  -0.2083519653E-15   0.1752392187E-15   0.1976386253E-16   0.1000000001E+01
   0.0000000000E+00   0.9612221846E+00  -0.2018335641E-16   0.0000000000E+00   0.1122750000E-02   0.3069888838E-18   0.0000000000E+00  -0.3990056542E-01  -0.2049034529E-16  -0.1000000001E+01   0.4722335726E-13   0.5036744435E-13   0.9191592893E-15   0.5776974678E-16  -0.3789673629E-15   0.7755163096E-01  -0.3877781548E-01  -0.3877781548E-01   0.4132789631E-16   0.3813269612E-17   0.1399429776E-16   0.1000000001E+01
   0.0000000000E+00   0.0000000000E+00   0.9612221846E+00   0.0000000000E+00   0.0000000000E+00   0.1122750000E-02   0.0000000000E+00   0.0000000000E+00  -0.3990056542E-01  -0.1000000001E+01  -0.8078222900E-13  -0.8108204734E-13   0.2166349755E-16   0.5151733357E-15   0.2639868028E-15   0.7755163096E-01  -0.3877781548E-01  -0.3877781548E-01   0.8294668880E-17  -0.1510979779E-16  -0.6086299133E-16   0.1000000001E+01
   0.1077551631E+01   0.0000000000E+00   0.9612221846E+00  -0.2250000000E-02   0.0000000000E+00   0.1122750000E-02   0.7980163085E-01   0.0000000000E+00  -0.3990056542E-01  -0.1000000001E+01  -0.6274271490E-13  -0.6404280492E-13  -0.2737803114E-16   0.8004578826E-15  -0.1177797380E-15   0.7755163096E-01  -0.3877781548E-01  -0.3877781548E-01  -0.1873124587E-16  -0.9609353396E-16   0.4944435093E-16   0.1000000001E+01
   0.1077551631E+01   0.9612221846E+00   0.9612221846E+00  -0.2250000000E-02   0.1122750000E-02   0.1122750000E-02   0.7980163085E-01  -0.3990056542E-01  -0.3990056542E-01  -0.1000000001E+01  -0.1201818091E-13  -0.1066902046E-13  -0.6781226952E-15  -0.6920997238E-15  -0.4470513592E-15   0.7755163095E-01  -0.3877781547E-01  -0.3877781547E-01   0.2944984585E-16   0.1555532512E-15   0.3820576484E-16   0.1000000001E+01
   0.0000000000E+00   0.9612221846E+00   0.9612221846E+00   0.0000000000E+00   0.1122750000E-02   0.1122750000E-02   0.0000000000E+00  -0.3990056542E-01  -0.3990056542E-01  -0.1000000001E+01   0.2576368332E-13   0.2468346280E-13  -0.3498633631E-15   0.3211761701E-16   0.1304354400E-14   0.7755163095E-01  -0.3877781547E-01  -0.3877781547E-01  -0.4344249455E-16   0.5696520309E-16   0.8159914454E-16   0.1000000001E+01
   0.2155103262E+01   0.0000000000E+00   0.8534921159E-17  -0.4500000000E-02   0.0000000000E+00   0.3209694650E-17   0.1596032617E+00   0.0000000000E+00   0.5325226509E-17  -0.1000000002E+01   0.6965442364E-13   0.6906719344E-13  -0.3758902546E-15   0.2850230655E-14   0.3925589525E-15   0.7755163096E-01  -0.3877781548E-01  -0.3877781548E-01   0.1202494071E-16  -0.1017315754E-15  -0.2310155282E-18   0.1000000002E+01
   0.2155103262E+01   0.9612221846E+00   0.5927328468E-18  -0.4500000000E-02   0.1122750000E-02   0.2286775947E-17   0.1596032617E+00  -0.3990056542E-01  -0.1694043100E-17  -0.1000000001E+01   0.2300072863E-13   0.2365031115E-13  -0.5150381776E-15  -0.2856074532E-14  -0.9883818987E-15   0.7755163095E-01  -0.3877781548E-01  -0.3877781548E-01  -0.3428432565E-16   0.1830993269E-15   0.6205358982E-16   0.1000000001E+01
   0.2155103262E+01   0.0000000000E+00   0.9612221846E+00  -0.4500000000E-02   0.0000000000E+00   0.1122750000E-02   0.1596032617E+00   0.0000000000E+00  -0.3990056542E-01  -0.1000000001E+01  -0.2389556577E-13  -0.2342556731E-13  -0.1633731777E-15  -0.3444910422E-14   0.3106838233E-16   0.7755163095E-01  -0.3877781548E-01  -0.3877781548E-01   0.1607162574E-15  -0.1075938886E-15   0.1198337415E-17   0.1000000001E+01
   0.2155103262E+01   0.9612221846E+00   0.9612221846E+00  -0.4500000000E-02   0.1122750000E-02   0.1122750000E-02   0.1596032617E+00  -0.3990056542E-01  -0.3990056542E-01  -0.1000000001E+01  -0.2376188509E-13  -0.2494877776E-13   0.1034641335E-14   0.3967063419E-14  -0.2275671001E-15   0.7755163095E-01  -0.3877781547E-01  -0.3877781547E-01   0.2539541685E-15  -0.6269699949E-16   0.1389715632E-15   0.1000000001E+01
     1     2     3     4     5     6     7     8
     2     9    10     3     6    11    12     7
 VARIABLES = X,Y,Z,DU1,DU2,DU3,U1,U2,U3,S11,S22,S33,S12,S13,S23,E11,E22,E33,E12,E13,E23,SMISES
 ZONE, T="0.7650D+01" F=FEPOINT, I=   12 J=    2 ET=BRICK
   0.0000000000E+00   0.0000000000E+00   0.0000000000E+00   0.0000000000E+00   0.0000000000E+00   0.0000000000E+00   0.0000000000E+00   0.0000000000E+00   0.0000000000E+00  -0.2125000003E+01  -0.2176662552E-13  -0.2450303061E-13   0.9024865299E-16  -0.1063258536E-14  -0.1049842735E-14   0.7530163096E-01  -0.3765506548E-01  -0.3765506548E-01   0.1586305703E-16  -0.4826102002E-16  -0.3730186741E-16   0.2125000003E+01
   0.1075301631E+01   0.0000000000E+00  -0.1000301580E-16  -0.2250000000E-02   0.0000000000E+00  -0.2170809078E-18   0.7755163085E-01   0.0000000000E+00  -0.9785934896E-17  -0.2125000003E+01   0.5385959279E-13   0.5594835913E-13   0.4672255490E-15  -0.9574521015E-15   0.4284702039E-15   0.7530163096E-01  -0.3765506548E-01  -0.3765506548E-01  -0.2095022077E-15  -0.4483478356E-16  -0.3801418287E-16   0.2125000003E+01
   0.1075301631E+01   0.9623449346E+00  -0.2367162087E-16  -0.2250000000E-02   0.1122750000E-02   0.4609985497E-19   0.7755163085E-01  -0.3877781542E-01  -0.2371772073E-16  -0.2125000003E+01   0.2971852853E-14   0.1504063827E-14   0.9437592062E-15   0.7938133611E-15   0.5747253748E-15   0.7530163095E-01  -0.3765506548E-01  -0.3765506548E-01  -0.2019133289E-15   0.1353163550E-15  -0.1190273320E-16   0.2125000003E+01
   0.0000000000E+00   0.9623449346E+00  -0.2011597636E-16   0.0000000000E+00   0.1122750000E-02   0.6738004409E-19   0.0000000000E+00  -0.3877781542E-01  -0.2018335641E-16  -0.2125000003E+01   0.5666690797E-13   0.5991353502E-13   0.1069992026E-14   0.7739243821E-16  -0.2911379412E-15   0.7530163096E-01  -0.3765506548E-01  -0.3765506548E-01   0.4250058567E-16   0.2071646545E-18   0.3740411389E-16   0.2125000003E+01
   0.0000000000E+00   0.0000000000E+00   0.9623449346E+00   0.0000000000E+00   0.0000000000E+00   0.1122750000E-02   0.0000000000E+00   0.0000000000E+00  -0.3877781542E-01  -0.2125000003E+01   0.5771747731E-13   0.5741226352E-13   0.3272561821E-17   0.5428701025E-15   0.1103024075E-15   0.7530163096E-01  -0.3765506548E-01  -0.3765506548E-01  -0.2101634909E-16  -0.2430825189E-16  -0.6418087966E-16   0.2125000003E+01
   0.1075301631E+01   0.0000000000E+00   0.9623449346E+00  -0.2250000000E-02   0.0000000000E+00   0.1122750000E-02   0.7755163085E-01   0.0000000000E+00  -0.3877781542E-01  -0.2125000003E+01   0.1228829505E-13   0.1115609953E-13  -0.1302555719E-15   0.8165769970E-15  -0.1749696675E-15   0.7530163095E-01  -0.3765506548E-01  -0.3765506548E-01   0.2770259221E-16  -0.7160281342E-16   0.5167220851E-16   0.2125000003E+01
   0.1075301631E+01   0.9623449346E+00   0.9623449346E+00  -0.2250000000E-02   0.1122750000E-02   0.1122750000E-02   0.7755163085E-01  -0.3877781542E-01  -0.3877781542E-01  -0.2125000003E+01  -0.4388740871E-13  -0.4265707233E-13  -0.8563340207E-15  -0.7830942770E-15  -0.5451697980E-15   0.7530163094E-01  -0.3765506547E-01  -0.3765506547E-01  -0.2039413833E-16   0.1213044034E-15   0.7259601101E-16   0.2125000003E+01
   0.0000000000E+00   0.9623449346E+00   0.9623449346E+00   0.0000000000E+00   0.1122750000E-02   0.1122750000E-02   0.0000000000E+00  -0.3877781542E-01  -0.3877781542E-01  -0.2125000003E+01  -0.3849542981E-13  -0.3989266431E-13  -0.3192540302E-15   0.1254284038E-15   0.1330775599E-14   0.7530163095E-01  -0.3765506547E-01  -0.3765506547E-01  -0.2729275199E-16   0.7436701092E-16   0.1129168078E-16   0.2125000003E+01
   0.2150603262E+01   0.0000000000E+00   0.7789555894E-17  -0.4500000000E-02   0.0000000000E+00  -0.7453652658E-18   0.1551032617E+00   0.0000000000E+00   0.8534921159E-17  -0.2125000003E+01  -0.2646578752E-14  -0.3314535873E-14  -0.2864196609E-15   0.2790978586E-14   0.3511865544E-15   0.7530163096E-01  -0.3765506548E-01  -0.3765506548E-01   0.1309326759E-16  -0.5128847079E-16  -0.4427339558E-18   0.2125000003E+01
   0.2150603262E+01   0.9623449346E+00  -0.1319312611E-18  -0.4500000000E-02   0.1122750000E-02  -0.7246641079E-18   0.1551032617E+00  -0.3877781542E-01   0.5927328468E-18  -0.2125000003E+01  -0.8718319207E-13  -0.8644458268E-13  -0.5166367081E-15  -0.2894342995E-14  -0.7855112238E-15   0.7530163095E-01  -0.3765506548E-01  -0.3765506548E-01  -0.4655418230E-16   0.2152999981E-15   0.9013528881E-16   0.2125000003E+01
   0.2150603262E+01   0.0000000000E+00   0.9623449346E+00  -0.4500000000E-02   0.0000000000E+00   0.1122750000E-02   0.1551032617E+00   0.0000000000E+00  -0.3877781542E-01  -0.2125000003E+01  -0.1059051645E-12  -0.1059395302E-12  -0.2340152356E-15  -0.3347537296E-14   0.1754145783E-15   0.7530163095E-01  -0.3765506548E-01  -0.3765506548E-01   0.1532108155E-15  -0.1169396863E-15   0.1084474128E-16   0.2125000003E+01
   0.2150603262E+01   0.9623449346E+00   0.9623449346E+00  -0.4500000000E-02   0.1122750000E-02   0.1122750000E-02   0.1551032617E+00  -0.3877781542E-01  -0.3877781542E-01  -0.2125000003E+01   0.4573981969E-13   0.4468036690E-13   0.8224739541E-15   0.3714446086E-14  -0.8883897636E-16   0.7530163094E-01  -0.3765506547E-01  -0.3765506547E-01   0.2704525560E-15  -0.8212214340E-17   0.7704174614E-16   0.2125000003E+01
     1     2     3     4     5     6     7     8
     2     9    10     3     6    11    12     7
 VARIABLES = X,Y,Z,DU1,DU2,DU3,U1,U2,U3,S11,S22,S33,S12,S13,S23,E11,E22,E33,E12,E13,E23,SMISES
 ZONE, T="0.7700D+01" F=FEPOINT, I=   12 J=    2 ET=BRICK
   0.0000000000E+00   0.0000000000E+00   0.0000000000E+00   0.0000000000E+00   0.0000000000E+00   0.0000000000E+00   0.0000000000E+00   0.0000000000E+00   0.0000000000E+00  -0.3250000005E+01   0.2970336917E-13   0.2627125125E-13   0.1018732666E-15  -0.1057201202E-14  -0.9097937670E-15   0.7305163096E-01  -0.3653231548E-01  -0.3653231548E-01  -0.6131591317E-17  -0.2187527346E-16  -0.2834061489E-16   0.3250000005E+01
   0.1073051631E+01   0.0000000000E+00  -0.1089651079E-16  -0.2250000000E-02   0.0000000000E+00  -0.8934949871E-18   0.7530163085E-01   0.0000000000E+00  -0.1000301580E-16  -0.3250000005E+01  -0.2347694389E-13  -0.2156088471E-13   0.1812056236E-15  -0.1190854851E-14   0.4134899725E-15   0.7305163096E-01  -0.3653231548E-01  -0.3653231548E-01  -0.1861360384E-15  -0.6039492110E-16  -0.2655350645E-16   0.3250000005E+01
   0.1073051631E+01   0.9634676846E+00  -0.2468132717E-16  -0.2250000000E-02   0.1122750000E-02  -0.1009706300E-17   0.7530163085E-01  -0.3765506542E-01  -0.2367162087E-16  -0.3250000005E+01   0.1058197916E-14  -0.4732687504E-15   0.7214840634E-15   0.1129776830E-14   0.3980218890E-15   0.7305163095E-01  -0.3653231548E-01  -0.3653231548E-01  -0.2094144070E-15   0.1280407871E-15  -0.1854830151E-16   0.3250000005E+01
   0.0000000000E+00   0.9634676846E+00  -0.1930718881E-16   0.0000000000E+00   0.1122750000E-02   0.8087875486E-18   0.0000000000E+00  -0.3765506542E-01  -0.2011597636E-16  -0.3250000005E+01  -0.9223307192E-13  -0.8932631713E-13   0.8623128717E-15  -0.2252446957E-15  -0.5751691650E-15   0.7305163095E-01  -0.3653231548E-01  -0.3653231548E-01   0.5277960722E-16  -0.1098332259E-17   0.1205015582E-16   0.3250000005E+01
   0.0000000000E+00   0.0000000000E+00   0.9634676846E+00   0.0000000000E+00   0.0000000000E+00   0.1122750000E-02   0.0000000000E+00   0.0000000000E+00  -0.3765506542E-01  -0.3250000005E+01  -0.2458368420E-13  -0.2449351455E-13  -0.1418616840E-16   0.3667105693E-15   0.3481589495E-15   0.7305163095E-01  -0.3653231548E-01  -0.3653231548E-01   0.4727255522E-17  -0.4174073994E-16  -0.4749335360E-16   0.3250000005E+01
   0.1073051631E+01   0.0000000000E+00   0.9634676846E+00  -0.2250000000E-02   0.0000000000E+00   0.1122750000E-02   0.7530163085E-01   0.0000000000E+00  -0.3765506542E-01  -0.3250000005E+01   0.8523371376E-14   0.7343831218E-14  -0.5142478731E-16   0.8446261993E-15  -0.7225534266E-16   0.7305163095E-01  -0.3653231548E-01  -0.3653231548E-01  -0.1472419134E-16  -0.7822909382E-16   0.3611845247E-16   0.3250000005E+01
   0.1073051631E+01   0.9634676846E+00   0.9634676846E+00  -0.2250000000E-02   0.1122750000E-02   0.1122750000E-02   0.7530163085E-01  -0.3765506542E-01  -0.3765506542E-01  -0.3250000004E+01  -0.2645839306E-13  -0.2489426039E-13  -0.7449967047E-15  -0.6235930932E-15  -0.5062025701E-15   0.7305163094E-01  -0.3653231547E-01  -0.3653231547E-01   0.5884316438E-18   0.7886238810E-16   0.5931214277E-16   0.3250000004E+01
   0.0000000000E+00   0.9634676846E+00   0.9634676846E+00   0.0000000000E+00   0.1122750000E-02   0.1122750000E-02   0.0000000000E+00  -0.3765506542E-01  -0.3765506542E-01  -0.3250000004E+01   0.3097653042E-13   0.3069406451E-13  -0.1186986711E-15  -0.1159110121E-15   0.1230545834E-14   0.7305163094E-01  -0.3653231547E-01  -0.3653231547E-01  -0.4077710774E-16   0.1254223650E-15   0.4211166282E-16   0.3250000004E+01
   0.2146103262E+01   0.0000000000E+00   0.3845241059E-17  -0.4500000000E-02   0.0000000000E+00  -0.3944314835E-17   0.1506032617E+00   0.0000000000E+00   0.7789555894E-17  -0.3250000005E+01  -0.1122337812E-12  -0.1125960623E-12  -0.3438634439E-15   0.3075613254E-14   0.4846615657E-15   0.7305163096E-01  -0.3653231548E-01  -0.3653231548E-01  -0.8025300394E-18  -0.8930628212E-16  -0.1331169527E-16   0.3250000005E+01
   0.2146103262E+01   0.9634676846E+00  -0.3435914335E-17  -0.4500000000E-02   0.1122750000E-02  -0.3303983074E-17   0.1506032617E+00  -0.3765506542E-01  -0.1319312611E-18  -0.3250000005E+01  -0.7636305399E-14  -0.7517846152E-14  -0.4926060851E-15  -0.3282383594E-14  -0.8459114072E-15   0.7305163095E-01  -0.3653231547E-01  -0.3653231547E-01  -0.2357904365E-16   0.2833042312E-15   0.1054690289E-15   0.3250000005E+01
   0.2146103262E+01   0.0000000000E+00   0.9634676846E+00  -0.4500000000E-02   0.0000000000E+00   0.1122750000E-02   0.1506032617E+00   0.0000000000E+00  -0.3765506542E-01  -0.3250000005E+01   0.6554392612E-13   0.6585215494E-13  -0.2901826796E-15  -0.3402547185E-14   0.1634658850E-16   0.7305163095E-01  -0.3653231547E-01  -0.3653231547E-01   0.1668183110E-15  -0.3232303861E-16   0.1588738771E-16   0.3250000005E+01
   0.2146103262E+01   0.9634676846E+00   0.9634676846E+00  -0.4500000000E-02   0.1122750000E-02   0.1122750000E-02   0.1506032617E+00  -0.3765506542E-01  -0.3765506542E-01  -0.3250000004E+01  -0.5485487032E-13  -0.5573998790E-13   0.7532461419E-15   0.3811227909E-14  -0.2965324041E-15   0.7305163094E-01  -0.3653231547E-01  -0.3653231547E-01   0.2469791064E-15  -0.6026178925E-16   0.1277319827E-15   0.3250000004E+01
     1     2     3     4     5     6     7     8
     2     9    10     3     6    11    12     7
 VARIABLES = X,Y,Z,DU1,DU2,DU3,U1,U2,U3,S11,S22,S33,S12,S13,S23,E11,E22,E33,E12,E13,E23,SMISES
 ZONE, T="0.7750D+01" F=FEPOINT, I=   12 J=    2 ET=BRICK
   0.0000000000E+00   0.0000000000E+00   0.0000000000E+00   0.0000000000E+00   0.0000000000E+00   0.0000000000E+00   0.0000000000E+00   0.0000000000E+00   0.0000000000E+00  -0.4375000007E+01  -0.1274687291E-12  -0.1312373655E-12   0.7186125386E-16  -0.1119538330E-14  -0.9589798237E-15   0.7080163096E-01  -0.3540956548E-01  -0.3540956548E-01   0.1338518339E-16  -0.1933976251E-16  -0.4924557278E-16   0.4375000007E+01
   0.1070801631E+01   0.0000000000E+00  -0.1103304569E-16  -0.2250000000E-02   0.0000000000E+00  -0.1365349035E-18   0.7305163085E-01   0.0000000000E+00  -0.1089651079E-16  -0.4375000007E+01  -0.8688090796E-13  -0.8513138224E-13   0.3845092561E-15  -0.1021338614E-14   0.4078545329E-15   0.7080163096E-01  -0.3540956548E-01  -0.3540956548E-01  -0.2186139880E-15  -0.8566333607E-16  -0.3427382113E-16   0.4375000007E+01
   0.1070801631E+01   0.9645904346E+00  -0.2484806173E-16  -0.2250000000E-02   0.1122750000E-02  -0.1667345639E-18   0.7305163085E-01  -0.3653231542E-01  -0.2468132717E-16  -0.4375000006E+01   0.5980855699E-13   0.5844362378E-13   0.9679521312E-15   0.1055450648E-14   0.4050069419E-15   0.7080163095E-01  -0.3540956547E-01  -0.3540956547E-01  -0.2284595853E-15   0.1688858694E-15  -0.6663365989E-17   0.4375000006E+01
   0.0000000000E+00   0.9645904346E+00  -0.1960312489E-16   0.0000000000E+00   0.1122750000E-02  -0.2959360783E-18   0.0000000000E+00  -0.3653231542E-01  -0.1930718881E-16  -0.4375000006E+01   0.3644221613E-13   0.3958934121E-13   0.7133683552E-15  -0.2476766103E-15  -0.6198884620E-15   0.7080163095E-01  -0.3540956547E-01  -0.3540956547E-01   0.6002278473E-16  -0.3425990148E-16   0.1676006601E-16   0.4375000006E+01
   0.0000000000E+00   0.0000000000E+00   0.9645904346E+00   0.0000000000E+00   0.0000000000E+00   0.1122750000E-02   0.0000000000E+00   0.0000000000E+00  -0.3653231542E-01  -0.4375000006E+01   0.1005747316E-12   0.1004597236E-12  -0.8483683350E-19   0.3269730810E-15   0.3651773065E-15   0.7080163095E-01  -0.3540956547E-01  -0.3540956547E-01  -0.5252141596E-17  -0.6185588909E-17  -0.1879309945E-16   0.4375000006E+01
   0.1070801631E+01   0.0000000000E+00   0.9645904346E+00  -0.2250000000E-02   0.0000000000E+00   0.1122750000E-02   0.7305163085E-01   0.0000000000E+00  -0.3653231542E-01  -0.4375000006E+01   0.1572488881E-13   0.1444920054E-13  -0.2068366730E-15   0.1089799583E-14   0.3924499590E-16   0.7080163095E-01  -0.3540956547E-01  -0.3540956547E-01   0.1724102792E-16  -0.1189229939E-15   0.5104157846E-16   0.4375000006E+01
   0.1070801631E+01   0.9645904346E+00   0.9645904346E+00  -0.2250000000E-02   0.1122750000E-02   0.1122750000E-02   0.7305163085E-01  -0.3653231542E-01  -0.3653231542E-01  -0.4375000006E+01  -0.5016214470E-14  -0.2971341188E-14  -0.1047078358E-14  -0.6425930091E-15  -0.4034186069E-15   0.7080163094E-01  -0.3540956547E-01  -0.3540956547E-01   0.2696836304E-16   0.9586683615E-16   0.1565538141E-16   0.4375000006E+01
   0.0000000000E+00   0.9645904346E+00   0.9645904346E+00   0.0000000000E+00   0.1122750000E-02   0.1122750000E-02   0.0000000000E+00  -0.3653231542E-01  -0.3653231542E-01  -0.4375000006E+01   0.9328488691E-14   0.8507778273E-14  -0.1641977357E-15  -0.1759919119E-16   0.1140459632E-14   0.7080163094E-01  -0.3540956547E-01  -0.3540956547E-01  -0.5505894446E-16   0.9048250856E-16   0.6459950044E-16   0.4375000006E+01
   0.2141603262E+01   0.0000000000E+00   0.3764048272E-17  -0.4500000000E-02   0.0000000000E+00  -0.8119278667E-19   0.1461032617E+00   0.0000000000E+00   0.3845241059E-17  -0.4375000007E+01   0.8820726682E-13   0.8722002289E-13  -0.5793655110E-15   0.2934614415E-14   0.6322732244E-15   0.7080163095E-01  -0.3540956548E-01  -0.3540956548E-01  -0.2331928908E-17  -0.1457475574E-15  -0.2869807789E-17   0.4375000007E+01
   0.2141603262E+01   0.9645904346E+00  -0.2663570324E-17  -0.4500000000E-02   0.1122750000E-02   0.7723440115E-18   0.1461032617E+00  -0.3653231542E-01  -0.3435914335E-17  -0.4375000006E+01   0.9730917155E-13   0.9737955672E-13  -0.2644991173E-15  -0.3001575351E-14  -0.1136061905E-14   0.7080163094E-01  -0.3540956547E-01  -0.3540956547E-01  -0.2579894024E-16   0.3394067004E-15   0.4396177001E-16   0.4375000006E+01
   0.2141603262E+01   0.0000000000E+00   0.9645904346E+00  -0.4500000000E-02   0.0000000000E+00   0.1122750000E-02   0.1461032617E+00   0.0000000000E+00  -0.3653231542E-01  -0.4375000006E+01  -0.3633893628E-13  -0.3549246295E-13  -0.2508130940E-15  -0.3501198854E-14   0.1944240019E-15   0.7080163094E-01  -0.3540956547E-01  -0.3540956547E-01   0.1600801244E-15  -0.1027934493E-15   0.2363642444E-16   0.4375000006E+01
   0.2141603262E+01   0.9645904346E+00   0.9645904346E+00  -0.4500000000E-02   0.1122750000E-02   0.1122750000E-02   0.1461032617E+00  -0.3653231542E-01  -0.3653231542E-01  -0.4375000006E+01  -0.3540678382E-13  -0.3608672371E-13   0.5413394346E-15   0.4259912601E-14  -0.3816462986E-15   0.7080163094E-01  -0.3540956547E-01  -0.3540956547E-01   0.2444575155E-15   0.2731377719E-16   0.1515898245E-15   0.4375000006E+01
     1     2     3     4     5     6     7     8
     2     9    10     3     6    11    12     7
 VARIABLES = X,Y,Z,DU1,DU2,DU3,U1,U2,U3,S11,S22,S33,S12,S13,S23,E11,E22,E33,E12,E13,E23,SMISES
 ZONE, T="0.7800D+01" F=FEPOINT, I=   12 J=    2 ET=BRICK
   0.0000000000E+00   0.0000000000E+00   0.0000000000E+00   0.0000000000E+00   0.0000000000E+00   0.0000000000E+00   0.0000000000E+00   0.0000000000E+00   0.0000000000E+00  -0.5500000009E+01   0.8423695582E-13   0.8063086742E-13   0.5630260930E-16  -0.8679935328E-15  -0.8958705366E-15   0.6855163095E-01  -0.3428681548E-01  -0.3428681548E-01   0.5164720382E-17  -0.4014398528E-16  -0.1812668387E-16   0.5500000009E+01
   0.1068551631E+01   0.0000000000E+00  -0.8740969410E-17  -0.2250000000E-02   0.0000000000E+00   0.2292076284E-17   0.7080163085E-01   0.0000000000E+00  -0.1103304569E-16  -0.5500000008E+01   0.4374408758E-13   0.4630343529E-13   0.1571950687E-15  -0.1327922003E-14   0.3317189528E-15   0.6855163095E-01  -0.3428681548E-01  -0.3428681548E-01  -0.2082412938E-15  -0.4408600012E-16  -0.3976491520E-16   0.5500000008E+01
   0.1068551631E+01   0.9657131846E+00  -0.2281059039E-16  -0.2250000000E-02   0.1122750000E-02   0.2037471339E-17   0.7080163085E-01  -0.3540956542E-01  -0.2484806173E-16  -0.5500000008E+01  -0.5988360726E-13  -0.6120790347E-13   0.5273324349E-15   0.1396450603E-14   0.1013844535E-14   0.6855163094E-01  -0.3428681547E-01  -0.3428681547E-01  -0.1840266295E-15   0.1431118133E-15  -0.1071125071E-16   0.5500000008E+01
   0.0000000000E+00   0.9657131846E+00  -0.1934647622E-16   0.0000000000E+00   0.1122750000E-02   0.2566486748E-18   0.0000000000E+00  -0.3540956542E-01  -0.1960312489E-16  -0.5500000008E+01   0.6343913430E-14   0.9960890458E-14   0.5324281304E-15  -0.4350454961E-16  -0.4695983363E-15   0.6855163095E-01  -0.3428681547E-01  -0.3428681547E-01   0.3438424824E-16  -0.1464922336E-16  -0.3047661917E-16   0.5500000008E+01
   0.0000000000E+00   0.0000000000E+00   0.9657131846E+00   0.0000000000E+00   0.0000000000E+00   0.1122750000E-02   0.0000000000E+00   0.0000000000E+00  -0.3540956542E-01  -0.5500000008E+01  -0.5620633307E-13  -0.5618455603E-13   0.1188650540E-16   0.5462291375E-15   0.1832171598E-15   0.6855163095E-01  -0.3428681547E-01  -0.3428681547E-01  -0.1670595397E-16  -0.8972541057E-17  -0.2741005955E-16   0.5500000008E+01
   0.1068551631E+01   0.0000000000E+00   0.9657131846E+00  -0.2250000000E-02   0.0000000000E+00   0.1122750000E-02   0.7080163085E-01   0.0000000000E+00  -0.3540956542E-01  -0.5500000008E+01   0.8008791648E-14   0.6529918489E-14   0.2818617401E-15   0.8195968859E-15  -0.3215645412E-15   0.6855163094E-01  -0.3428681547E-01  -0.3428681547E-01   0.4566443818E-16  -0.7914860071E-16   0.4496666410E-16   0.5500000008E+01
   0.1068551631E+01   0.9657131846E+00   0.9657131846E+00  -0.2250000000E-02   0.1122750000E-02   0.1122750000E-02   0.7080163085E-01  -0.3540956542E-01  -0.3540956542E-01  -0.5500000007E+01  -0.4701099149E-13  -0.4569466626E-13  -0.4301198356E-15  -0.3564017463E-15  -0.2639219951E-15   0.6855163094E-01  -0.3428681547E-01  -0.3428681547E-01  -0.9106577342E-17   0.1311347097E-15   0.4639171265E-16   0.5500000007E+01
   0.0000000000E+00   0.9657131846E+00   0.9657131846E+00   0.0000000000E+00   0.1122750000E-02   0.1122750000E-02   0.0000000000E+00  -0.3540956542E-01  -0.3540956542E-01  -0.5500000007E+01  -0.9877081781E-14  -0.1116365865E-13   0.8506580388E-16  -0.8412065264E-16   0.1285536679E-14   0.6855163094E-01  -0.3428681547E-01  -0.3428681547E-01  -0.3436054378E-16   0.6583935403E-16   0.2114298719E-16   0.5500000007E+01
   0.2137103262E+01   0.0000000000E+00   0.1263006461E-16  -0.4500000000E-02   0.0000000000E+00   0.8866016334E-17   0.1416032617E+00   0.0000000000E+00   0.3764048272E-17  -0.5500000008E+01   0.9229906620E-14   0.9315166280E-14  -0.9106144306E-15   0.2551977681E-14   0.9243097879E-16   0.6855163095E-01  -0.3428681547E-01  -0.3428681547E-01  -0.1547067175E-16  -0.1211633854E-15  -0.2012245213E-16   0.5500000008E+01
   0.2137103262E+01   0.9657131846E+00   0.3073685987E-17  -0.4500000000E-02   0.1122750000E-02   0.5737256310E-17   0.1416032617E+00  -0.3540956542E-01  -0.2663570324E-17  -0.5500000008E+01  -0.7820571572E-13  -0.7708858984E-13  -0.9327360538E-15  -0.2846699815E-14  -0.7150336970E-15   0.6855163094E-01  -0.3428681547E-01  -0.3428681547E-01  -0.2097619335E-16   0.2596999810E-15   0.8700435834E-16   0.5500000008E+01
   0.2137103262E+01   0.0000000000E+00   0.9657131846E+00  -0.4500000000E-02   0.0000000000E+00   0.1122750000E-02   0.1416032617E+00   0.0000000000E+00  -0.3540956542E-01  -0.5500000008E+01  -0.2375555405E-13  -0.2334918438E-13   0.7292458894E-15  -0.3983196810E-14  -0.6389976789E-15   0.6855163094E-01  -0.3428681547E-01  -0.3428681547E-01   0.1751317710E-15  -0.1610614446E-15   0.1998076373E-16   0.5500000008E+01
   0.2137103262E+01   0.9657131846E+00   0.9657131846E+00  -0.4500000000E-02   0.1122750000E-02   0.1122750000E-02   0.1416032617E+00  -0.3540956542E-01  -0.3540956542E-01  -0.5500000007E+01  -0.6550967334E-13  -0.6756543530E-13   0.1406167498E-14   0.4424258020E-14  -0.3349241087E-15   0.6855163093E-01  -0.3428681547E-01  -0.3428681547E-01   0.2133847450E-15   0.1961787758E-16   0.6714330321E-16   0.5500000007E+01
     1     2     3     4     5     6     7     8
     2     9    10     3     6    11    12     7
 VARIABLES = X,Y,Z,DU1,DU2,DU3,U1,U2,U3,S11,S22,S33,S12,S13,S23,E11,E22,E33,E12,E13,E23,SMISES
 ZONE, T="0.7850D+01" F=FEPOINT, I=   12 J=    2 ET=BRICK
   0.0000000000E+00   0.0000000000E+00   0.0000000000E+00   0.0000000000E+00   0.0000000000E+00   0.0000000000E+00   0.0000000000E+00   0.0000000000E+00   0.0000000000E+00  -0.6625000010E+01  -0.2730627708E-13  -0.3142829874E-13   0.5881126538E-16  -0.9107248414E-15  -0.8663848590E-15   0.6630163095E-01  -0.3316406548E-01  -0.3316406548E-01  -0.7175593790E-17  -0.3533900511E-16  -0.5000141977E-16   0.6625000010E+01
   0.1066301631E+01   0.0000000000E+00  -0.9910391458E-17  -0.2250000000E-02   0.0000000000E+00  -0.1169422048E-17   0.6855163085E-01   0.0000000000E+00  -0.8740969410E-17  -0.6625000010E+01  -0.4522249300E-13  -0.4316964875E-13   0.1453132474E-15  -0.1305386524E-14   0.3210412468E-15   0.6630163095E-01  -0.3316406547E-01  -0.3316406547E-01  -0.1826163654E-15  -0.7846966974E-16  -0.2395783671E-16   0.6625000010E+01
   0.1066301631E+01   0.9668359346E+00  -0.2408629103E-16  -0.2250000000E-02   0.1122750000E-02  -0.1275700638E-17   0.6855163085E-01  -0.3428681542E-01  -0.2281059039E-16  -0.6625000009E+01   0.3673613636E-13   0.3548222546E-13   0.7546688576E-15   0.1225182338E-14   0.5354140144E-15   0.6630163094E-01  -0.3316406547E-01  -0.3316406547E-01  -0.2105653804E-15   0.1755086811E-15  -0.3961456261E-16   0.6625000009E+01
   0.0000000000E+00   0.9668359346E+00  -0.1911451128E-16   0.0000000000E+00   0.1122750000E-02   0.2319649329E-18   0.0000000000E+00  -0.3428681542E-01  -0.1934647622E-16  -0.6625000010E+01   0.6555371189E-14   0.9701037431E-14   0.6708012228E-15  -0.1915747243E-15  -0.5349701191E-15   0.6630163094E-01  -0.3316406547E-01  -0.3316406547E-01   0.3602899299E-16  -0.2148197052E-16   0.4561736996E-16   0.6625000010E+01
   0.0000000000E+00   0.0000000000E+00   0.9668359346E+00   0.0000000000E+00   0.0000000000E+00   0.1122750000E-02   0.0000000000E+00   0.0000000000E+00  -0.3428681542E-01  -0.6625000010E+01   0.2283188234E-13   0.2396534109E-13   0.4939458186E-17   0.3201444718E-15   0.3245193486E-15   0.6630163094E-01  -0.3316406547E-01  -0.3316406547E-01  -0.9549034262E-18  -0.4149894827E-16  -0.2014261193E-16   0.6625000010E+01
   0.1066301631E+01   0.0000000000E+00   0.9668359346E+00  -0.2250000000E-02   0.0000000000E+00   0.1122750000E-02   0.6855163085E-01   0.0000000000E+00  -0.3428681542E-01  -0.6625000009E+01   0.1259433878E-13   0.1123737658E-13   0.9613240644E-16   0.7143905170E-15   0.1119697111E-15   0.6630163094E-01  -0.3316406547E-01  -0.3316406547E-01   0.3221553193E-16  -0.7818804689E-16   0.4710385186E-16   0.6625000009E+01
   0.1066301631E+01   0.9668359346E+00   0.9668359346E+00  -0.2250000000E-02   0.1122750000E-02   0.1122750000E-02   0.6855163085E-01  -0.3428681542E-01  -0.3428681542E-01  -0.6625000009E+01   0.8826142743E-13   0.9027655238E-13  -0.7820530556E-15  -0.5015146206E-15  -0.2816935326E-15   0.6630163093E-01  -0.3316406547E-01  -0.3316406547E-01   0.3770695252E-16   0.6257724457E-16   0.7356728651E-16   0.6625000009E+01
   0.0000000000E+00   0.9668359346E+00   0.9668359346E+00   0.0000000000E+00   0.1122750000E-02   0.1122750000E-02   0.0000000000E+00  -0.3428681542E-01  -0.3428681542E-01  -0.6625000009E+01   0.4728310325E-13   0.4615363002E-13  -0.2495842670E-16   0.1896965933E-16   0.1280923776E-14   0.6630163093E-01  -0.3316406547E-01  -0.3316406547E-01  -0.6197999382E-16   0.9002009817E-16   0.2330568732E-16   0.6625000009E+01
   0.2132603262E+01   0.0000000000E+00   0.6391416561E-17  -0.4500000000E-02   0.0000000000E+00  -0.6238648046E-17   0.1371032617E+00   0.0000000000E+00   0.1263006461E-16  -0.6625000010E+01  -0.4307926178E-13  -0.4454180200E-13  -0.1139932434E-14   0.2834684740E-14   0.1481787984E-15   0.6630163095E-01  -0.3316406547E-01  -0.3316406547E-01  -0.8152278302E-17   0.1016068594E-16  -0.2292136837E-16   0.6625000010E+01
   0.2132603262E+01   0.9668359346E+00  -0.2717715366E-17  -0.4500000000E-02   0.1122750000E-02  -0.5791401352E-17   0.1371032617E+00  -0.3428681542E-01   0.3073685987E-17  -0.6625000009E+01  -0.3751719700E-13  -0.3683871596E-13  -0.9369796068E-15  -0.2798441065E-14  -0.1297467444E-14   0.6630163094E-01  -0.3316406547E-01  -0.3316406547E-01  -0.2880325114E-16   0.2166474817E-15   0.7815189795E-16   0.6625000009E+01
   0.2132603262E+01   0.0000000000E+00   0.9668359346E+00  -0.4500000000E-02   0.0000000000E+00   0.1122750000E-02   0.1371032617E+00   0.0000000000E+00  -0.3428681542E-01  -0.6625000009E+01   0.2448810271E-13   0.2430815378E-13   0.2346488572E-15  -0.3928779506E-14  -0.3364972842E-16   0.6630163094E-01  -0.3316406547E-01  -0.3316406547E-01   0.1421357576E-15  -0.1503825732E-15   0.4077122408E-16   0.6625000009E+01
   0.2132603262E+01   0.9668359346E+00   0.9668359346E+00  -0.4500000000E-02   0.1122750000E-02   0.1122750000E-02   0.1371032617E+00  -0.3428681542E-01  -0.3428681542E-01  -0.6625000008E+01   0.1053343735E-12   0.1048006485E-12   0.1040435412E-14   0.4487430028E-14  -0.4716747256E-15   0.6630163093E-01  -0.3316406547E-01  -0.3316406547E-01   0.2087943658E-15   0.1041201148E-15   0.6009110256E-16   0.6625000008E+01
     1     2     3     4     5     6     7     8
     2     9    10     3     6    11    12     7
 VARIABLES = X,Y,Z,DU1,DU2,DU3,U1,U2,U3,S11,S22,S33,S12,S13,S23,E11,E22,E33,E12,E13,E23,SMISES
 ZONE, T="0.7900D+01" F=FEPOINT, I=   12 J=    2 ET=BRICK
   0.0000000000E+00   0.0000000000E+00   0.0000000000E+00   0.0000000000E+00   0.0000000000E+00   0.0000000000E+00   0.0000000000E+00   0.0000000000E+00   0.0000000000E+00  -0.7749966911E+01  -0.1655082795E-04  -0.1655082795E-04   0.6832904687E-16  -0.1079268058E-14  -0.3954761647E-15   0.5964769747E-01  -0.2983934873E-01  -0.2983934873E-01   0.8826517512E-17  -0.3067503550E-16  -0.3980465247E-16   0.7749950360E+01
   0.1059647697E+01   0.0000000000E+00  -0.1264536759E-16  -0.6653933474E-02   0.0000000000E+00  -0.2734976129E-17   0.6630163085E-01   0.0000000000E+00  -0.9910391458E-17  -0.7749966910E+01  -0.1655082790E-04  -0.1655082790E-04  -0.1238316670E-15  -0.7946008220E-15   0.6105693602E-15   0.5964769746E-01  -0.2983934873E-01  -0.2983934873E-01  -0.2183722208E-15  -0.9630534746E-16  -0.1435883299E-16   0.7749950359E+01
   0.1059647697E+01   0.9701606513E+00  -0.2395911382E-16  -0.6653933474E-02   0.3324716737E-02   0.1271772078E-18   0.6630163085E-01  -0.3316406542E-01  -0.2408629103E-16  -0.7749966909E+01  -0.1655082804E-04  -0.1655082804E-04   0.4046527422E-15   0.1076190876E-14   0.1579035283E-15   0.5964769746E-01  -0.2983934873E-01  -0.2983934873E-01  -0.2058168822E-15   0.1759344747E-15  -0.4334280222E-16   0.7749950359E+01
   0.0000000000E+00   0.9701606513E+00  -0.1740021225E-16   0.0000000000E+00   0.3324716737E-02   0.1714299035E-17   0.0000000000E+00  -0.3316406542E-01  -0.1911451128E-16  -0.7749966910E+01  -0.1655082809E-04  -0.1655082809E-04   0.4328296252E-15  -0.2577083756E-15  -0.1010777644E-14   0.5964769746E-01  -0.2983934873E-01  -0.2983934873E-01   0.2332033024E-16  -0.2643508106E-16   0.2609100986E-16   0.7749950359E+01
   0.0000000000E+00   0.0000000000E+00   0.9701606513E+00   0.0000000000E+00   0.0000000000E+00   0.3324716737E-02   0.0000000000E+00   0.0000000000E+00  -0.3316406542E-01  -0.7749966910E+01  -0.1655082792E-04  -0.1655082792E-04  -0.5432207637E-16   0.3096124909E-15   0.5027255476E-15   0.5964769746E-01  -0.2983934873E-01  -0.2983934873E-01  -0.1092927541E-16  -0.4553376606E-16  -0.3521264620E-16   0.7749950359E+01
   0.1059647697E+01   0.0000000000E+00   0.9701606513E+00  -0.6653933474E-02   0.0000000000E+00   0.3324716737E-02   0.6630163085E-01   0.0000000000E+00  -0.3316406542E-01  -0.7749966909E+01  -0.1655082792E-04  -0.1655082792E-04  -0.7098845488E-16   0.4438290909E-15   0.1974396235E-15   0.5964769746E-01  -0.2983934873E-01  -0.2983934873E-01   0.5834486991E-16  -0.1104206076E-15   0.5787541386E-16   0.7749950359E+01
   0.1059647697E+01   0.9701606513E+00   0.9701606513E+00  -0.6653933474E-02   0.3324716737E-02   0.3324716737E-02   0.6630163085E-01  -0.3316406542E-01  -0.3316406542E-01  -0.7749966908E+01  -0.1655082796E-04  -0.1655082796E-04  -0.8697380402E-15  -0.2766792650E-15  -0.5488752035E-15   0.5964769745E-01  -0.2983934873E-01  -0.2983934873E-01   0.1731599420E-16   0.8200316334E-16   0.5189767960E-16   0.7749950358E+01
   0.0000000000E+00   0.9701606513E+00   0.9701606513E+00   0.0000000000E+00   0.3324716737E-02   0.3324716737E-02   0.0000000000E+00  -0.3316406542E-01  -0.3316406542E-01  -0.7749966909E+01  -0.1655082781E-04  -0.1655082781E-04  -0.1134625689E-16  -0.3801124612E-15   0.7639008890E-15   0.5964769745E-01  -0.2983934873E-01  -0.2983934873E-01  -0.6559052830E-16   0.8033165259E-16   0.3483655706E-16   0.7749950358E+01
   0.2119295395E+01   0.0000000000E+00  -0.2223181945E-17  -0.1330786695E-01   0.0000000000E+00  -0.8614598506E-17   0.1326032617E+00   0.0000000000E+00   0.6391416561E-17  -0.7749966910E+01  -0.1655082798E-04  -0.1655082798E-04  -0.7270758681E-15   0.2503701605E-14   0.5516282839E-15   0.5964769746E-01  -0.2983934873E-01  -0.2983934873E-01  -0.5363991174E-16   0.4793225591E-16  -0.2631721743E-16   0.7749950359E+01
   0.2119295395E+01   0.9701606513E+00  -0.8238686030E-17  -0.1330786695E-01   0.3324716737E-02  -0.5520970665E-17   0.1326032617E+00  -0.3316406542E-01  -0.2717715366E-17  -0.7749966909E+01  -0.1655082781E-04  -0.1655082781E-04  -0.5298241476E-15  -0.2736112843E-14  -0.1273578904E-14   0.5964769746E-01  -0.2983934873E-01  -0.2983934873E-01  -0.8700221860E-16   0.1518304202E-15   0.9147590472E-16   0.7749950358E+01
   0.2119295395E+01   0.0000000000E+00   0.9701606513E+00  -0.1330786695E-01   0.0000000000E+00   0.3324716737E-02   0.1326032617E+00   0.0000000000E+00  -0.3316406542E-01  -0.7749966909E+01  -0.1655082806E-04  -0.1655082806E-04   0.3226487320E-16  -0.3227748660E-14   0.3616940852E-15   0.5964769746E-01  -0.2983934873E-01  -0.2983934873E-01   0.1633207119E-15  -0.1389704920E-15   0.4269677479E-16   0.7749950358E+01
   0.2119295395E+01   0.9701606513E+00   0.9701606513E+00  -0.1330786695E-01   0.3324716737E-02   0.3324716737E-02   0.1326032617E+00  -0.3316406542E-01  -0.3316406542E-01  -0.7749966908E+01  -0.1655082787E-04  -0.1655082787E-04   0.6624087226E-15   0.4121825487E-14  -0.7415751288E-15   0.5964769745E-01  -0.2983934872E-01  -0.2983934872E-01   0.2277166934E-15   0.8451670473E-17   0.8235147415E-16   0.7749950357E+01
     1     2     3     4     5     6     7     8
     2     9    10     3     6    11    12     7
 VARIABLES = X,Y,Z,DU1,DU2,DU3,U1,U2,U3,S11,S22,S33,S12,S13,S23,E11,E22,E33,E12,E13,E23,SMISES
 ZONE, T="0.7950D+01" F=FEPOINT, I=   12 J=    2 ET=BRICK
   0.0000000000E+00   0.0000000000E+00   0.0000000000E+00   0.0000000000E+00   0.0000000000E+00   0.0000000000E+00   0.0000000000E+00   0.0000000000E+00   0.0000000000E+00  -0.8875012697E+01   0.6341591934E-05   0.6341591931E-05   0.1282031844E-15  -0.8617114017E-15   0.9807889881E-16   0.3631896756E-01  -0.1817723378E-01  -0.1817723378E-01  -0.7156531304E-18  -0.4178567165E-16  -0.3945945686E-16   0.8875019039E+01
   0.1036318968E+01   0.0000000000E+00  -0.1309897938E-16  -0.2332872987E-01   0.0000000000E+00  -0.4536117925E-18   0.5964769737E-01   0.0000000000E+00  -0.1264536759E-16  -0.8875012697E+01   0.6341592260E-05   0.6341592262E-05  -0.2748380514E-15  -0.4719455401E-15   0.4161283679E-15   0.3631896756E-01  -0.1817723378E-01  -0.1817723378E-01  -0.1887932091E-15  -0.8276600239E-16  -0.1872396968E-16   0.8875019038E+01
   0.1036318968E+01   0.9818227662E+00  -0.2236820891E-16  -0.2332872987E-01   0.1166211494E-01   0.1590904915E-17   0.5964769737E-01  -0.2983934869E-01  -0.2395911382E-16  -0.8875012696E+01   0.6341591820E-05   0.6341591818E-05   0.5435297768E-16   0.1204390414E-14   0.5634786796E-15   0.3631896755E-01  -0.1817723378E-01  -0.1817723378E-01  -0.2103654973E-15   0.1580479603E-15  -0.3196298248E-16   0.8875019037E+01
   0.0000000000E+00   0.9818227662E+00  -0.1624830023E-16   0.0000000000E+00   0.1166211494E-01   0.1151912016E-17   0.0000000000E+00  -0.2983934869E-01  -0.1740021225E-16  -0.8875012696E+01   0.6341591500E-05   0.6341591501E-05  -0.2202539784E-15  -0.1663590194E-15  -0.1208291446E-14   0.3631896755E-01  -0.1817723378E-01  -0.1817723378E-01   0.1246176892E-16  -0.1888564583E-16   0.2076799142E-16   0.8875019038E+01
   0.0000000000E+00   0.0000000000E+00   0.9818227662E+00   0.0000000000E+00   0.0000000000E+00   0.1166211494E-01   0.0000000000E+00   0.0000000000E+00  -0.2983934869E-01  -0.8875012696E+01   0.6341591273E-05   0.6341591273E-05  -0.4666271297E-16   0.3787802756E-15   0.2977878319E-15   0.3631896755E-01  -0.1817723378E-01  -0.1817723378E-01  -0.4819869861E-17  -0.3893133916E-16   0.2935070796E-17   0.8875019038E+01
   0.1036318968E+01   0.0000000000E+00   0.9818227662E+00  -0.2332872987E-01   0.0000000000E+00   0.1166211494E-01   0.5964769737E-01   0.0000000000E+00  -0.2983934869E-01  -0.8875012696E+01   0.6341591869E-05   0.6341591869E-05   0.5129684189E-15   0.6447480802E-15  -0.2172554722E-15   0.3631896755E-01  -0.1817723378E-01  -0.1817723378E-01   0.3941014838E-16  -0.8652281081E-16   0.5006820475E-16   0.8875019037E+01
   0.1036318968E+01   0.9818227662E+00   0.9818227662E+00  -0.2332872987E-01   0.1166211494E-01   0.1166211494E-01   0.5964769737E-01  -0.2983934869E-01  -0.2983934869E-01  -0.8875012695E+01   0.6341591097E-05   0.6341591097E-05   0.2430712630E-15   0.3766984785E-15  -0.6441405411E-15   0.3631896755E-01  -0.1817723377E-01  -0.1817723377E-01   0.3865405955E-16   0.8760481115E-16   0.5737189458E-16   0.8875019036E+01
   0.0000000000E+00   0.9818227662E+00   0.9818227662E+00   0.0000000000E+00   0.1166211494E-01   0.1166211494E-01   0.0000000000E+00  -0.2983934869E-01  -0.2983934869E-01  -0.8875012695E+01   0.6341592617E-05   0.6341592619E-05   0.1774928194E-15  -0.6237190235E-15   0.1544676272E-15   0.3631896755E-01  -0.1817723377E-01  -0.1817723377E-01  -0.5523450156E-16   0.6848302493E-16  -0.3308391690E-18   0.8875019037E+01
   0.2072637935E+01   0.0000000000E+00   0.7133655532E-17  -0.4665745974E-01   0.0000000000E+00   0.9356837477E-17   0.1192953947E+00   0.0000000000E+00  -0.2223181945E-17  -0.8875012697E+01   0.6341592019E-05   0.6341592018E-05   0.5365863533E-16   0.3326129145E-15   0.3212968002E-15   0.3631896756E-01  -0.1817723378E-01  -0.1817723378E-01  -0.4254155106E-16   0.2755010526E-17  -0.8275767553E-17   0.8875019038E+01
   0.2072637935E+01   0.9818227662E+00  -0.6183029590E-18  -0.4665745974E-01   0.1166211494E-01   0.7620383071E-17   0.1192953947E+00  -0.2983934869E-01  -0.8238686030E-17  -0.8875012696E+01   0.6341593181E-05   0.6341593182E-05   0.1736622381E-15  -0.2449668189E-14  -0.5123449543E-15   0.3631896755E-01  -0.1817723378E-01  -0.1817723378E-01  -0.6678409281E-16   0.2606666166E-15   0.7425684160E-16   0.8875019037E+01
   0.2072637935E+01   0.0000000000E+00   0.9818227662E+00  -0.4665745974E-01   0.0000000000E+00   0.1166211494E-01   0.1192953947E+00   0.0000000000E+00  -0.2983934869E-01  -0.8875012696E+01   0.6341591466E-05   0.6341591466E-05  -0.1319254312E-15  -0.2376356409E-14  -0.4302511543E-15   0.3631896755E-01  -0.1817723378E-01  -0.1817723378E-01   0.1299924034E-15  -0.1082489663E-15  -0.4716714069E-17   0.8875019037E+01
   0.2072637935E+01   0.9818227662E+00   0.9818227662E+00  -0.4665745974E-01   0.1166211494E-01   0.1166211494E-01   0.1192953947E+00  -0.2983934869E-01  -0.2983934869E-01  -0.8875012695E+01   0.6341590268E-05   0.6341590265E-05   0.5321097024E-15   0.2543815201E-14  -0.4169463404E-16   0.3631896755E-01  -0.1817723377E-01  -0.1817723377E-01   0.2346357637E-15   0.4782939702E-16   0.1080301025E-15   0.8875019036E+01
     1     2     3     4     5     6     7     8
     2     9    10     3     6    11    12     7
 VARIABLES = X,Y,Z,DU1,DU2,DU3,U1,U2,U3,S11,S22,S33,S12,S13,S23,E11,E22,E33,E12,E13,E23,SMISES
 ZONE, T="0.8000D+01" F=FEPOINT, I=   12 J=    2 ET=BRICK
   0.0000000000E+00   0.0000000000E+00   0.0000000000E+00   0.0000000000E+00   0.0000000000E+00   0.0000000000E+00   0.0000000000E+00   0.0000000000E+00   0.0000000000E+00  -0.1000000668E+02   0.3330850630E-05   0.3330850627E-05   0.1510558953E-16  -0.8527931971E-16   0.2548676246E-15   0.1156915270E-01  -0.5804576352E-02  -0.5804576352E-02  -0.2345841998E-17  -0.4502005841E-16  -0.2788654799E-16   0.1000001001E+02
   0.1011569153E+01   0.0000000000E+00  -0.1659624825E-16  -0.2474981481E-01   0.0000000000E+00  -0.3497268868E-17   0.3631896750E-01   0.0000000000E+00  -0.1309897938E-16  -0.1000000668E+02   0.3330850105E-05   0.3330850104E-05   0.6714649263E-15  -0.4260280929E-15   0.4960358624E-15   0.1156915270E-01  -0.5804576352E-02  -0.5804576352E-02  -0.1703774975E-15  -0.3185698859E-16  -0.1152978112E-16   0.1000001001E+02
   0.1011569153E+01   0.9941954237E+00  -0.2233506911E-16  -0.2474981481E-01   0.1237265741E-01   0.3313980022E-19   0.3631896750E-01  -0.1817723375E-01  -0.2236820891E-16  -0.1000000668E+02   0.3330849400E-05   0.3330849399E-05   0.1090814946E-14  -0.6071699105E-15  -0.3163621855E-15   0.1156915270E-01  -0.5804576352E-02  -0.5804576352E-02  -0.1912978850E-15   0.1194803521E-15  -0.3574640638E-16   0.1000001001E+02
   0.0000000000E+00   0.9941954237E+00  -0.1128404885E-16   0.0000000000E+00   0.1237265741E-01   0.4964251388E-17   0.0000000000E+00  -0.1817723375E-01  -0.1624830023E-16  -0.1000000668E+02   0.3330851060E-05   0.3330851059E-05   0.2356096379E-15  -0.1740115080E-15  -0.8570703105E-15   0.1156915270E-01  -0.5804576352E-02  -0.5804576352E-02   0.2258659842E-16  -0.2730149452E-16   0.6326971786E-17   0.1000001001E+02
   0.0000000000E+00   0.0000000000E+00   0.9941954237E+00   0.0000000000E+00   0.0000000000E+00   0.1237265741E-01   0.0000000000E+00   0.0000000000E+00  -0.1817723375E-01  -0.1000000668E+02   0.3330849628E-05   0.3330849627E-05  -0.9866559514E-16  -0.4849378186E-16   0.6623199444E-15   0.1156915270E-01  -0.5804576352E-02  -0.5804576352E-02   0.6671476859E-17  -0.5107010577E-16  -0.1679393493E-16   0.1000001001E+02
   0.1011569153E+01   0.0000000000E+00   0.9941954237E+00  -0.2474981481E-01   0.0000000000E+00   0.1237265741E-01   0.3631896750E-01   0.0000000000E+00  -0.1817723375E-01  -0.1000000668E+02   0.3330850201E-05   0.3330850201E-05  -0.1941552644E-15   0.2864600963E-15   0.7148537141E-15   0.1156915270E-01  -0.5804576352E-02  -0.5804576352E-02  -0.5663461902E-19  -0.1126180715E-15   0.8436398619E-16   0.1000001001E+02
   0.1011569153E+01   0.9941954237E+00   0.9941954237E+00  -0.2474981481E-01   0.1237265741E-01   0.1237265741E-01   0.3631896750E-01  -0.1817723375E-01  -0.1817723375E-01  -0.1000000667E+02   0.3330850469E-05   0.3330850470E-05  -0.9792735605E-15  -0.7058968262E-15  -0.8430639915E-16   0.1156915270E-01  -0.5804576351E-02  -0.5804576351E-02   0.2882883587E-16   0.1207419417E-15   0.6643156062E-16   0.1000001001E+02
   0.0000000000E+00   0.9941954237E+00   0.9941954237E+00   0.0000000000E+00   0.1237265741E-01   0.1237265741E-01   0.0000000000E+00  -0.1817723375E-01  -0.1817723375E-01  -0.1000000668E+02   0.3330849879E-05   0.3330849881E-05   0.1037218947E-15   0.2778726930E-15  -0.2733994021E-15   0.1156915270E-01  -0.5804576351E-02  -0.5804576351E-02  -0.7852020665E-16   0.7597808353E-16   0.2170093575E-16   0.1000001001E+02
   0.2023138305E+01   0.0000000000E+00  -0.2620148743E-16  -0.4949962963E-01   0.0000000000E+00  -0.3333514296E-16   0.7263793500E-01   0.0000000000E+00   0.7133655532E-17  -0.1000000668E+02   0.3330850309E-05   0.3330850306E-05  -0.7569974460E-15   0.1222330863E-14   0.6327489306E-15   0.1156915270E-01  -0.5804576352E-02  -0.5804576352E-02  -0.7642816591E-16   0.1053618614E-16  -0.2408615426E-17   0.1000001001E+02
   0.2023138305E+01   0.9941954237E+00  -0.2882154431E-16  -0.4949962963E-01   0.1237265741E-01  -0.2820324135E-16   0.7263793500E-01  -0.1817723375E-01  -0.6183029590E-18  -0.1000000668E+02   0.3330848786E-05   0.3330848786E-05  -0.4291907473E-15   0.4054321531E-15  -0.1650757721E-14   0.1156915270E-01  -0.5804576351E-02  -0.5804576351E-02  -0.8917728942E-16   0.2088169922E-15   0.3680057645E-16   0.1000001001E+02
   0.2023138305E+01   0.0000000000E+00   0.9941954237E+00  -0.4949962963E-01   0.0000000000E+00   0.1237265741E-01   0.7263793500E-01   0.0000000000E+00  -0.1817723375E-01  -0.1000000668E+02   0.3330849778E-05   0.3330849782E-05   0.1026439778E-14  -0.1372263795E-14   0.6941104913E-15   0.1156915270E-01  -0.5804576351E-02  -0.5804576351E-02   0.1556973281E-15  -0.4686322100E-16   0.3949671656E-16   0.1000001001E+02
   0.2023138305E+01   0.9941954237E+00   0.9941954237E+00  -0.4949962963E-01   0.1237265741E-01   0.1237265741E-01   0.7263793500E-01  -0.1817723375E-01  -0.1817723375E-01  -0.1000000667E+02   0.3330850443E-05   0.3330850445E-05   0.1013753391E-14   0.2755910783E-14  -0.7774392648E-15   0.1156915270E-01  -0.5804576351E-02  -0.5804576351E-02   0.2017014610E-15   0.1909517885E-16   0.6445824295E-16   0.1000001001E+02
     1     2     3     4     5     6     7     8
     2     9    10     3     6    11    12     7
 VARIABLES = X,Y,Z,DU1,DU2,DU3,U1,U2,U3,S11,S22,S33,S12,S13,S23,E11,E22,E33,E12,E13,E23,SMISES
 ZONE, T="0.8050D+01" F=FEPOINT, I=   12 J=    2 ET=BRICK
   0.0000000000E+00   0.0000000000E+00   0.0000000000E+00   0.0000000000E+00   0.0000000000E+00   0.0000000000E+00   0.0000000000E+00   0.0000000000E+00   0.0000000000E+00  -0.8875000014E+01   0.1493953201E-11   0.1951603828E-11   0.7147543398E-17   0.4628359080E-12   0.1281061492E-12   0.1381917268E-01  -0.6927336340E-02  -0.6927336340E-02   0.7019622732E-18   0.5511326797E-14   0.1510748002E-14   0.8875000014E+01
   0.1013819173E+01   0.0000000000E+00   0.2846892781E-14   0.2250019972E-02   0.0000000000E+00   0.2863489029E-14   0.1156915269E-01   0.0000000000E+00  -0.1659624825E-16  -0.8875000014E+01   0.4957414161E-12   0.6087589423E-12   0.1129368431E-12   0.3033638770E-12  -0.1367110890E-12   0.1381917268E-01  -0.6927336340E-02  -0.6927336340E-02   0.1170539828E-14   0.3577218571E-14  -0.1656017423E-14   0.8875000014E+01
   0.1013819173E+01   0.9930726637E+00   0.2018397005E-14   0.2250019972E-02  -0.1122759986E-02   0.2040732074E-14   0.1156915269E-01  -0.5804576343E-02  -0.2233506911E-16  -0.8875000013E+01   0.2905339694E-12   0.1831523753E-12   0.1040551493E-12   0.1866517506E-12   0.6327234911E-13   0.1381917268E-01  -0.6927336339E-02  -0.6927336339E-02   0.1050624120E-14   0.2376085750E-14   0.7269841961E-15   0.8875000013E+01
   0.0000000000E+00   0.9930726637E+00   0.7552534546E-15   0.0000000000E+00  -0.1122759986E-02   0.7665375035E-15   0.0000000000E+00  -0.5804576343E-02  -0.1128404885E-16  -0.8875000013E+01  -0.7783934261E-12  -0.5556597897E-12   0.1280935834E-12   0.1254111228E-12   0.3277465158E-12   0.1381917268E-01  -0.6927336339E-02  -0.6927336339E-02   0.1549766867E-14   0.1481720545E-14   0.3946442533E-14   0.8875000013E+01
   0.0000000000E+00   0.0000000000E+00   0.9930726637E+00   0.0000000000E+00   0.0000000000E+00  -0.1122759986E-02   0.0000000000E+00   0.0000000000E+00  -0.5804576343E-02  -0.8875000013E+01  -0.2546315734E-13   0.3314882926E-13  -0.1022046015E-15   0.3262102551E-12   0.1023611020E-13   0.1381917268E-01  -0.6927336339E-02  -0.6927336339E-02  -0.7996078831E-19   0.3868343279E-14   0.1028953368E-15   0.8875000013E+01
   0.1013819173E+01   0.0000000000E+00   0.9930726637E+00   0.2250019972E-02   0.0000000000E+00  -0.1122759986E-02   0.1156915269E-01   0.0000000000E+00  -0.5804576343E-02  -0.8875000013E+01  -0.4856879529E-12  -0.7742126187E-12   0.1161049584E-12   0.3033754063E-12  -0.2466523558E-12   0.1381917268E-01  -0.6927336339E-02  -0.6927336339E-02   0.1410675073E-14   0.3517984964E-14  -0.2887211269E-14   0.8875000013E+01
   0.1013819173E+01   0.9930726637E+00   0.9930726637E+00   0.2250019972E-02  -0.1122759986E-02  -0.1122759986E-02   0.1156915269E-01  -0.5804576343E-02  -0.5804576343E-02  -0.8875000012E+01   0.5501245294E-12   0.4284216447E-13   0.1099684543E-12   0.1914495509E-12  -0.4671116334E-13   0.1381917268E-01  -0.6927336338E-02  -0.6927336338E-02   0.1350039427E-14   0.2396633494E-14  -0.5029007379E-15   0.8875000012E+01
   0.0000000000E+00   0.9930726637E+00   0.9930726637E+00   0.0000000000E+00  -0.1122759986E-02  -0.1122759986E-02   0.0000000000E+00  -0.5804576343E-02  -0.5804576343E-02  -0.8875000012E+01   0.3125290974E-12   0.1366703177E-12   0.1260727426E-12  -0.1340748590E-14   0.2100225415E-12   0.1381917268E-01  -0.6927336338E-02  -0.6927336338E-02   0.1440437101E-14   0.6397490697E-16   0.2532211383E-14   0.8875000012E+01
   0.2027638345E+01   0.0000000000E+00   0.6053285624E-14   0.4500039944E-02   0.0000000000E+00   0.6079487112E-14   0.2313830537E-01   0.0000000000E+00  -0.2620148743E-16  -0.8875000013E+01  -0.9044429961E-12  -0.4136981876E-12   0.2214430857E-12   0.1452531053E-12  -0.1129552840E-12   0.1381917268E-01  -0.6927336340E-02  -0.6927336340E-02   0.2574616077E-14   0.1725097915E-14  -0.1368499296E-14   0.8875000013E+01
   0.2027638345E+01   0.9930726637E+00   0.5369697986E-14   0.4500039944E-02  -0.1122759986E-02   0.5398519530E-14   0.2313830537E-01  -0.5804576343E-02  -0.2882154431E-16  -0.8875000012E+01  -0.1325992009E-11  -0.1045839212E-11   0.7537105993E-13   0.2408775989E-12   0.9339372506E-13   0.1381917268E-01  -0.6927336339E-02  -0.6927336339E-02   0.7931195879E-15   0.3113270022E-14   0.1189060341E-14   0.8875000012E+01
   0.2027638345E+01   0.0000000000E+00   0.9930726637E+00   0.4500039944E-02   0.0000000000E+00  -0.1122759986E-02   0.2313830537E-01   0.0000000000E+00  -0.5804576343E-02  -0.8875000012E+01   0.9449725066E-12   0.1026960810E-11   0.2243437040E-12   0.2778326826E-12  -0.2200178948E-12   0.1381917268E-01  -0.6927336339E-02  -0.6927336339E-02   0.2823025996E-14   0.3277484673E-14  -0.2620886595E-14   0.8875000012E+01
   0.2027638345E+01   0.9930726637E+00   0.9930726637E+00   0.4500039944E-02  -0.1122759986E-02  -0.1122759986E-02   0.2313830537E-01  -0.5804576343E-02  -0.5804576343E-02  -0.8875000011E+01   0.4643511121E-12   0.3293538019E-12   0.8770612998E-13   0.3804028167E-12  -0.1292603190E-13   0.1381917268E-01  -0.6927336338E-02  -0.6927336338E-02   0.1247088653E-14   0.4588150878E-14  -0.6306285166E-16   0.8875000011E+01
     1     2     3     4     5     6     7     8
     2     9    10     3     6    11    12     7
 VARIABLES = X,Y,Z,DU1,DU2,DU3,U1,U2,U3,S11,S22,S33,S12,S13,S23,E11,E22,E33,E12,E13,E23,SMISES
 ZONE, T="0.8100D+01" F=FEPOINT, I=   12 J=    2 ET=BRICK
   0.0000000000E+00   0.0000000000E+00   0.0000000000E+00   0.0000000000E+00   0.0000000000E+00   0.0000000000E+00   0.0000000000E+00   0.0000000000E+00   0.0000000000E+00  -0.7750000012E+01   0.1244250926E-12   0.1254377085E-12   0.1779172225E-16  -0.3471420798E-16  -0.6099427036E-16   0.1606917268E-01  -0.8050086342E-02  -0.8050086342E-02  -0.6006541067E-18  -0.3455101434E-16  -0.2968237480E-16   0.7750000012E+01
   0.1016069173E+01   0.0000000000E+00  -0.1502437438E-16   0.2250000000E-02   0.0000000000E+00  -0.2861917155E-14   0.1381917266E-01   0.0000000000E+00   0.2846892781E-14  -0.7750000012E+01   0.1502828400E-13   0.1441075823E-13   0.7138393035E-15   0.1123804106E-15  -0.2238781197E-15   0.1606917268E-01  -0.8050086342E-02  -0.8050086342E-02  -0.1700092943E-15  -0.6369683627E-16  -0.1935377618E-16   0.7750000012E+01
   0.1016069173E+01   0.9919499137E+00  -0.2524581833E-16   0.2250000000E-02  -0.1122750000E-02  -0.2043642824E-14   0.1381917266E-01  -0.6927336329E-02   0.2018397005E-14  -0.7750000011E+01  -0.4773104239E-13  -0.4752785745E-13   0.1117533788E-14  -0.7051313558E-16  -0.9047400820E-15   0.1606917268E-01  -0.8050086341E-02  -0.8050086341E-02  -0.1798017090E-15   0.1271238612E-15  -0.4676778744E-16   0.7750000011E+01
   0.0000000000E+00   0.9919499137E+00  -0.1329491336E-16   0.0000000000E+00  -0.1122750000E-02  -0.7685483680E-15   0.0000000000E+00  -0.6927336329E-02   0.7552534546E-15  -0.7750000011E+01  -0.3110296021E-13  -0.3152381324E-13   0.1421929524E-14  -0.8161813887E-15   0.5058352394E-15   0.1606917268E-01  -0.8050086341E-02  -0.8050086341E-02   0.2756465430E-16  -0.2640552636E-16   0.3031275398E-16   0.7750000011E+01
   0.0000000000E+00   0.0000000000E+00   0.9919499137E+00   0.0000000000E+00   0.0000000000E+00  -0.1122750000E-02   0.0000000000E+00   0.0000000000E+00  -0.6927336329E-02  -0.7750000011E+01  -0.9058314111E-13  -0.9299734197E-13  -0.1141287662E-15  -0.6834240633E-15  -0.3893375632E-15   0.1606917268E-01  -0.8050086341E-02  -0.8050086341E-02   0.2458484537E-18  -0.5642363948E-16  -0.2516841532E-16   0.7750000011E+01
   0.1016069173E+01   0.0000000000E+00   0.9919499137E+00   0.2250000000E-02   0.0000000000E+00  -0.1122750000E-02   0.1381917266E-01   0.0000000000E+00  -0.6927336329E-02  -0.7750000011E+01   0.3194024659E-13   0.3151501712E-13  -0.1276942503E-15   0.2336360691E-15   0.3478761492E-15   0.1606917268E-01  -0.8050086341E-02  -0.8050086341E-02   0.1259769299E-16  -0.1047645662E-15   0.7570652987E-16   0.7750000011E+01
   0.1016069173E+01   0.9919499137E+00   0.9919499137E+00   0.2250000000E-02  -0.1122750000E-02  -0.1122750000E-02   0.1381917266E-01  -0.6927336329E-02  -0.6927336329E-02  -0.7750000010E+01   0.1964140883E-13   0.2094684560E-13  -0.9270891080E-15   0.6159741605E-16  -0.2235348773E-15   0.1606917268E-01  -0.8050086340E-02  -0.8050086340E-02   0.1926558433E-16   0.1108823012E-15   0.5457768179E-16   0.7750000010E+01
   0.0000000000E+00   0.9919499137E+00   0.9919499137E+00   0.0000000000E+00  -0.1122750000E-02  -0.1122750000E-02   0.0000000000E+00  -0.6927336329E-02  -0.6927336329E-02  -0.7750000010E+01   0.3384814332E-13   0.3438692175E-13  -0.9154434163E-15   0.3358490283E-15   0.2842463711E-15   0.1606917268E-01  -0.8050086340E-02  -0.8050086340E-02  -0.8271183417E-16   0.7858283060E-16   0.1572008077E-16   0.7750000010E+01
   0.2032138345E+01   0.0000000000E+00  -0.1632697442E-16   0.4500000000E-02   0.0000000000E+00  -0.6069612599E-14   0.2763834532E-01   0.0000000000E+00   0.6053285624E-14  -0.7750000012E+01  -0.5668243164E-13  -0.6008387652E-13   0.1059366742E-14   0.2889083198E-14  -0.7711168347E-16   0.1606917268E-01  -0.8050086341E-02  -0.8050086341E-02  -0.6159504395E-16   0.2154730840E-16  -0.1387861664E-16   0.7750000012E+01
   0.2032138345E+01   0.9919499137E+00  -0.2298417612E-16   0.4500000000E-02  -0.1122750000E-02  -0.5392682162E-14   0.2763834532E-01  -0.6927336329E-02   0.5369697986E-14  -0.7750000011E+01  -0.8962094852E-13  -0.8812759199E-13   0.1547518198E-15  -0.2287831786E-14  -0.6297242302E-15   0.1606917268E-01  -0.8050086340E-02  -0.8050086340E-02  -0.1103833331E-15   0.1924198062E-15   0.6239597217E-16   0.7750000011E+01
   0.2032138345E+01   0.0000000000E+00   0.9919499137E+00   0.4500000000E-02   0.0000000000E+00  -0.1122750000E-02   0.2763834532E-01   0.0000000000E+00  -0.6927336329E-02  -0.7750000011E+01   0.4127215983E-13   0.4216976793E-13  -0.1085213320E-14  -0.4069653666E-15   0.1046513737E-14   0.1606917268E-01  -0.8050086340E-02  -0.8050086340E-02   0.1150346903E-15  -0.8879171250E-16   0.3116801676E-16   0.7750000011E+01
   0.2032138345E+01   0.9919499137E+00   0.9919499137E+00   0.4500000000E-02  -0.1122750000E-02  -0.1122750000E-02   0.2763834532E-01  -0.6927336329E-02  -0.6927336329E-02  -0.7750000010E+01  -0.1060931851E-12  -0.1051748674E-12   0.7094700469E-16   0.3948618199E-15   0.1074403716E-14   0.1606917268E-01  -0.8050086340E-02  -0.8050086340E-02   0.1992339101E-15   0.2423791296E-16   0.1071484392E-15   0.7750000010E+01
     1     2     3     4     5     6     7     8
     2     9    10     3     6    11    12     7
 VARIABLES = X,Y,Z,DU1,DU2,DU3,U1,U2,U3,S11,S22,S33,S12,S13,S23,E11,E22,E33,E12,E13,E23,SMISES
 ZONE, T="0.8150D+01" F=FEPOINT, I=   12 J=    2 ET=BRICK
   0.0000000000E+00   0.0000000000E+00   0.0000000000E+00   0.0000000000E+00   0.0000000000E+00   0.0000000000E+00   0.0000000000E+00   0.0000000000E+00   0.0000000000E+00  -0.6625000010E+01  -0.3620543437E-13  -0.3602150014E-13   0.7928233813E-17  -0.2390132366E-15   0.1001861261E-15   0.1831917269E-01  -0.9172836344E-02  -0.9172836344E-02  -0.2816077888E-17  -0.4006193986E-16  -0.2352299269E-16   0.6625000010E+01
   0.1018319173E+01   0.0000000000E+00  -0.1713922121E-16   0.2250000000E-02   0.0000000000E+00  -0.2114846830E-17   0.1606917266E-01   0.0000000000E+00  -0.1502437438E-16  -0.6625000010E+01  -0.3597961304E-13  -0.3714427927E-13   0.8593630772E-15   0.2373120172E-15   0.5600248212E-16   0.1831917269E-01  -0.9172836343E-02  -0.9172836343E-02  -0.1642378910E-15  -0.5978193578E-16  -0.2005215186E-16   0.6625000010E+01
   0.1018319173E+01   0.9908271637E+00  -0.2579083569E-16   0.2250000000E-02  -0.1122750000E-02  -0.5450173560E-18   0.1606917266E-01  -0.8050086329E-02  -0.2524581833E-16  -0.6625000009E+01  -0.1542042838E-13  -0.1604592511E-13   0.1259957840E-14  -0.2962734525E-15  -0.1261618139E-14   0.1831917268E-01  -0.9172836342E-02  -0.9172836342E-02  -0.1768672922E-15   0.1310484682E-15  -0.4231394392E-16   0.6625000009E+01
   0.0000000000E+00   0.9908271637E+00  -0.1229007941E-16   0.0000000000E+00  -0.1122750000E-02   0.1004833948E-17   0.0000000000E+00  -0.8050086329E-02  -0.1329491336E-16  -0.6625000010E+01   0.5073205603E-13   0.5053324755E-13   0.1491669366E-14  -0.8661461774E-15   0.9607599571E-16   0.1831917269E-01  -0.9172836343E-02  -0.9172836343E-02   0.2895686610E-16  -0.3336918176E-16   0.7393652702E-17   0.6625000010E+01
   0.0000000000E+00   0.0000000000E+00   0.9908271637E+00   0.0000000000E+00   0.0000000000E+00  -0.1122750000E-02   0.0000000000E+00   0.0000000000E+00  -0.8050086329E-02  -0.6625000010E+01  -0.6644512380E-13  -0.6891882131E-13  -0.1162186076E-15  -0.9071480711E-15  -0.2185323114E-16   0.1831917269E-01  -0.9172836343E-02  -0.9172836343E-02   0.1711774873E-17  -0.5831841562E-16  -0.2348687940E-16   0.6625000010E+01
   0.1018319173E+01   0.0000000000E+00   0.9908271637E+00   0.2250000000E-02   0.0000000000E+00  -0.1122750000E-02   0.1606917266E-01   0.0000000000E+00  -0.8050086329E-02  -0.6625000009E+01   0.2810457897E-13   0.2790139404E-13  -0.3465008503E-15   0.4302087734E-15   0.6840567932E-15   0.1831917268E-01  -0.9172836342E-02  -0.9172836342E-02   0.5714852947E-17  -0.1096649994E-15   0.8725581996E-16   0.6625000009E+01
   0.1018319173E+01   0.9908271637E+00   0.9908271637E+00   0.2250000000E-02  -0.1122750000E-02  -0.1122750000E-02   0.1606917266E-01  -0.8050086329E-02  -0.8050086329E-02  -0.6625000009E+01  -0.7635632377E-14  -0.6389692257E-14  -0.1134530181E-14  -0.1084886883E-15  -0.4788763197E-15   0.1831917268E-01  -0.9172836341E-02  -0.9172836341E-02   0.1453256842E-16   0.8500939657E-16   0.4350181539E-16   0.6625000009E+01
   0.0000000000E+00   0.9908271637E+00   0.9908271637E+00   0.0000000000E+00  -0.1122750000E-02  -0.1122750000E-02   0.0000000000E+00  -0.8050086329E-02  -0.8050086329E-02  -0.6625000009E+01   0.2851457319E-13   0.3004458120E-13  -0.9794556450E-15   0.7243120825E-16   0.1887172403E-15   0.1831917268E-01  -0.9172836341E-02  -0.9172836341E-02  -0.7967079558E-16   0.8927381591E-16   0.2511942678E-16   0.6625000009E+01
   0.2036638345E+01   0.0000000000E+00  -0.2406595402E-16   0.4500000000E-02   0.0000000000E+00  -0.7738979604E-17   0.3213834532E-01   0.0000000000E+00  -0.1632697442E-16  -0.6625000010E+01  -0.4444655917E-13  -0.4867668573E-13   0.1069920625E-14   0.3170750514E-14   0.1706890078E-15   0.1831917269E-01  -0.9172836343E-02  -0.9172836343E-02  -0.6311149796E-16   0.1527271494E-16  -0.6450601262E-17   0.6625000010E+01
   0.2036638345E+01   0.9908271637E+00  -0.2936620658E-16   0.4500000000E-02  -0.1122750000E-02  -0.6382030453E-17   0.3213834532E-01  -0.8050086329E-02  -0.2298417612E-16  -0.6625000009E+01   0.1163058430E-13   0.1334598539E-13   0.4574429377E-16  -0.2544524881E-14  -0.8833238415E-15   0.1831917268E-01  -0.9172836342E-02  -0.9172836342E-02  -0.1034877188E-15   0.1889605438E-15   0.5328623978E-16   0.6625000009E+01
   0.2036638345E+01   0.0000000000E+00   0.9908271637E+00   0.4500000000E-02   0.0000000000E+00  -0.1122750000E-02   0.3213834532E-01   0.0000000000E+00  -0.8050086329E-02  -0.6625000009E+01   0.1868219889E-13   0.1952031034E-13  -0.1239680819E-14  -0.8766605308E-16   0.1456067326E-14   0.1831917268E-01  -0.9172836342E-02  -0.9172836342E-02   0.1160456520E-15  -0.6699399544E-16   0.3114940641E-16   0.6625000009E+01
   0.2036638345E+01   0.9908271637E+00   0.9908271637E+00   0.4500000000E-02  -0.1122750000E-02  -0.1122750000E-02   0.3213834532E-01  -0.8050086329E-02  -0.8050086329E-02  -0.6625000008E+01   0.1413476618E-13   0.1604431342E-13   0.7896005157E-16   0.4965511393E-15   0.1082584978E-14   0.1831917268E-01  -0.9172836341E-02  -0.9172836341E-02   0.1936918491E-15   0.7847782765E-17   0.1147173389E-15   0.6625000008E+01
     1     2     3     4     5     6     7     8
     2     9    10     3     6    11    12     7
 VARIABLES = X,Y,Z,DU1,DU2,DU3,U1,U2,U3,S11,S22,S33,S12,S13,S23,E11,E22,E33,E12,E13,E23,SMISES
 ZONE, T="0.8200D+01" F=FEPOINT, I=   12 J=    2 ET=BRICK
   0.0000000000E+00   0.0000000000E+00   0.0000000000E+00   0.0000000000E+00   0.0000000000E+00   0.0000000000E+00   0.0000000000E+00   0.0000000000E+00   0.0000000000E+00  -0.5500000009E+01   0.4995058925E-13   0.5038631636E-13   0.3341096213E-16  -0.3339364122E-15   0.3998741661E-15   0.2056917269E-01  -0.1029558635E-01  -0.1029558635E-01   0.9227655107E-19  -0.3569609487E-16  -0.1678132180E-16   0.5500000009E+01
   0.1020569173E+01   0.0000000000E+00  -0.1811435245E-16   0.2250000000E-02   0.0000000000E+00  -0.9751312405E-18   0.1831917266E-01   0.0000000000E+00  -0.1713922121E-16  -0.5500000008E+01   0.5457001231E-13   0.5306139057E-13   0.6469978511E-15   0.2414862797E-15   0.2540228501E-15   0.2056917269E-01  -0.1029558635E-01  -0.1029558635E-01  -0.1708363567E-15  -0.6604250953E-16  -0.1479578562E-16   0.5500000008E+01
   0.1020569173E+01   0.9897044137E+00  -0.2554455625E-16   0.2250000000E-02  -0.1122750000E-02   0.2462794330E-18   0.1831917266E-01  -0.9172836329E-02  -0.2579083569E-16  -0.5500000008E+01   0.1224832178E-13   0.1147116576E-13   0.1162464454E-14  -0.2854911402E-15  -0.1546499209E-14   0.2056917269E-01  -0.1029558634E-01  -0.1029558634E-01  -0.1827011602E-15   0.1360127714E-15  -0.4774448843E-16   0.5500000008E+01
   0.0000000000E+00   0.9897044137E+00  -0.1064629976E-16   0.0000000000E+00  -0.1122750000E-02   0.1643779645E-17   0.0000000000E+00  -0.9172836329E-02  -0.1229007941E-16  -0.5500000008E+01  -0.2378784945E-13  -0.2490750217E-13   0.1521100920E-14  -0.9907143693E-15  -0.3464861366E-16   0.2056917269E-01  -0.1029558634E-01  -0.1029558634E-01   0.3434702332E-16  -0.3724571457E-16   0.5144273856E-17   0.5500000008E+01
   0.0000000000E+00   0.0000000000E+00   0.9897044137E+00   0.0000000000E+00   0.0000000000E+00  -0.1122750000E-02   0.0000000000E+00   0.0000000000E+00  -0.9172836329E-02  -0.5500000008E+01  -0.6142061276E-13  -0.6372233246E-13  -0.1241244441E-15  -0.1064974646E-14  -0.4561254989E-17   0.2056917269E-01  -0.1029558634E-01  -0.1029558634E-01  -0.1580944035E-17  -0.6155395535E-16  -0.2767398573E-16   0.5500000008E+01
   0.1020569173E+01   0.0000000000E+00   0.9897044137E+00   0.2250000000E-02   0.0000000000E+00  -0.1122750000E-02   0.1831917266E-01   0.0000000000E+00  -0.9172836329E-02  -0.5500000008E+01  -0.1679283423E-13  -0.1611581186E-13  -0.2501863703E-15   0.3146293837E-15   0.1030345281E-14   0.2056917269E-01  -0.1029558634E-01  -0.1029558634E-01   0.1393887863E-16  -0.1171928050E-15   0.8544046590E-16   0.5500000008E+01
   0.1020569173E+01   0.9897044137E+00   0.9897044137E+00   0.2250000000E-02  -0.1122750000E-02  -0.1122750000E-02   0.1831917266E-01  -0.9172836329E-02  -0.9172836329E-02  -0.5500000007E+01  -0.6257236372E-14  -0.4515681431E-14  -0.1039930088E-14   0.3018878645E-16  -0.6733143733E-15   0.2056917269E-01  -0.1029558634E-01  -0.1029558634E-01   0.1105599385E-16   0.8717484727E-16   0.4702647680E-16   0.5500000007E+01
   0.0000000000E+00   0.9897044137E+00   0.9897044137E+00   0.0000000000E+00  -0.1122750000E-02  -0.1122750000E-02   0.0000000000E+00  -0.9172836329E-02  -0.9172836329E-02  -0.5500000007E+01  -0.1963353809E-13  -0.1802770047E-13  -0.1168124249E-14   0.2673157986E-15  -0.5114049317E-17   0.2056917269E-01  -0.1029558634E-01  -0.1029558634E-01  -0.8300014343E-16   0.8788683420E-16   0.2530016534E-16   0.5500000007E+01
   0.2041138345E+01   0.0000000000E+00  -0.2822589328E-16   0.4500000000E-02   0.0000000000E+00  -0.4159939252E-17   0.3663834532E-01   0.0000000000E+00  -0.2406595402E-16  -0.5500000008E+01   0.6137372375E-13   0.5634466384E-13   0.5597173769E-15   0.2893408759E-14   0.3254102954E-15   0.2056917269E-01  -0.1029558634E-01  -0.1029558634E-01  -0.6398788510E-16   0.4612595701E-16  -0.8777786445E-17   0.5500000008E+01
   0.2041138345E+01   0.9897044137E+00  -0.3258668929E-16   0.4500000000E-02  -0.1122750000E-02  -0.3220482709E-17   0.3663834532E-01  -0.9172836329E-02  -0.2936620658E-16  -0.5500000008E+01  -0.6364076811E-13  -0.6232084818E-13  -0.4384789435E-15  -0.1950335391E-14  -0.1169432091E-14   0.2056917269E-01  -0.1029558634E-01  -0.1029558634E-01  -0.1147532775E-15   0.1713379486E-15   0.5241554148E-16   0.5500000008E+01
   0.2041138345E+01   0.0000000000E+00   0.9897044137E+00   0.4500000000E-02   0.0000000000E+00  -0.1122750000E-02   0.3663834532E-01   0.0000000000E+00  -0.9172836329E-02  -0.5500000008E+01   0.9976258879E-13   0.1005099965E-12  -0.1145880053E-14  -0.9662530883E-16   0.1687585938E-14   0.2056917269E-01  -0.1029558634E-01  -0.1029558634E-01   0.1178347328E-15  -0.7332472302E-16   0.4184873024E-16   0.5500000008E+01
   0.2041138345E+01   0.9897044137E+00   0.9897044137E+00   0.4500000000E-02  -0.1122750000E-02  -0.1122750000E-02   0.3663834532E-01  -0.9172836329E-02  -0.9172836329E-02  -0.5500000007E+01   0.2262602805E-13   0.2492561212E-13   0.4380929508E-15   0.6498466237E-15   0.7967513892E-15   0.2056917268E-01  -0.1029558634E-01  -0.1029558634E-01   0.2031014374E-15   0.4727903692E-16   0.1073999357E-15   0.5500000007E+01
     1     2     3     4     5     6     7     8
     2     9    10     3     6    11    12     7
 VARIABLES = X,Y,Z,DU1,DU2,DU3,U1,U2,U3,S11,S22,S33,S12,S13,S23,E11,E22,E33,E12,E13,E23,SMISES
 ZONE, T="0.8250D+01" F=FEPOINT, I=   12 J=    2 ET=BRICK
   0.0000000000E+00   0.0000000000E+00   0.0000000000E+00   0.0000000000E+00   0.0000000000E+00   0.0000000000E+00   0.0000000000E+00   0.0000000000E+00   0.0000000000E+00  -0.4375000007E+01   0.9302141112E-13   0.9405978984E-13   0.3188496039E-16  -0.2490518579E-15   0.8542912924E-16   0.2281917269E-01  -0.1141833635E-01  -0.1141833635E-01  -0.4372856654E-18  -0.3785415796E-16  -0.2633650250E-16   0.4375000007E+01
   0.1022819173E+01   0.0000000000E+00  -0.1670069600E-16   0.2250000000E-02   0.0000000000E+00   0.1413656452E-17   0.2056917266E-01   0.0000000000E+00  -0.1811435245E-16  -0.4375000007E+01  -0.1028016420E-13  -0.1101960093E-13   0.7985132171E-15   0.4535204703E-15  -0.4389724322E-16   0.2281917269E-01  -0.1141833635E-01  -0.1141833635E-01  -0.1614138725E-15  -0.5174739192E-16  -0.1883145262E-16   0.4375000007E+01
   0.1022819173E+01   0.9885816637E+00  -0.2580718292E-16   0.2250000000E-02  -0.1122750000E-02  -0.2626266655E-18   0.2056917266E-01  -0.1029558633E-01  -0.2554455625E-16  -0.4375000006E+01  -0.2061029126E-13  -0.2093246943E-13   0.1143264117E-14  -0.3762727517E-15  -0.1058332657E-14   0.2281917269E-01  -0.1141833635E-01  -0.1141833635E-01  -0.1773480440E-15   0.1253772861E-15  -0.4655818357E-16   0.4375000006E+01
   0.0000000000E+00   0.9885816637E+00  -0.1251708545E-16   0.0000000000E+00  -0.1122750000E-02  -0.1870785685E-17   0.0000000000E+00  -0.1029558633E-01  -0.1064629976E-16  -0.4375000006E+01  -0.1249975544E-12  -0.1251462960E-12   0.1466035605E-14  -0.8150117835E-15   0.1961413776E-15   0.2281917269E-01  -0.1141833635E-01  -0.1141833635E-01   0.2861947789E-16  -0.3260674458E-16   0.1884726851E-16   0.4375000006E+01
   0.0000000000E+00   0.0000000000E+00   0.9885816637E+00   0.0000000000E+00   0.0000000000E+00  -0.1122750000E-02   0.0000000000E+00   0.0000000000E+00  -0.1029558633E-01  -0.4375000006E+01   0.2002802046E-13   0.1754343432E-13  -0.1197506173E-15  -0.9731141955E-15  -0.3094256106E-15   0.2281917269E-01  -0.1141833635E-01  -0.1141833635E-01  -0.2842941698E-17  -0.5840152572E-16  -0.2081610909E-16   0.4375000006E+01
   0.1022819173E+01   0.0000000000E+00   0.9885816637E+00   0.2250000000E-02   0.0000000000E+00  -0.1122750000E-02   0.2056917266E-01   0.0000000000E+00  -0.1029558633E-01  -0.4375000006E+01  -0.1562574855E-13  -0.1564752586E-13  -0.1967165917E-15   0.3346256449E-15   0.5670548092E-15   0.2281917269E-01  -0.1141833635E-01  -0.1141833635E-01   0.1027687420E-16  -0.9757742393E-16   0.7551376667E-16   0.4375000006E+01
   0.1022819173E+01   0.9885816637E+00   0.9885816637E+00   0.2250000000E-02  -0.1122750000E-02  -0.1122750000E-02   0.2056917266E-01  -0.1029558633E-01  -0.1029558633E-01  -0.4375000006E+01   0.2574763541E-13   0.2672000533E-13  -0.9947648625E-15   0.1794126484E-15  -0.2877130653E-15   0.2281917269E-01  -0.1141833634E-01  -0.1141833634E-01   0.1419264088E-16   0.9297434028E-16   0.5660824140E-16   0.4375000006E+01
   0.0000000000E+00   0.9885816637E+00   0.9885816637E+00   0.0000000000E+00  -0.1122750000E-02  -0.1122750000E-02   0.0000000000E+00  -0.1029558633E-01  -0.1029558633E-01  -0.4375000006E+01   0.8076999228E-13   0.8144011148E-13  -0.9131765347E-15   0.2269879022E-15   0.1182941860E-15   0.2281917269E-01  -0.1141833634E-01  -0.1141833634E-01  -0.8187253416E-16   0.8614425033E-16   0.1953169088E-16   0.4375000006E+01
   0.2045638345E+01   0.0000000000E+00  -0.2216771269E-16   0.4500000000E-02   0.0000000000E+00   0.6058180585E-17   0.4113834532E-01   0.0000000000E+00  -0.2822589328E-16  -0.4375000007E+01  -0.1306629694E-13  -0.1715963837E-13   0.8047992378E-15   0.2482413679E-14   0.6532025042E-16   0.2281917269E-01  -0.1141833635E-01  -0.1141833635E-01  -0.4794258260E-16   0.3048071973E-16  -0.1307281051E-16   0.4375000007E+01
   0.2045638345E+01   0.9885816637E+00  -0.2823737590E-16   0.4500000000E-02  -0.1122750000E-02   0.4349313391E-17   0.4113834532E-01  -0.1029558633E-01  -0.3258668929E-16  -0.4375000006E+01   0.6720917648E-13   0.6962191846E-13  -0.2236058991E-15  -0.1850167838E-14  -0.7945844157E-15   0.2281917269E-01  -0.1141833635E-01  -0.1141833635E-01  -0.9822807291E-16   0.1775148686E-15   0.6119586975E-16   0.4375000006E+01
   0.2045638345E+01   0.0000000000E+00   0.9885816637E+00   0.4500000000E-02   0.0000000000E+00  -0.1122750000E-02   0.4113834532E-01   0.0000000000E+00  -0.1029558633E-01  -0.4375000006E+01  -0.4586490029E-13  -0.4517844811E-13  -0.7100729797E-15  -0.4310435972E-16   0.1264739827E-14   0.2281917269E-01  -0.1141833635E-01  -0.1141833635E-01   0.1136530816E-15  -0.6663378382E-16   0.4009858930E-16   0.4375000006E+01
   0.2045638345E+01   0.9885816637E+00   0.9885816637E+00   0.4500000000E-02  -0.1122750000E-02  -0.1122750000E-02   0.4113834532E-01  -0.1029558633E-01  -0.1029558633E-01  -0.4375000006E+01  -0.7863936497E-13  -0.7694243244E-13   0.6237150654E-15   0.3226137800E-15   0.9459455880E-15   0.2281917269E-01  -0.1141833634E-01  -0.1141833634E-01   0.1989005729E-15   0.5598240119E-16   0.1068463140E-15   0.4375000006E+01
     1     2     3     4     5     6     7     8
     2     9    10     3     6    11    12     7
 VARIABLES = X,Y,Z,DU1,DU2,DU3,U1,U2,U3,S11,S22,S33,S12,S13,S23,E11,E22,E33,E12,E13,E23,SMISES
 ZONE, T="0.8300D+01" F=FEPOINT, I=   12 J=    2 ET=BRICK
   0.0000000000E+00   0.0000000000E+00   0.0000000000E+00   0.0000000000E+00   0.0000000000E+00   0.0000000000E+00   0.0000000000E+00   0.0000000000E+00   0.0000000000E+00  -0.3250000005E+01  -0.1195319446E-12  -0.1186018660E-12   0.1925453035E-16  -0.3465669584E-15   0.3063937812E-16   0.2506917270E-01  -0.1254108635E-01  -0.1254108635E-01   0.2355707115E-17  -0.3791434216E-16  -0.3080730533E-16   0.3250000005E+01
   0.1025069173E+01   0.0000000000E+00  -0.1709301705E-16   0.2250000000E-02   0.0000000000E+00  -0.3923210452E-18   0.2281917266E-01   0.0000000000E+00  -0.1670069600E-16  -0.3250000005E+01   0.9995923008E-15   0.3359852307E-15   0.1171197474E-14   0.8047207641E-15  -0.7002839502E-16   0.2506917270E-01  -0.1254108635E-01  -0.1254108635E-01  -0.1713935883E-15  -0.5909807001E-16  -0.1768869501E-16   0.3250000005E+01
   0.1025069173E+01   0.9874589137E+00  -0.2620300980E-16   0.2250000000E-02  -0.1122750000E-02  -0.3958268848E-18   0.2281917266E-01  -0.1141833633E-01  -0.2580718292E-16  -0.3250000005E+01   0.3344193640E-13   0.3322135069E-13   0.1484381780E-14  -0.7806315421E-15  -0.1068575050E-14   0.2506917269E-01  -0.1254108635E-01  -0.1254108635E-01  -0.1843336444E-15   0.1124222229E-15  -0.4407638110E-16   0.3250000005E+01
   0.0000000000E+00   0.9874589137E+00  -0.1290942634E-16   0.0000000000E+00  -0.1122750000E-02  -0.3923408913E-18   0.0000000000E+00  -0.1141833633E-01  -0.1251708545E-16  -0.3250000005E+01   0.8710276535E-13   0.8704399811E-13   0.1315298757E-14  -0.7557021614E-15  -0.4768136466E-16   0.2506917269E-01  -0.1254108635E-01  -0.1254108635E-01   0.3571569652E-16  -0.3263068500E-16   0.2242246582E-16   0.3250000005E+01
   0.0000000000E+00   0.0000000000E+00   0.9874589137E+00   0.0000000000E+00   0.0000000000E+00  -0.1122750000E-02   0.0000000000E+00   0.0000000000E+00  -0.1141833633E-01  -0.3250000005E+01   0.4242939353E-13   0.3983305572E-13  -0.1094853905E-15  -0.7966629012E-15  -0.1851638189E-15   0.2506917269E-01  -0.1254108635E-01  -0.1254108635E-01  -0.1349162794E-17  -0.5866769337E-16  -0.2169840429E-16   0.3250000005E+01
   0.1025069173E+01   0.0000000000E+00   0.9874589137E+00   0.2250000000E-02   0.0000000000E+00  -0.1122750000E-02   0.2281917266E-01   0.0000000000E+00  -0.1141833633E-01  -0.3250000005E+01   0.6819508075E-14   0.7302775378E-14  -0.4962649829E-15   0.6773103442E-15   0.5943032118E-15   0.2506917269E-01  -0.1254108635E-01  -0.1254108635E-01   0.6728056107E-17  -0.1040315490E-15   0.8128092328E-16   0.3250000005E+01
   0.1025069173E+01   0.9874589137E+00   0.9874589137E+00   0.2250000000E-02  -0.1122750000E-02  -0.1122750000E-02   0.2281917266E-01  -0.1141833633E-01  -0.1141833633E-01  -0.3250000004E+01  -0.1740327654E-13  -0.1635507697E-13  -0.1224743033E-14  -0.1855323231E-15  -0.4216422247E-15   0.2506917269E-01  -0.1254108635E-01  -0.1254108635E-01   0.1170471170E-16   0.9030690341E-16   0.4990606373E-16   0.3250000004E+01
   0.0000000000E+00   0.9874589137E+00   0.9874589137E+00   0.0000000000E+00  -0.1122750000E-02  -0.1122750000E-02   0.0000000000E+00  -0.1141833633E-01  -0.1141833633E-01  -0.3250000004E+01  -0.6725984959E-13  -0.6669803052E-13  -0.9555922964E-15   0.1453403893E-15   0.2382098514E-15   0.2506917269E-01  -0.1254108635E-01  -0.1254108635E-01  -0.8393852871E-16   0.8403471233E-16   0.2541416173E-16   0.3250000004E+01
   0.2050138345E+01   0.0000000000E+00  -0.2314278379E-16   0.4500000000E-02   0.0000000000E+00  -0.9750710952E-18   0.4563834532E-01   0.0000000000E+00  -0.2216771269E-16  -0.3250000005E+01   0.8184094527E-13   0.7781526700E-13   0.6659666226E-15   0.2575195240E-14   0.8737236800E-16   0.2506917270E-01  -0.1254108635E-01  -0.1254108635E-01  -0.4381243045E-16   0.5407395908E-16  -0.1437458061E-16   0.3250000005E+01
   0.2050138345E+01   0.9874589137E+00  -0.2911742989E-16   0.4500000000E-02  -0.1122750000E-02  -0.8800539956E-18   0.4563834532E-01  -0.1141833633E-01  -0.2823737590E-16  -0.3250000005E+01  -0.6865634045E-13  -0.6590037235E-13  -0.5140513533E-15  -0.1999261474E-14  -0.6821283198E-15   0.2506917269E-01  -0.1254108635E-01  -0.1254108635E-01  -0.1009198315E-15   0.1810855985E-15   0.6638793671E-16   0.3250000005E+01
   0.2050138345E+01   0.0000000000E+00   0.9874589137E+00   0.4500000000E-02   0.0000000000E+00  -0.1122750000E-02   0.4563834532E-01   0.0000000000E+00  -0.1141833633E-01  -0.3250000005E+01  -0.5457927895E-13  -0.5453937140E-13  -0.8974167955E-15  -0.2929071676E-15   0.1292059068E-14   0.2506917269E-01  -0.1254108635E-01  -0.1254108635E-01   0.9091126705E-16  -0.8201975024E-16   0.4089581872E-16   0.3250000005E+01
   0.2050138345E+01   0.9874589137E+00   0.9874589137E+00   0.4500000000E-02  -0.1122750000E-02  -0.1122750000E-02   0.4563834532E-01  -0.1141833633E-01  -0.1141833633E-01  -0.3250000004E+01   0.6137488537E-13   0.6313948104E-13   0.6717108501E-15   0.2008166196E-15   0.1206051048E-14   0.2506917269E-01  -0.1254108635E-01  -0.1254108635E-01   0.1989666312E-15   0.7546028297E-16   0.1113224640E-15   0.3250000004E+01
     1     2     3     4     5     6     7     8
     2     9    10     3     6    11    12     7
 VARIABLES = X,Y,Z,DU1,DU2,DU3,U1,U2,U3,S11,S22,S33,S12,S13,S23,E11,E22,E33,E12,E13,E23,SMISES
 ZONE, T="0.8350D+01" F=FEPOINT, I=   12 J=    2 ET=BRICK
   0.0000000000E+00   0.0000000000E+00   0.0000000000E+00   0.0000000000E+00   0.0000000000E+00   0.0000000000E+00   0.0000000000E+00   0.0000000000E+00   0.0000000000E+00  -0.2125000003E+01   0.4924017322E-15   0.1562352276E-14   0.2364504043E-16  -0.3522560313E-15   0.1209006558E-15   0.2731917270E-01  -0.1366383635E-01  -0.1366383635E-01  -0.4175049865E-18  -0.2948742224E-16  -0.2505681160E-16   0.2125000003E+01
   0.1027319173E+01   0.0000000000E+00  -0.1700619056E-16   0.2250000000E-02   0.0000000000E+00   0.8682648717E-19   0.2506917266E-01   0.0000000000E+00  -0.1709301705E-16  -0.2125000003E+01   0.6396607269E-13   0.6338845449E-13   0.9944412046E-15   0.4753767194E-15   0.7666913256E-16   0.2731917270E-01  -0.1366383635E-01  -0.1366383635E-01  -0.1621841105E-15  -0.6350195994E-16  -0.1451097375E-16   0.2125000003E+01
   0.1027319173E+01   0.9863361637E+00  -0.2528484603E-16   0.2250000000E-02  -0.1122750000E-02   0.9181637768E-18   0.2506917266E-01  -0.1254108633E-01  -0.2620300980E-16  -0.2125000003E+01  -0.4307357201E-13  -0.4360564277E-13   0.1331925180E-14  -0.5788054559E-15  -0.9494547934E-15   0.2731917270E-01  -0.1366383635E-01  -0.1366383635E-01  -0.1783484773E-15   0.1425243926E-15  -0.4016773466E-16   0.2125000003E+01
   0.0000000000E+00   0.9863361637E+00  -0.1229037518E-16   0.0000000000E+00  -0.1122750000E-02   0.6190511574E-18   0.0000000000E+00  -0.1254108633E-01  -0.1290942634E-16  -0.2125000003E+01  -0.3790036434E-14  -0.4314572435E-14   0.1364158774E-14  -0.6231416995E-15   0.1218870871E-15   0.2731917270E-01  -0.1366383635E-01  -0.1366383635E-01   0.3728197315E-16  -0.4263424618E-16   0.1392095516E-16   0.2125000003E+01
   0.0000000000E+00   0.0000000000E+00   0.9863361637E+00   0.0000000000E+00   0.0000000000E+00  -0.1122750000E-02   0.0000000000E+00   0.0000000000E+00  -0.1254108633E-01  -0.2125000003E+01  -0.6201011931E-13  -0.6446831097E-13  -0.1367772185E-15  -0.8687220416E-15  -0.3105648598E-15   0.2731917270E-01  -0.1366383635E-01  -0.1366383635E-01   0.4454394653E-18  -0.5224106700E-16  -0.2659526174E-16   0.2125000003E+01
   0.1027319173E+01   0.0000000000E+00   0.9863361637E+00   0.2250000000E-02   0.0000000000E+00  -0.1122750000E-02   0.2506917266E-01   0.0000000000E+00  -0.1254108633E-01  -0.2125000003E+01  -0.4248066611E-13  -0.4202986929E-13   0.6210112339E-16   0.2144215797E-15   0.5623532366E-15   0.2731917270E-01  -0.1366383635E-01  -0.1366383635E-01   0.1541149393E-16  -0.1088564066E-15   0.7476729431E-16   0.2125000003E+01
   0.1027319173E+01   0.9863361637E+00   0.9863361637E+00   0.2250000000E-02  -0.1122750000E-02  -0.1122750000E-02   0.2506917266E-01  -0.1254108633E-01  -0.1254108633E-01  -0.2125000003E+01   0.1024706271E-13   0.1092627333E-13  -0.8030037504E-15   0.2181051035E-15  -0.5087286696E-15   0.2731917269E-01  -0.1366383635E-01  -0.1366383635E-01   0.1737830428E-16   0.9578902168E-16   0.5562539947E-16   0.2125000003E+01
   0.0000000000E+00   0.9863361637E+00   0.9863361637E+00   0.0000000000E+00  -0.1122750000E-02  -0.1122750000E-02   0.0000000000E+00  -0.1254108633E-01  -0.1254108633E-01  -0.2125000003E+01  -0.3222883846E-14  -0.3159037056E-14  -0.1008748820E-14   0.1537730110E-15   0.2143076146E-15   0.2731917269E-01  -0.1366383635E-01  -0.1366383635E-01  -0.8367397222E-16   0.8444546241E-16   0.1895466577E-16   0.2125000003E+01
   0.2054638345E+01   0.0000000000E+00  -0.2340191064E-16   0.4500000000E-02   0.0000000000E+00  -0.2591268534E-18   0.5013834532E-01   0.0000000000E+00  -0.2314278379E-16  -0.2125000003E+01   0.1733579843E-12   0.1693197893E-12   0.5283725059E-15   0.2105286206E-14   0.1464420720E-15   0.2731917270E-01  -0.1366383635E-01  -0.1366383635E-01  -0.6339989278E-16   0.2456368524E-16  -0.1369421266E-16   0.2125000003E+01
   0.2054638345E+01   0.9863361637E+00  -0.2895384827E-16   0.4500000000E-02  -0.1122750000E-02   0.1635816195E-18   0.5013834532E-01  -0.1254108633E-01  -0.2911742989E-16  -0.2125000003E+01  -0.4530804192E-13  -0.4263198670E-13  -0.6806092410E-15  -0.1858667194E-14  -0.9098409903E-15   0.2731917270E-01  -0.1366383635E-01  -0.1366383635E-01  -0.1189095724E-15   0.1804183390E-15   0.6171342669E-16   0.2125000003E+01
   0.2054638345E+01   0.0000000000E+00   0.9863361637E+00   0.4500000000E-02   0.0000000000E+00  -0.1122750000E-02   0.5013834532E-01   0.0000000000E+00  -0.1254108633E-01  -0.2125000003E+01  -0.7249953032E-13  -0.7158622088E-13  -0.3578073651E-15  -0.2549464219E-15   0.1192797710E-14   0.2731917270E-01  -0.1366383635E-01  -0.1366383635E-01   0.1138684082E-15  -0.6635153152E-16   0.4177701818E-16   0.2125000003E+01
   0.2054638345E+01   0.9863361637E+00   0.9863361637E+00   0.4500000000E-02  -0.1122750000E-02  -0.1122750000E-02   0.5013834532E-01  -0.1254108633E-01  -0.1254108633E-01  -0.2125000003E+01   0.2933416005E-13   0.3148026138E-13   0.1007189485E-14   0.6792955549E-15   0.9071339955E-15   0.2731917269E-01  -0.1366383635E-01  -0.1366383635E-01   0.2083415599E-15   0.3035656238E-16   0.9892446457E-16   0.2125000003E+01
     1     2     3     4     5     6     7     8
     2     9    10     3     6    11    12     7
 VARIABLES = X,Y,Z,DU1,DU2,DU3,U1,U2,U3,S11,S22,S33,S12,S13,S23,E11,E22,E33,E12,E13,E23,SMISES
 ZONE, T="0.8400D+01" F=FEPOINT, I=   12 J=    2 ET=BRICK
   0.0000000000E+00   0.0000000000E+00   0.0000000000E+00   0.0000000000E+00   0.0000000000E+00   0.0000000000E+00   0.0000000000E+00   0.0000000000E+00   0.0000000000E+00  -0.1000000002E+01  -0.1419920070E-13  -0.1272388982E-13   0.1679363005E-16  -0.2870260044E-15  -0.1502014459E-15   0.2956917270E-01  -0.1478658635E-01  -0.1478658635E-01  -0.2198142642E-17  -0.4945686701E-16  -0.3240402382E-16   0.1000000002E+01
   0.1029569173E+01   0.0000000000E+00  -0.1666750418E-16   0.2250000000E-02   0.0000000000E+00   0.3386863763E-18   0.2731917266E-01   0.0000000000E+00  -0.1700619056E-16  -0.1000000002E+01   0.7748910105E-14   0.7161497361E-14   0.9663269056E-15   0.3416987628E-15  -0.7105889892E-16   0.2956917270E-01  -0.1478658635E-01  -0.1478658635E-01  -0.1653683140E-15  -0.4144328838E-16  -0.2499472587E-16   0.1000000002E+01
   0.1029569173E+01   0.9852134137E+00  -0.2580659592E-16   0.2250000000E-02  -0.1122750000E-02  -0.5217498952E-18   0.2731917266E-01  -0.1366383633E-01  -0.2528484603E-16  -0.1000000001E+01   0.1899259993E-13   0.1863659019E-13   0.1578129111E-14  -0.5095948910E-15  -0.1014502919E-14   0.2956917270E-01  -0.1478658635E-01  -0.1478658635E-01  -0.1621576089E-15   0.9970023872E-16  -0.3191746013E-16   0.1000000001E+01
   0.0000000000E+00   0.9852134137E+00  -0.1391388054E-16   0.0000000000E+00  -0.1122750000E-02  -0.1623505357E-17   0.0000000000E+00  -0.1366383633E-01  -0.1229037518E-16  -0.1000000001E+01   0.5047558661E-13   0.5069614973E-13   0.1530885944E-14  -0.5230570888E-15   0.3808973527E-15   0.2956917270E-01  -0.1478658635E-01  -0.1478658635E-01   0.2628865760E-16  -0.1323800092E-16   0.2902987946E-16   0.1000000001E+01
   0.0000000000E+00   0.0000000000E+00   0.9852134137E+00   0.0000000000E+00   0.0000000000E+00  -0.1122750000E-02   0.0000000000E+00   0.0000000000E+00  -0.1366383633E-01  -0.1000000001E+01  -0.1155784356E-13  -0.1453029157E-13  -0.1538005095E-15  -0.7762594193E-15  -0.4084389902E-15   0.2956917270E-01  -0.1478658635E-01  -0.1478658635E-01   0.6699133814E-18  -0.5283103317E-16  -0.1936781548E-16   0.1000000001E+01
   0.1029569173E+01   0.0000000000E+00   0.9852134137E+00   0.2250000000E-02   0.0000000000E+00  -0.1122750000E-02   0.2731917266E-01   0.0000000000E+00  -0.1366383633E-01  -0.1000000001E+01  -0.5008809238E-13  -0.4981063441E-13  -0.9703796068E-16  -0.1277903738E-16   0.5076744770E-15   0.2956917270E-01  -0.1478658635E-01  -0.1478658635E-01   0.1383093718E-16  -0.1139791026E-15   0.8208475425E-16   0.1000000001E+01
   0.1029569173E+01   0.9852134137E+00   0.9852134137E+00   0.2250000000E-02  -0.1122750000E-02  -0.1122750000E-02   0.2731917266E-01  -0.1366383633E-01  -0.1366383633E-01  -0.1000000001E+01  -0.4167461119E-13  -0.4086913941E-13  -0.1016843257E-14   0.1611700900E-15  -0.4454137749E-15   0.2956917270E-01  -0.1478658635E-01  -0.1478658635E-01   0.2082697770E-17   0.1228482519E-15   0.5175867246E-16   0.1000000001E+01
   0.0000000000E+00   0.9852134137E+00   0.9852134137E+00   0.0000000000E+00  -0.1122750000E-02  -0.1122750000E-02   0.0000000000E+00  -0.1366383633E-01  -0.1366383633E-01  -0.1000000001E+01   0.3506252504E-13   0.3489498204E-13  -0.1234072819E-14   0.2631680085E-15   0.4876109735E-15   0.2956917270E-01  -0.1478658635E-01  -0.1478658635E-01  -0.7845809689E-16   0.7771816430E-16   0.2351951721E-16   0.1000000001E+01
   0.2059138345E+01   0.0000000000E+00  -0.2273275860E-16   0.4500000000E-02   0.0000000000E+00   0.6691520412E-18   0.5463834532E-01   0.0000000000E+00  -0.2340191064E-16  -0.1000000002E+01   0.5286194939E-13   0.4852669423E-13   0.7979413827E-15   0.2707159318E-14   0.3146531954E-15   0.2956917270E-01  -0.1478658635E-01  -0.1478658635E-01  -0.6088060313E-16   0.4124538868E-16  -0.1594585517E-16   0.1000000002E+01
   0.2059138345E+01   0.9852134137E+00  -0.2730179367E-16   0.4500000000E-02  -0.1122750000E-02   0.1652054604E-17   0.5463834532E-01  -0.1366383633E-01  -0.2895384827E-16  -0.1000000001E+01  -0.5277297540E-13  -0.5046758604E-13  -0.1543846755E-15  -0.2059826814E-14  -0.8752841177E-15   0.2956917270E-01  -0.1478658635E-01  -0.1478658635E-01  -0.1239761455E-15   0.2081226363E-15   0.7505443083E-16   0.1000000001E+01
   0.2059138345E+01   0.0000000000E+00   0.9852134137E+00   0.4500000000E-02   0.0000000000E+00  -0.1122750000E-02   0.5463834532E-01   0.0000000000E+00  -0.1366383633E-01  -0.1000000001E+01   0.1661278473E-14   0.2431410949E-14  -0.7801155493E-15   0.2159990976E-15   0.1306643119E-14   0.2956917270E-01  -0.1478658635E-01  -0.1478658635E-01   0.1111555466E-15  -0.1043451844E-15   0.3738784203E-16   0.1000000001E+01
   0.2059138345E+01   0.9852134137E+00   0.9852134137E+00   0.4500000000E-02  -0.1122750000E-02  -0.1122750000E-02   0.5463834532E-01  -0.1366383633E-01  -0.1366383633E-01  -0.1000000001E+01  -0.2696811304E-13  -0.2504287758E-13   0.6123346723E-15   0.4349024271E-15   0.8467546148E-15   0.2956917270E-01  -0.1478658635E-01  -0.1478658635E-01   0.2029383211E-15   0.5851527869E-16   0.9921253079E-16   0.1000000001E+01
     1     2     3     4     5     6     7     8
     2     9    10     3     6    11    12     7
 VARIABLES = X,Y,Z,DU1,DU2,DU3,U1,U2,U3,S11,S22,S33,S12,S13,S23,E11,E22,E33,E12,E13,E23,SMISES
 ZONE, T="0.8450D+01" F=FEPOINT, I=   12 J=    2 ET=BRICK
   0.0000000000E+00   0.0000000000E+00   0.0000000000E+00   0.0000000000E+00   0.0000000000E+00   0.0000000000E+00   0.0000000000E+00   0.0000000000E+00   0.0000000000E+00   0.1250000002E+00   0.8535321112E-13   0.8681081782E-13   0.3321939553E-16  -0.2846914661E-15  -0.7423922911E-16   0.3181917271E-01  -0.1590933635E-01  -0.1590933635E-01  -0.5179631689E-17  -0.4373370958E-16  -0.2427917739E-16   0.1250000002E+00
   0.1031819173E+01   0.0000000000E+00  -0.1682837737E-16   0.2250000000E-02   0.0000000000E+00  -0.1608731894E-18   0.2956917266E-01   0.0000000000E+00  -0.1666750418E-16   0.1250000002E+00  -0.3937750532E-13  -0.3976533371E-13   0.6361355573E-15   0.3410992097E-15  -0.1140363188E-15   0.3181917271E-01  -0.1590933635E-01  -0.1590933635E-01  -0.1608914266E-15  -0.3432973237E-16  -0.2081195880E-16   0.1250000002E+00
   0.1031819173E+01   0.9840906637E+00  -0.2629706022E-16   0.2250000000E-02  -0.1122750000E-02  -0.4904642940E-18   0.2956917266E-01  -0.1478658633E-01  -0.2580659592E-16   0.1250000002E+00  -0.3819064848E-13  -0.3843737066E-13   0.1299648526E-14  -0.3850599643E-15  -0.9323681865E-15   0.3181917270E-01  -0.1590933635E-01  -0.1590933635E-01  -0.1741481173E-15   0.9875206841E-16  -0.3550555035E-16   0.1250000002E+00
   0.0000000000E+00   0.9840906637E+00  -0.1349445714E-16   0.0000000000E+00  -0.1122750000E-02   0.4194234056E-18   0.0000000000E+00  -0.1478658633E-01  -0.1391388054E-16   0.1250000002E+00  -0.7664290946E-13  -0.7643299929E-13   0.1353818127E-14  -0.6033289902E-15   0.2913262846E-15   0.3181917270E-01  -0.1590933635E-01  -0.1590933635E-01   0.3566185516E-16  -0.2782467201E-16   0.2001044264E-16   0.1250000002E+00
   0.0000000000E+00   0.0000000000E+00   0.9840906637E+00   0.0000000000E+00   0.0000000000E+00  -0.1122750000E-02   0.0000000000E+00   0.0000000000E+00  -0.1478658633E-01   0.1250000002E+00   0.1404985483E-13   0.1144881549E-13  -0.1717665170E-15  -0.6884641927E-15  -0.2724973059E-15   0.3181917270E-01  -0.1590933635E-01  -0.1590933635E-01   0.8756212079E-17  -0.5076866444E-16  -0.2772430473E-16   0.1250000002E+00
   0.1031819173E+01   0.0000000000E+00   0.9840906637E+00   0.2250000000E-02   0.0000000000E+00  -0.1122750000E-02   0.2956917266E-01   0.0000000000E+00  -0.1478658633E-01   0.1250000002E+00   0.4096042375E-13   0.4117258498E-13  -0.5649389766E-16  -0.1433653697E-15   0.4256241981E-15   0.3181917270E-01  -0.1590933635E-01  -0.1590933635E-01  -0.7622707254E-17  -0.1216704381E-15   0.8249966026E-16   0.1250000002E+00
   0.1031819173E+01   0.9840906637E+00   0.9840906637E+00   0.2250000000E-02  -0.1122750000E-02  -0.1122750000E-02   0.2956917266E-01  -0.1478658633E-01  -0.1478658633E-01   0.1250000002E+00  -0.1464329525E-13  -0.1398300867E-13  -0.1008821766E-14   0.3248278840E-15  -0.3768236569E-15   0.3181917270E-01  -0.1590933635E-01  -0.1590933635E-01   0.6213676096E-17   0.1303386750E-15   0.5563114725E-16   0.1250000002E+00
   0.0000000000E+00   0.9840906637E+00   0.9840906637E+00   0.0000000000E+00  -0.1122750000E-02  -0.1122750000E-02   0.0000000000E+00  -0.1478658633E-01  -0.1478658633E-01   0.1250000002E+00   0.2338435016E-13   0.2359006290E-13  -0.9186093260E-15   0.3765477970E-16   0.4645979512E-15   0.3181917270E-01  -0.1590933635E-01  -0.1590933635E-01  -0.8342883940E-16   0.7480496825E-16   0.2548990560E-16   0.1250000002E+00
   0.2063638345E+01   0.0000000000E+00  -0.2427779453E-16   0.4500000000E-02   0.0000000000E+00  -0.1545035935E-17   0.5913834532E-01   0.0000000000E+00  -0.2273275860E-16   0.1250000002E+00  -0.8670877306E-13  -0.9094412043E-13   0.8514121740E-15   0.2602383092E-14   0.3274971227E-15   0.3181917271E-01  -0.1590933635E-01  -0.1590933635E-01  -0.5694325104E-16   0.9817297984E-17  -0.6499812683E-17   0.1250000002E+00
   0.2063638345E+01   0.9840906637E+00  -0.2888873631E-16   0.4500000000E-02  -0.1122750000E-02  -0.1586942645E-17   0.5913834532E-01  -0.1478658633E-01  -0.2730179367E-16   0.1250000002E+00   0.6872535295E-13   0.7115117209E-13   0.5455622000E-17  -0.1855113140E-14  -0.8498922260E-15   0.3181917270E-01  -0.1590933635E-01  -0.1590933635E-01  -0.1210583153E-15   0.1991343220E-15   0.5517649761E-16   0.1250000002E+00
   0.2063638345E+01   0.0000000000E+00   0.9840906637E+00   0.4500000000E-02   0.0000000000E+00  -0.1122750000E-02   0.5913834532E-01   0.0000000000E+00  -0.1478658633E-01   0.1250000002E+00   0.4940428319E-13   0.5002158213E-13  -0.9510883526E-15   0.2809059014E-15   0.1266368619E-14   0.3181917270E-01  -0.1590933635E-01  -0.1590933635E-01   0.1042402579E-15  -0.7565203293E-16   0.3653396644E-16   0.1250000002E+00
   0.2063638345E+01   0.9840906637E+00   0.9840906637E+00   0.4500000000E-02  -0.1122750000E-02  -0.1122750000E-02   0.5913834532E-01  -0.1478658633E-01  -0.1478658633E-01   0.1250000002E+00  -0.1582238195E-13  -0.1400343718E-13   0.3689690266E-15   0.1920212535E-15   0.9105305079E-15   0.3181917270E-01  -0.1590933635E-01  -0.1590933635E-01   0.1964230693E-15  -0.1060419659E-16   0.9416055067E-16   0.1250000002E+00
     1     2     3     4     5     6     7     8
     2     9    10     3     6    11    12     7
 VARIABLES = X,Y,Z,DU1,DU2,DU3,U1,U2,U3,S11,S22,S33,S12,S13,S23,E11,E22,E33,E12,E13,E23,SMISES
 ZONE, T="0.8500D+01" F=FEPOINT, I=   12 J=    2 ET=BRICK
   0.0000000000E+00   0.0000000000E+00   0.0000000000E+00   0.0000000000E+00   0.0000000000E+00   0.0000000000E+00   0.0000000000E+00   0.0000000000E+00   0.0000000000E+00   0.1250000002E+01  -0.1596357878E-13  -0.1441529392E-13   0.4588464273E-16  -0.2910977114E-15  -0.1869156423E-15   0.3406917271E-01  -0.1703208636E-01  -0.1703208636E-01   0.1684273317E-18  -0.3875500960E-16  -0.2726986784E-16   0.1250000002E+01
   0.1034069173E+01   0.0000000000E+00  -0.1667317205E-16   0.2250000000E-02   0.0000000000E+00   0.1552053293E-18   0.3181917266E-01   0.0000000000E+00  -0.1682837737E-16   0.1250000002E+01   0.3465348529E-14   0.3033313599E-14   0.7613641393E-15   0.3080758526E-15  -0.1963532334E-15   0.3406917271E-01  -0.1703208636E-01  -0.1703208636E-01  -0.1637904852E-15  -0.6518369973E-16  -0.1923989656E-16   0.1250000002E+01
   0.1034069173E+01   0.9829679137E+00  -0.2666695617E-16   0.2250000000E-02  -0.1122750000E-02  -0.3698959546E-18   0.3181917266E-01  -0.1590933633E-01  -0.2629706022E-16   0.1250000002E+01  -0.1255609571E-13  -0.1256443139E-13   0.1486351488E-14  -0.3101151245E-15  -0.9150242617E-15   0.3406917271E-01  -0.1703208635E-01  -0.1703208635E-01  -0.1699845625E-15   0.1322050592E-15  -0.3852734264E-16   0.1250000002E+01
   0.0000000000E+00   0.9829679137E+00  -0.1411447761E-16   0.0000000000E+00  -0.1122750000E-02  -0.6200204782E-18   0.0000000000E+00  -0.1590933633E-01  -0.1349445714E-16   0.1250000002E+01  -0.5558072898E-13  -0.5535286225E-13   0.1333145780E-14  -0.6461715144E-15   0.3919894459E-15   0.3406917271E-01  -0.1703208635E-01  -0.1703208635E-01   0.3134493134E-16  -0.3401816495E-16   0.2366881403E-16   0.1250000002E+01
   0.0000000000E+00   0.0000000000E+00   0.9829679137E+00   0.0000000000E+00   0.0000000000E+00  -0.1122750000E-02   0.0000000000E+00   0.0000000000E+00  -0.1590933633E-01   0.1250000002E+01   0.6421029058E-14   0.3498149672E-14  -0.1807444503E-15  -0.7323997832E-15  -0.3795856604E-15   0.3406917271E-01  -0.1703208635E-01  -0.1703208635E-01   0.2982960506E-18  -0.5121828076E-16  -0.3684061487E-16   0.1250000002E+01
   0.1034069173E+01   0.0000000000E+00   0.9829679137E+00   0.2250000000E-02   0.0000000000E+00  -0.1122750000E-02   0.3181917266E-01   0.0000000000E+00  -0.1590933633E-01   0.1250000002E+01  -0.2852512202E-13  -0.2857774178E-13   0.1104540457E-15  -0.8475984285E-16   0.4528539709E-15   0.3406917271E-01  -0.1703208635E-01  -0.1703208635E-01   0.9351145231E-17  -0.1226207398E-15   0.7980778787E-16   0.1250000002E+01
   0.1034069173E+01   0.9829679137E+00   0.9829679137E+00   0.2250000000E-02  -0.1122750000E-02  -0.1122750000E-02   0.3181917266E-01  -0.1590933633E-01  -0.1590933633E-01   0.1250000002E+01   0.7004556135E-14   0.7672246430E-14  -0.8607519849E-15   0.3921439280E-15  -0.2187577995E-15   0.3406917270E-01  -0.1703208635E-01  -0.1703208635E-01   0.2010512911E-16   0.1168509995E-15   0.5407678386E-16   0.1250000002E+01
   0.0000000000E+00   0.9829679137E+00   0.9829679137E+00   0.0000000000E+00  -0.1122750000E-02  -0.1122750000E-02   0.0000000000E+00  -0.1590933633E-01  -0.1590933633E-01   0.1250000002E+01   0.8364044240E-13   0.8345679765E-13  -0.1042254587E-14   0.1988056881E-15   0.5210230185E-15   0.3406917270E-01  -0.1703208635E-01  -0.1703208635E-01  -0.7274032509E-16   0.7474731126E-16   0.1634756575E-16   0.1250000002E+01
   0.2068138345E+01   0.0000000000E+00  -0.2206659402E-16   0.4500000000E-02   0.0000000000E+00   0.2211200513E-17   0.6363834532E-01   0.0000000000E+00  -0.2427779453E-16   0.1250000002E+01   0.5732683087E-13   0.5302763127E-13   0.6929467547E-15   0.2774722332E-14   0.1805262713E-15   0.3406917271E-01  -0.1703208635E-01  -0.1703208635E-01  -0.5887230338E-16   0.7650115311E-16  -0.2122321733E-17   0.1250000002E+01
   0.2068138345E+01   0.9829679137E+00  -0.2763559021E-16   0.4500000000E-02  -0.1122750000E-02   0.1253146098E-17   0.6363834532E-01  -0.1590933633E-01  -0.2888873631E-16   0.1250000002E+01   0.2136042101E-14   0.4927749906E-14  -0.1749814185E-15  -0.1867318392E-14  -0.1018569880E-14   0.3406917271E-01  -0.1703208635E-01  -0.1703208635E-01  -0.1132742377E-15   0.1664444654E-15   0.4574738719E-16   0.1250000002E+01
   0.2068138345E+01   0.0000000000E+00   0.9829679137E+00   0.4500000000E-02   0.0000000000E+00  -0.1122750000E-02   0.6363834532E-01   0.0000000000E+00  -0.1590933633E-01   0.1250000002E+01  -0.1619759179E-13  -0.1583930921E-13  -0.9934506412E-15   0.2783560246E-15   0.1289038964E-14   0.3406917271E-01  -0.1703208635E-01  -0.1703208635E-01   0.1076335597E-15  -0.6612379464E-16   0.3139281255E-16   0.1250000002E+01
   0.2068138345E+01   0.9829679137E+00   0.9829679137E+00   0.4500000000E-02  -0.1122750000E-02  -0.1122750000E-02   0.6363834532E-01  -0.1590933633E-01  -0.1590933633E-01   0.1250000002E+01  -0.2137650049E-13  -0.1941285203E-13   0.3308470116E-15   0.4105272030E-15   0.9532027336E-15   0.3406917270E-01  -0.1703208635E-01  -0.1703208635E-01   0.1968357094E-15   0.3506552395E-16   0.1006743961E-15   0.1250000002E+01
     1     2     3     4     5     6     7     8
     2     9    10     3     6    11    12     7
 VARIABLES = X,Y,Z,DU1,DU2,DU3,U1,U2,U3,S11,S22,S33,S12,S13,S23,E11,E22,E33,E12,E13,E23,SMISES
 ZONE, T="0.8550D+01" F=FEPOINT, I=   12 J=    2 ET=BRICK
   0.0000000000E+00   0.0000000000E+00   0.0000000000E+00   0.0000000000E+00   0.0000000000E+00   0.0000000000E+00   0.0000000000E+00   0.0000000000E+00   0.0000000000E+00   0.2375000004E+01  -0.5870060616E-13  -0.5751691115E-13   0.5494273093E-16  -0.2773929393E-15  -0.2839094818E-15   0.3631917272E-01  -0.1815483636E-01  -0.1815483636E-01  -0.5486881831E-17  -0.4091453592E-16  -0.3244034841E-16   0.2375000004E+01
   0.1036319173E+01   0.0000000000E+00  -0.1683470654E-16   0.2250000000E-02   0.0000000000E+00  -0.1615344964E-18   0.3406917266E-01   0.0000000000E+00  -0.1667317205E-16   0.2375000004E+01  -0.1119566837E-13  -0.1158099034E-13   0.7020434742E-15   0.1089226697E-15  -0.1925817499E-15   0.3631917271E-01  -0.1815483636E-01  -0.1815483636E-01  -0.1586361137E-15  -0.6331259645E-16  -0.1663189914E-16   0.2375000004E+01
   0.1036319173E+01   0.9818451637E+00  -0.2694412506E-16   0.2250000000E-02  -0.1122750000E-02  -0.2771688876E-18   0.3406917266E-01  -0.1703208633E-01  -0.2666695617E-16   0.2375000003E+01   0.9809064199E-14   0.9757734084E-14   0.1475592461E-14  -0.4912064409E-15  -0.9850974412E-15   0.3631917271E-01  -0.1815483636E-01  -0.1815483636E-01  -0.1639419671E-15   0.1045165859E-15  -0.5134400545E-16   0.2375000003E+01
   0.0000000000E+00   0.9818451637E+00  -0.1458593671E-16   0.0000000000E+00  -0.1122750000E-02  -0.4714590928E-18   0.0000000000E+00  -0.1703208633E-01  -0.1411447761E-16   0.2375000003E+01   0.3819367390E-13   0.3864821550E-13   0.1348756401E-14  -0.5853001926E-15   0.2648983405E-15   0.3631917271E-01  -0.1815483636E-01  -0.1815483636E-01   0.2797113643E-16  -0.1807444639E-16   0.2886987218E-16   0.2375000003E+01
   0.0000000000E+00   0.0000000000E+00   0.9818451637E+00   0.0000000000E+00   0.0000000000E+00  -0.1122750000E-02   0.0000000000E+00   0.0000000000E+00  -0.1703208633E-01   0.2375000003E+01  -0.7391743331E-13  -0.7709673591E-13  -0.1816020354E-15  -0.4862529732E-15  -0.2039654633E-15   0.3631917271E-01  -0.1815483636E-01  -0.1815483636E-01   0.4093926443E-17  -0.5072365830E-16  -0.2355059896E-16   0.2375000003E+01
   0.1036319173E+01   0.0000000000E+00   0.9818451637E+00   0.2250000000E-02   0.0000000000E+00  -0.1122750000E-02   0.3406917266E-01   0.0000000000E+00  -0.1703208633E-01   0.2375000003E+01   0.2645870735E-13   0.2629742276E-13  -0.3312390566E-16  -0.1169768859E-15   0.4311502708E-15   0.3631917271E-01  -0.1815483636E-01  -0.1815483636E-01   0.7782259143E-17  -0.1250202012E-15   0.7141974733E-16   0.2375000003E+01
   0.1036319173E+01   0.9818451637E+00   0.9818451637E+00   0.2250000000E-02  -0.1122750000E-02  -0.1122750000E-02   0.3406917266E-01  -0.1703208633E-01  -0.1703208633E-01   0.2375000003E+01   0.4508820905E-13   0.4573222701E-13  -0.8596270509E-15   0.1641923397E-15  -0.2189617465E-15   0.3631917271E-01  -0.1815483635E-01  -0.1815483635E-01   0.1242463033E-16   0.1243094632E-15   0.6184389605E-16   0.2375000003E+01
   0.0000000000E+00   0.9818451637E+00   0.9818451637E+00   0.0000000000E+00  -0.1122750000E-02  -0.1122750000E-02   0.0000000000E+00  -0.1703208633E-01  -0.1703208633E-01   0.2375000003E+01   0.4459283808E-14   0.4628708577E-14  -0.9399822546E-15   0.2321938902E-15   0.5548832832E-15   0.3631917271E-01  -0.1815483635E-01  -0.1815483635E-01  -0.7371930522E-16   0.6953510429E-16   0.2403918258E-16   0.2375000003E+01
   0.2072638345E+01   0.0000000000E+00  -0.2373875578E-16   0.4500000000E-02   0.0000000000E+00  -0.1672161760E-17   0.6813834532E-01   0.0000000000E+00  -0.2206659402E-16   0.2375000004E+01   0.2003853136E-13   0.1562391039E-13   0.8409419437E-15   0.2720198536E-14   0.4429138146E-15   0.3631917271E-01  -0.1815483636E-01  -0.1815483636E-01  -0.7081915237E-16   0.4904309886E-16  -0.7871469975E-17   0.2375000004E+01
   0.2072638345E+01   0.9818451637E+00  -0.2787819421E-16   0.4500000000E-02  -0.1122750000E-02  -0.2426039932E-18   0.6813834532E-01  -0.1703208633E-01  -0.2763559021E-16   0.2375000003E+01  -0.4392661445E-13  -0.4133854089E-13   0.1559017775E-15  -0.1930975809E-14  -0.1042453825E-14   0.3631917271E-01  -0.1815483635E-01  -0.1815483635E-01  -0.1173573704E-15   0.2018625578E-15   0.5661086332E-16   0.2375000003E+01
   0.2072638345E+01   0.0000000000E+00   0.9818451637E+00   0.4500000000E-02   0.0000000000E+00  -0.1122750000E-02   0.6813834532E-01   0.0000000000E+00  -0.1703208633E-01   0.2375000003E+01   0.1488639598E-13   0.1555933507E-13  -0.1160930865E-14   0.5356410151E-15   0.1316845811E-14   0.3631917271E-01  -0.1815483635E-01  -0.1815483635E-01   0.1331997354E-15  -0.6583462991E-16   0.3043410754E-16   0.2375000003E+01
   0.2072638345E+01   0.9818451637E+00   0.9818451637E+00   0.4500000000E-02  -0.1122750000E-02  -0.1122750000E-02   0.6813834532E-01  -0.1703208633E-01  -0.1703208633E-01   0.2375000003E+01   0.2814610585E-13   0.2980203670E-13   0.1014335832E-15   0.1211229342E-15   0.8327102297E-15   0.3631917270E-01  -0.1815483635E-01  -0.1815483635E-01   0.1906467178E-15   0.1602083779E-16   0.1097555451E-15   0.2375000003E+01
     1     2     3     4     5     6     7     8
     2     9    10     3     6    11    12     7
 VARIABLES = X,Y,Z,DU1,DU2,DU3,U1,U2,U3,S11,S22,S33,S12,S13,S23,E11,E22,E33,E12,E13,E23,SMISES
 ZONE, T="0.8600D+01" F=FEPOINT, I=   12 J=    2 ET=BRICK
   0.0000000000E+00   0.0000000000E+00   0.0000000000E+00   0.0000000000E+00   0.0000000000E+00   0.0000000000E+00   0.0000000000E+00   0.0000000000E+00   0.0000000000E+00   0.3500000005E+01   0.8686735045E-13   0.8812378827E-13   0.3548668356E-16  -0.2395352480E-15  -0.1264628155E-16   0.3856917272E-01  -0.1927758636E-01  -0.1927758636E-01   0.8383454742E-19  -0.4247519048E-16  -0.2169497908E-16   0.3500000005E+01
   0.1038569173E+01   0.0000000000E+00  -0.1725644486E-16   0.2250000000E-02   0.0000000000E+00  -0.4217383137E-18   0.3631917266E-01   0.0000000000E+00  -0.1683470654E-16   0.3500000005E+01  -0.9919770531E-14  -0.1065920727E-13   0.4921326793E-15   0.3287586096E-16   0.5168388123E-16   0.3856917272E-01  -0.1927758636E-01  -0.1927758636E-01  -0.1822404525E-15  -0.6520861054E-16  -0.1597246135E-16   0.3500000005E+01
   0.1038569173E+01   0.9807224137E+00  -0.2602406557E-16   0.2250000000E-02  -0.1122750000E-02   0.9200594924E-18   0.3631917266E-01  -0.1815483633E-01  -0.2694412506E-16   0.3500000005E+01  -0.1435639190E-13  -0.1473009569E-13   0.1327450314E-14  -0.3198064073E-15  -0.1210570727E-14   0.3856917271E-01  -0.1927758636E-01  -0.1927758636E-01  -0.1966098464E-15   0.1337465592E-15  -0.5459963708E-16   0.3500000005E+01
   0.0000000000E+00   0.9807224137E+00  -0.1287272463E-16   0.0000000000E+00  -0.1122750000E-02   0.1713212074E-17   0.0000000000E+00  -0.1815483633E-01  -0.1458593671E-16   0.3500000005E+01  -0.6200604216E-13  -0.6157789505E-13   0.1371929200E-14  -0.6780546832E-15   0.2863764973E-15   0.3856917271E-01  -0.1927758636E-01  -0.1927758636E-01   0.4471946878E-16  -0.3249661973E-16   0.2076876886E-16   0.3500000005E+01
   0.0000000000E+00   0.0000000000E+00   0.9807224137E+00   0.0000000000E+00   0.0000000000E+00  -0.1122750000E-02   0.0000000000E+00   0.0000000000E+00  -0.1815483633E-01   0.3500000005E+01   0.5805818339E-14   0.3628536236E-14  -0.2041347747E-15  -0.5483743974E-15  -0.9900078080E-16   0.3856917271E-01  -0.1927758636E-01  -0.1927758636E-01   0.3626715735E-18  -0.5311092500E-16  -0.3816725991E-16   0.3500000005E+01
   0.1038569173E+01   0.0000000000E+00   0.9807224137E+00   0.2250000000E-02   0.0000000000E+00  -0.1122750000E-02   0.3631917266E-01   0.0000000000E+00  -0.1815483633E-01   0.3500000005E+01  -0.4177143207E-14  -0.4198920489E-14   0.1096738384E-15  -0.3694669986E-15   0.4939513250E-15   0.3856917271E-01  -0.1927758636E-01  -0.1927758636E-01   0.2121965186E-16  -0.1325999289E-15   0.8516436993E-16   0.3500000005E+01
   0.1038569173E+01   0.9807224137E+00   0.9807224137E+00   0.2250000000E-02  -0.1122750000E-02  -0.1122750000E-02   0.3631917266E-01  -0.1815483633E-01  -0.1815483633E-01   0.3500000005E+01  -0.1120015140E-13  -0.1003548524E-13  -0.8708231063E-15   0.3728635310E-15  -0.4508080326E-15   0.3856917271E-01  -0.1927758635E-01  -0.1927758635E-01   0.1118641724E-16   0.1327597295E-15   0.4934882486E-16   0.3500000005E+01
   0.0000000000E+00   0.9807224137E+00   0.9807224137E+00   0.0000000000E+00  -0.1122750000E-02  -0.1122750000E-02   0.0000000000E+00  -0.1815483633E-01  -0.1815483633E-01   0.3500000005E+01   0.3909314470E-15   0.6060728687E-15  -0.1000152817E-14   0.8931100885E-16   0.3825006820E-15   0.3856917271E-01  -0.1927758635E-01  -0.1927758635E-01  -0.7911340550E-16   0.6781945956E-16   0.1892755804E-16   0.3500000005E+01
   0.2077138345E+01   0.0000000000E+00  -0.2725842062E-16   0.4500000000E-02   0.0000000000E+00  -0.3519664837E-17   0.7263834532E-01   0.0000000000E+00  -0.2373875578E-16   0.3500000005E+01  -0.1850382344E-13  -0.2319981640E-13   0.9358742262E-15   0.2493869766E-14   0.7709770640E-15   0.3856917272E-01  -0.1927758636E-01  -0.1927758636E-01  -0.4520538400E-16   0.1160280850E-16   0.3649317365E-17   0.3500000005E+01
   0.2077138345E+01   0.9807224137E+00  -0.2934274136E-16   0.4500000000E-02  -0.1122750000E-02  -0.1464547155E-17   0.7263834532E-01  -0.1815483633E-01  -0.2787819421E-16   0.3500000005E+01   0.5903605320E-13   0.6087190641E-13   0.2850634754E-15  -0.1635581899E-14  -0.1123985963E-14   0.3856917271E-01  -0.1927758636E-01  -0.1927758636E-01  -0.1021253933E-15   0.1435795903E-15   0.4901349016E-16   0.3500000005E+01
   0.2077138345E+01   0.0000000000E+00   0.9807224137E+00   0.4500000000E-02   0.0000000000E+00  -0.1122750000E-02   0.7263834532E-01   0.0000000000E+00  -0.1815483633E-01   0.3500000005E+01  -0.2105786199E-13  -0.1924339513E-13  -0.1064727475E-14   0.8709011706E-15   0.1552088711E-14   0.3856917271E-01  -0.1927758636E-01  -0.1927758636E-01   0.1082493601E-15  -0.5689942256E-16   0.3035207087E-16   0.3500000005E+01
   0.2077138345E+01   0.9807224137E+00   0.9807224137E+00   0.4500000000E-02  -0.1122750000E-02  -0.1122750000E-02   0.7263834532E-01  -0.1815483633E-01  -0.1815483633E-01   0.3500000004E+01  -0.2984528756E-13  -0.2769337719E-13   0.1977254518E-15   0.1165994044E-15   0.5662536554E-15   0.3856917271E-01  -0.1927758635E-01  -0.1927758635E-01   0.2141831395E-15   0.3697143971E-17   0.1005105059E-15   0.3500000004E+01
     1     2     3     4     5     6     7     8
     2     9    10     3     6    11    12     7
 VARIABLES = X,Y,Z,DU1,DU2,DU3,U1,U2,U3,S11,S22,S33,S12,S13,S23,E11,E22,E33,E12,E13,E23,SMISES
 ZONE, T="0.8650D+01" F=FEPOINT, I=   12 J=    2 ET=BRICK
   0.0000000000E+00   0.0000000000E+00   0.0000000000E+00   0.0000000000E+00   0.0000000000E+00   0.0000000000E+00   0.0000000000E+00   0.0000000000E+00   0.0000000000E+00   0.4625000007E+01  -0.2272648034E-13  -0.2126685766E-13   0.1353001949E-18  -0.2557411796E-15  -0.2203705198E-15   0.4081917272E-01  -0.2040033636E-01  -0.2040033636E-01  -0.1138975900E-17  -0.4933035794E-16  -0.2733370949E-16   0.4625000007E+01
   0.1040819173E+01   0.0000000000E+00  -0.1671411618E-16   0.2250000000E-02   0.0000000000E+00   0.5423286761E-18   0.3856917266E-01   0.0000000000E+00  -0.1725644486E-16   0.4625000007E+01  -0.1314254626E-13  -0.1360841279E-13   0.7057562222E-15  -0.8141556148E-16  -0.3731576395E-16   0.4081917272E-01  -0.2040033636E-01  -0.2040033636E-01  -0.1768432970E-15  -0.5230144315E-16  -0.2083913653E-16   0.4625000007E+01
   0.1040819173E+01   0.9795996637E+00  -0.2593559513E-16   0.2250000000E-02  -0.1122750000E-02   0.8847043371E-19   0.3856917266E-01  -0.1927758633E-01  -0.2602406557E-16   0.4625000007E+01  -0.1929909554E-13  -0.1966191068E-13   0.1481583678E-14  -0.4726634231E-15  -0.9504410314E-15   0.4081917272E-01  -0.2040033636E-01  -0.2040033636E-01  -0.1708170844E-15   0.1003997347E-15  -0.1279297516E-16   0.4625000007E+01
   0.0000000000E+00   0.9795996637E+00  -0.1423895860E-16   0.0000000000E+00  -0.1122750000E-02  -0.1366233972E-17   0.0000000000E+00  -0.1927758633E-01  -0.1287272463E-16   0.4625000007E+01  -0.7632935258E-13  -0.7568859075E-13   0.1426703010E-14  -0.4180597165E-15   0.4016385347E-15   0.4081917272E-01  -0.2040033636E-01  -0.2040033636E-01   0.3097347375E-16  -0.1510783579E-16   0.6033424913E-17   0.4625000007E+01
   0.0000000000E+00   0.0000000000E+00   0.9795996637E+00   0.0000000000E+00   0.0000000000E+00  -0.1122750000E-02   0.0000000000E+00   0.0000000000E+00  -0.1927758633E-01   0.4625000007E+01  -0.6885926041E-13  -0.7218886123E-13  -0.1484000765E-15  -0.5127699663E-15  -0.3064015972E-15   0.4081917272E-01  -0.2040033636E-01  -0.2040033636E-01   0.2715390726E-17  -0.6141453457E-16  -0.1912038705E-16   0.4625000007E+01
   0.1040819173E+01   0.0000000000E+00   0.9795996637E+00   0.2250000000E-02   0.0000000000E+00  -0.1122750000E-02   0.3856917266E-01   0.0000000000E+00  -0.1927758633E-01   0.4625000007E+01  -0.1841774526E-13  -0.1867245580E-13   0.1096916577E-15  -0.3342292321E-15   0.3896509771E-15   0.4081917272E-01  -0.2040033636E-01  -0.2040033636E-01   0.1840338203E-16  -0.1305344569E-15   0.6968370531E-16   0.4625000007E+01
   0.1040819173E+01   0.9795996637E+00   0.9795996637E+00   0.2250000000E-02  -0.1122750000E-02  -0.1122750000E-02   0.3856917266E-01  -0.1927758633E-01  -0.1927758633E-01   0.4625000006E+01   0.2737303830E-13   0.2804208965E-13  -0.8849956887E-15   0.4033281953E-15  -0.2609532256E-15   0.4081917271E-01  -0.2040033636E-01  -0.2040033636E-01   0.2499222473E-16   0.1302184310E-15   0.4827197467E-16   0.4625000006E+01
   0.0000000000E+00   0.9795996637E+00   0.9795996637E+00   0.0000000000E+00  -0.1122750000E-02  -0.1122750000E-02   0.0000000000E+00  -0.1927758633E-01  -0.1927758633E-01   0.4625000006E+01  -0.8057730810E-14  -0.8408589542E-14  -0.1126278213E-14   0.2040939566E-15   0.6261665397E-15   0.4081917271E-01  -0.2040033636E-01  -0.2040033636E-01  -0.6954486024E-16   0.7873245132E-16   0.2245809883E-16   0.4625000006E+01
   0.2081638345E+01   0.0000000000E+00  -0.2331750141E-16   0.4500000000E-02   0.0000000000E+00   0.3940919209E-17   0.7713834532E-01   0.0000000000E+00  -0.2725842062E-16   0.4625000007E+01   0.1016886561E-13   0.5816828196E-14   0.9424627916E-15   0.2625444530E-14   0.5685107248E-15   0.4081917272E-01  -0.2040033636E-01  -0.2040033636E-01  -0.6157838101E-16   0.5982099477E-16  -0.3061304990E-17   0.4625000007E+01
   0.2081638345E+01   0.9795996637E+00  -0.2652434658E-16   0.4500000000E-02  -0.1122750000E-02   0.2818394779E-17   0.7713834532E-01  -0.1927758633E-01  -0.2934274136E-16   0.4625000006E+01   0.4410897441E-13   0.4642012391E-13   0.2890103571E-15  -0.1746788310E-14  -0.1108663279E-14   0.4081917272E-01  -0.2040033636E-01  -0.2040033636E-01  -0.1099622927E-15   0.2246506654E-15   0.4841288621E-16   0.4625000006E+01
   0.2081638345E+01   0.0000000000E+00   0.9795996637E+00   0.4500000000E-02   0.0000000000E+00  -0.1122750000E-02   0.7713834532E-01   0.0000000000E+00  -0.1927758633E-01   0.4625000006E+01  -0.4819580027E-13  -0.4636101492E-13  -0.8777698300E-15   0.1139303442E-14   0.1369186871E-14   0.4081917272E-01  -0.2040033636E-01  -0.2040033636E-01   0.1152413065E-15  -0.2340180816E-16   0.3740293514E-16   0.4625000006E+01
   0.2081638345E+01   0.9795996637E+00   0.9795996637E+00   0.4500000000E-02  -0.1122750000E-02  -0.1122750000E-02   0.7713834532E-01  -0.1927758633E-01  -0.1927758633E-01   0.4625000006E+01   0.3523099481E-13   0.3695767571E-13   0.1045422869E-15   0.3090699253E-16   0.5627426141E-15   0.4081917271E-01  -0.2040033636E-01  -0.2040033636E-01   0.1967210151E-15   0.7013195073E-16   0.1016073834E-15   0.4625000006E+01
     1     2     3     4     5     6     7     8
     2     9    10     3     6    11    12     7
 VARIABLES = X,Y,Z,DU1,DU2,DU3,U1,U2,U3,S11,S22,S33,S12,S13,S23,E11,E22,E33,E12,E13,E23,SMISES
 ZONE, T="0.8700D+01" F=FEPOINT, I=   12 J=    2 ET=BRICK
   0.0000000000E+00   0.0000000000E+00   0.0000000000E+00   0.0000000000E+00   0.0000000000E+00   0.0000000000E+00   0.0000000000E+00   0.0000000000E+00   0.0000000000E+00   0.5750000009E+01   0.8308054583E-13   0.8446433888E-13   0.3804121705E-16  -0.2008291661E-15   0.3038666980E-16   0.4306917273E-01  -0.2152308636E-01  -0.2152308636E-01   0.5007900838E-17  -0.3441046756E-16  -0.1815412595E-16   0.5750000009E+01
   0.1043069173E+01   0.0000000000E+00  -0.1669932211E-16   0.2250000000E-02   0.0000000000E+00   0.1479406642E-19   0.4081917266E-01   0.0000000000E+00  -0.1671411618E-16   0.5750000009E+01   0.2195220050E-13   0.2144569699E-13   0.7826675174E-15   0.9637997303E-16   0.8976702000E-16   0.4306917272E-01  -0.2152308636E-01  -0.2152308636E-01  -0.1899730591E-15  -0.8193625142E-16  -0.1319058543E-16   0.5750000009E+01
   0.1043069173E+01   0.9784769137E+00  -0.2512528694E-16   0.2250000000E-02  -0.1122750000E-02   0.8103081891E-18   0.4081917266E-01  -0.2040033633E-01  -0.2593559513E-16   0.5750000008E+01   0.2838573183E-13   0.2759768720E-13   0.1437853482E-14  -0.5294166346E-15  -0.9809631934E-15   0.4306917272E-01  -0.2152308636E-01  -0.2152308636E-01  -0.1870717823E-15   0.1224044572E-15  -0.5545421533E-16   0.5750000008E+01
   0.0000000000E+00   0.9784769137E+00  -0.1263164982E-16   0.0000000000E+00  -0.1122750000E-02   0.1607308782E-17   0.0000000000E+00  -0.2040033633E-01  -0.1423895860E-16   0.5750000008E+01  -0.2350073318E-13  -0.2332039349E-13   0.1293473228E-14  -0.4669939148E-15   0.3066896074E-15   0.4306917272E-01  -0.2152308636E-01  -0.2152308636E-01   0.3134596653E-16  -0.2595549248E-16   0.2947198383E-16   0.5750000008E+01
   0.0000000000E+00   0.0000000000E+00   0.9784769137E+00   0.0000000000E+00   0.0000000000E+00  -0.1122750000E-02   0.0000000000E+00   0.0000000000E+00  -0.2040033633E-01   0.5750000008E+01  -0.2748305339E-13  -0.2991757274E-13  -0.1861650917E-15  -0.4938903150E-15  -0.1480769559E-15   0.4306917272E-01  -0.2152308636E-01  -0.2152308636E-01   0.2417248565E-17  -0.6264545745E-16  -0.3392338335E-16   0.5750000008E+01
   0.1043069173E+01   0.0000000000E+00   0.9784769137E+00   0.2250000000E-02   0.0000000000E+00  -0.1122750000E-02   0.4081917266E-01   0.0000000000E+00  -0.2040033633E-01   0.5750000008E+01  -0.3604839080E-14  -0.3778275641E-14   0.2359694711E-15  -0.2543096235E-15   0.3035636978E-15   0.4306917272E-01  -0.2152308636E-01  -0.2152308636E-01   0.2602154348E-16  -0.1271830467E-15   0.7443984303E-16   0.5750000008E+01
   0.1043069173E+01   0.9784769137E+00   0.9784769137E+00   0.2250000000E-02  -0.1122750000E-02  -0.1122750000E-02   0.4081917266E-01  -0.2040033633E-01  -0.2040033633E-01   0.5750000008E+01  -0.5310497101E-13  -0.5240617134E-13  -0.7051654103E-15   0.2812603795E-15  -0.5727866850E-15   0.4306917271E-01  -0.2152308636E-01  -0.2152308636E-01   0.2047621784E-16   0.1110688628E-15   0.7449070396E-16   0.5750000008E+01
   0.0000000000E+00   0.9784769137E+00   0.9784769137E+00   0.0000000000E+00  -0.1122750000E-02  -0.1122750000E-02   0.0000000000E+00  -0.2040033633E-01  -0.2040033633E-01   0.5750000008E+01   0.3349252057E-13   0.3348561738E-13  -0.9927442556E-15  -0.9282047189E-16   0.2394611685E-15   0.4306917272E-01  -0.2152308636E-01  -0.2152308636E-01  -0.7689510704E-16   0.7953784689E-16   0.2351564969E-16   0.5750000008E+01
   0.2086138345E+01   0.0000000000E+00  -0.2550158640E-16   0.4500000000E-02   0.0000000000E+00  -0.2184084991E-17   0.8163834532E-01   0.0000000000E+00  -0.2331750141E-16   0.5750000009E+01   0.2435064880E-13   0.2090312268E-13   0.1387969326E-14   0.2119611363E-14   0.8317933717E-15   0.4306917272E-01  -0.2152308636E-01  -0.2152308636E-01  -0.3962505423E-16   0.7438089303E-16  -0.6971721026E-17   0.5750000009E+01
   0.2086138345E+01   0.9784769137E+00  -0.2722300787E-16   0.4500000000E-02  -0.1122750000E-02  -0.6986612856E-18   0.8163834532E-01  -0.2040033633E-01  -0.2652434658E-16   0.5750000008E+01   0.8455622748E-13   0.8672116206E-13   0.3318665765E-15  -0.1962795497E-14  -0.7070454405E-15   0.4306917272E-01  -0.2152308636E-01  -0.2152308636E-01  -0.9296235783E-16   0.2131524906E-15   0.7442906278E-16   0.5750000008E+01
   0.2086138345E+01   0.0000000000E+00   0.9784769137E+00   0.4500000000E-02   0.0000000000E+00  -0.1122750000E-02   0.8163834532E-01   0.0000000000E+00  -0.2040033633E-01   0.5750000008E+01   0.9983051577E-13   0.1018427232E-12  -0.7943685752E-15   0.1468476411E-14   0.1153247256E-14   0.4306917272E-01  -0.2152308636E-01  -0.2152308636E-01   0.9690298955E-16  -0.2880586301E-16   0.4508671103E-16   0.5750000008E+01
   0.2086138345E+01   0.9784769137E+00   0.9784769137E+00   0.4500000000E-02  -0.1122750000E-02  -0.1122750000E-02   0.8163834532E-01  -0.2040033633E-01  -0.2040033633E-01   0.5750000007E+01  -0.6285299466E-13  -0.6116695074E-13   0.4020261318E-15  -0.2826317682E-15   0.5833906596E-15   0.4306917271E-01  -0.2152308636E-01  -0.2152308636E-01   0.1928849461E-15   0.5265116687E-16   0.7384157745E-16   0.5750000007E+01
     1     2     3     4     5     6     7     8
     2     9    10     3     6    11    12     7
 VARIABLES = X,Y,Z,DU1,DU2,DU3,U1,U2,U3,S11,S22,S33,S12,S13,S23,E11,E22,E33,E12,E13,E23,SMISES
 ZONE, T="0.8750D+01" F=FEPOINT, I=   12 J=    2 ET=BRICK
   0.0000000000E+00   0.0000000000E+00   0.0000000000E+00   0.0000000000E+00   0.0000000000E+00   0.0000000000E+00   0.0000000000E+00   0.0000000000E+00   0.0000000000E+00   0.6875000011E+01   0.1590184432E-13   0.1768510406E-13   0.5711475984E-16  -0.1938110941E-15  -0.4158989506E-15   0.4531917273E-01  -0.2264583636E-01  -0.2264583636E-01  -0.3678436457E-17  -0.2988679379E-16  -0.3246879082E-16   0.6875000011E+01
   0.1045319173E+01   0.0000000000E+00  -0.1606431674E-16   0.2250000000E-02   0.0000000000E+00   0.6350053687E-18   0.4306917266E-01   0.0000000000E+00  -0.1669932211E-16   0.6875000011E+01   0.2716566103E-13   0.2766127573E-13   0.6683840140E-15  -0.6208091192E-16  -0.1094118133E-15   0.4531917273E-01  -0.2264583636E-01  -0.2264583636E-01  -0.1759015827E-15  -0.1121624394E-15  -0.2240005921E-16   0.6875000011E+01
   0.1045319173E+01   0.9773541637E+00  -0.2594182127E-16   0.2250000000E-02  -0.1122750000E-02  -0.8165343265E-18   0.4306917266E-01  -0.2152308633E-01  -0.2512528694E-16   0.6875000010E+01   0.1652132684E-13   0.1582544488E-13   0.1471593582E-14  -0.4623843283E-15  -0.7448868153E-15   0.4531917272E-01  -0.2264583636E-01  -0.2264583636E-01  -0.1965245194E-15   0.1473573344E-15  -0.2869944149E-16   0.6875000010E+01
   0.0000000000E+00   0.9773541637E+00  -0.1512638887E-16   0.0000000000E+00  -0.1122750000E-02  -0.2494739043E-17   0.0000000000E+00  -0.2152308633E-01  -0.1263164982E-16   0.6875000010E+01  -0.4653032184E-13  -0.4508518239E-13   0.1357006523E-14  -0.3370536775E-15   0.5404903520E-15   0.4531917272E-01  -0.2264583636E-01  -0.2264583636E-01   0.3183508785E-16  -0.1798046205E-16   0.2758054630E-16   0.6875000010E+01
   0.0000000000E+00   0.0000000000E+00   0.9773541637E+00   0.0000000000E+00   0.0000000000E+00  -0.1122750000E-02   0.0000000000E+00   0.0000000000E+00  -0.2152308633E-01   0.6875000010E+01  -0.1607812155E-13  -0.2005499647E-13  -0.1846661956E-15  -0.3277087455E-15  -0.3614197494E-15   0.4531917272E-01  -0.2264583636E-01  -0.2264583636E-01   0.7095906252E-17  -0.5329698115E-16  -0.1676194029E-16   0.6875000010E+01
   0.1045319173E+01   0.0000000000E+00   0.9773541637E+00   0.2250000000E-02   0.0000000000E+00  -0.1122750000E-02   0.4306917266E-01   0.0000000000E+00  -0.2152308633E-01   0.6875000010E+01  -0.4440679370E-14  -0.5342663929E-14   0.6856164704E-16  -0.9994220146E-16   0.1163938813E-15   0.4531917272E-01  -0.2264583636E-01  -0.2264583636E-01   0.1208774901E-16  -0.1497161247E-15   0.7448963458E-16   0.6875000010E+01
   0.1045319173E+01   0.9773541637E+00   0.9773541637E+00   0.2250000000E-02  -0.1122750000E-02  -0.1122750000E-02   0.4306917266E-01  -0.2152308633E-01  -0.2152308633E-01   0.6875000009E+01   0.3677307425E-13   0.3765328146E-13  -0.8503104859E-15   0.3288831373E-15  -0.8741165558E-16   0.4531917272E-01  -0.2264583636E-01  -0.2264583636E-01   0.2795734035E-16   0.1183286809E-15   0.5118969064E-16   0.6875000009E+01
   0.0000000000E+00   0.9773541637E+00   0.9773541637E+00   0.0000000000E+00  -0.1122750000E-02  -0.1122750000E-02   0.0000000000E+00  -0.2152308633E-01  -0.2152308633E-01   0.6875000009E+01   0.3614989258E-13   0.3476716731E-13  -0.9295047893E-15   0.1967826842E-15   0.5429163656E-15   0.4531917272E-01  -0.2264583636E-01  -0.2264583636E-01  -0.8664761000E-16   0.6582119385E-16   0.1414737710E-16   0.6875000009E+01
   0.2090638345E+01   0.0000000000E+00  -0.2064158210E-16   0.4500000000E-02   0.0000000000E+00   0.4860004302E-17   0.8613834532E-01   0.0000000000E+00  -0.2550158640E-16   0.6875000010E+01   0.5110622938E-13   0.4800664433E-13   0.1146086785E-14   0.2060306014E-14   0.5887209576E-15   0.4531917273E-01  -0.2264583636E-01  -0.2264583636E-01  -0.5081695573E-16   0.8235660229E-17  -0.9974006804E-17   0.6875000010E+01
   0.2090638345E+01   0.9773541637E+00  -0.2362582043E-16   0.4500000000E-02  -0.1122750000E-02   0.3597187436E-17   0.8613834532E-01  -0.2152308633E-01  -0.2722300787E-16   0.6875000010E+01  -0.2119368862E-13  -0.1905850241E-13   0.2850221262E-15  -0.1744848158E-14  -0.6128468590E-15   0.4531917272E-01  -0.2264583636E-01  -0.2264583636E-01  -0.1166126023E-15   0.2456845455E-15   0.5462647596E-16   0.6875000010E+01
   0.2090638345E+01   0.0000000000E+00   0.9773541637E+00   0.4500000000E-02   0.0000000000E+00  -0.1122750000E-02   0.8613834532E-01   0.0000000000E+00  -0.2152308633E-01   0.6875000010E+01   0.3566003956E-13   0.3747596521E-13  -0.6305093605E-15   0.1165395006E-14   0.1024384103E-14   0.4531917272E-01  -0.2264583636E-01  -0.2264583636E-01   0.1153953965E-15  -0.6041836479E-16   0.3728991325E-16   0.6875000010E+01
   0.2090638345E+01   0.9773541637E+00   0.9773541637E+00   0.4500000000E-02  -0.1122750000E-02  -0.1122750000E-02   0.8613834532E-01  -0.2152308633E-01  -0.2152308633E-01   0.6875000009E+01   0.1010498462E-13   0.1094056960E-13   0.3746399022E-15   0.1309287915E-16   0.5958239622E-15   0.4531917272E-01  -0.2264583636E-01  -0.2264583636E-01   0.2109272565E-15   0.8341811253E-16   0.9188856082E-16   0.6875000009E+01
     1     2     3     4     5     6     7     8
     2     9    10     3     6    11    12     7
 VARIABLES = X,Y,Z,DU1,DU2,DU3,U1,U2,U3,S11,S22,S33,S12,S13,S23,E11,E22,E33,E12,E13,E23,SMISES
 ZONE, T="0.8800D+01" F=FEPOINT, I=   12 J=    2 ET=BRICK
   0.0000000000E+00   0.0000000000E+00   0.0000000000E+00   0.0000000000E+00   0.0000000000E+00   0.0000000000E+00   0.0000000000E+00   0.0000000000E+00   0.0000000000E+00   0.8000000013E+01   0.2513858285E-13   0.2677961317E-13   0.6807343091E-16  -0.1291606855E-15  -0.3418273227E-15   0.4756917273E-01  -0.2376858637E-01  -0.2376858637E-01   0.3477386338E-17  -0.4117300896E-16  -0.4174455139E-16   0.8000000013E+01
   0.1047569173E+01   0.0000000000E+00  -0.1572247058E-16   0.2250000000E-02   0.0000000000E+00   0.3418461632E-18   0.4531917266E-01   0.0000000000E+00  -0.1606431674E-16   0.8000000012E+01   0.6412250056E-14   0.6704679886E-14   0.7193010738E-15   0.1795744757E-15  -0.1898641734E-15   0.4756917273E-01  -0.2376858637E-01  -0.2376858637E-01  -0.1865543839E-15  -0.1039654574E-15  -0.1627874132E-16   0.8000000012E+01
   0.1047569173E+01   0.9762314137E+00  -0.2610787350E-16   0.2250000000E-02  -0.1122750000E-02  -0.1660522321E-18   0.4531917266E-01  -0.2264583633E-01  -0.2594182127E-16   0.8000000011E+01  -0.4929446883E-13  -0.4937282503E-13   0.1475734631E-14  -0.6088851320E-15  -0.7352602032E-15   0.4756917273E-01  -0.2376858636E-01  -0.2376858636E-01  -0.1898087613E-15   0.1317986096E-15  -0.4392339740E-16   0.8000000011E+01
   0.0000000000E+00   0.9762314137E+00  -0.1466275771E-16   0.0000000000E+00  -0.1122750000E-02   0.4636311552E-18   0.0000000000E+00  -0.2264583633E-01  -0.1512638887E-16   0.8000000012E+01   0.6559596465E-13   0.6764229689E-13   0.1131963880E-14  -0.4301921462E-15   0.4198497856E-15   0.4756917273E-01  -0.2376858636E-01  -0.2376858636E-01   0.3423830243E-16  -0.2583034418E-16   0.2256326711E-16   0.8000000012E+01
   0.0000000000E+00   0.0000000000E+00   0.9762314137E+00   0.0000000000E+00   0.0000000000E+00  -0.1122750000E-02   0.0000000000E+00   0.0000000000E+00  -0.2264583633E-01   0.8000000012E+01   0.3600147112E-13   0.3178621868E-13  -0.2282684340E-15  -0.3250471025E-15  -0.2689076064E-15   0.4756917273E-01  -0.2376858636E-01  -0.2376858636E-01   0.7843116160E-18  -0.6025577803E-16  -0.5323869258E-17   0.8000000012E+01
   0.1047569173E+01   0.0000000000E+00   0.9762314137E+00   0.2250000000E-02   0.0000000000E+00  -0.1122750000E-02   0.4531917266E-01   0.0000000000E+00  -0.2264583633E-01   0.8000000011E+01   0.1702725496E-13   0.1611438174E-13   0.6579554261E-16  -0.2018199280E-15   0.1301130435E-15   0.4756917273E-01  -0.2376858636E-01  -0.2376858636E-01   0.2776864012E-16  -0.1270046261E-15   0.6092573617E-16   0.8000000011E+01
   0.1047569173E+01   0.9762314137E+00   0.9762314137E+00   0.2250000000E-02  -0.1122750000E-02  -0.1122750000E-02   0.4531917266E-01  -0.2264583633E-01  -0.2264583633E-01   0.8000000010E+01   0.1408857942E-13   0.1553478678E-13  -0.9181729404E-15   0.3415443962E-15   0.5767550167E-16   0.4756917272E-01  -0.2376858636E-01  -0.2376858636E-01   0.2287727482E-16   0.1160355246E-15   0.8162788825E-16   0.8000000010E+01
   0.0000000000E+00   0.9762314137E+00   0.9762314137E+00   0.0000000000E+00  -0.1122750000E-02  -0.1122750000E-02   0.0000000000E+00  -0.2264583633E-01  -0.2264583633E-01   0.8000000011E+01   0.2879356479E-13   0.2803779512E-13  -0.7009926659E-15   0.1576139165E-16   0.3302611408E-15   0.4756917272E-01  -0.2376858636E-01  -0.2376858636E-01  -0.7980313840E-16   0.6850380521E-16   0.2293216995E-16   0.8000000011E+01
   0.2095138345E+01   0.0000000000E+00  -0.1946252209E-16   0.4500000000E-02   0.0000000000E+00   0.1179060003E-17   0.9063834532E-01   0.0000000000E+00  -0.2064158210E-16   0.8000000012E+01  -0.9772466344E-13  -0.1007037964E-12   0.1039197200E-14   0.2160213758E-14   0.2515992457E-15   0.4756917273E-01  -0.2376858637E-01  -0.2376858637E-01  -0.8972649388E-16   0.5378938302E-16  -0.1758501611E-16   0.8000000012E+01
   0.2095138345E+01   0.9762314137E+00  -0.2429478869E-16   0.4500000000E-02  -0.1122750000E-02  -0.6689682606E-18   0.9063834532E-01  -0.2264583633E-01  -0.2362582043E-16   0.8000000011E+01  -0.9076869903E-13  -0.8810270532E-13   0.1240315495E-15  -0.1918095724E-14  -0.7660097640E-15   0.4756917272E-01  -0.2376858636E-01  -0.2376858636E-01  -0.1401763548E-15   0.2414352106E-15   0.5855332333E-16   0.8000000011E+01
   0.2095138345E+01   0.0000000000E+00   0.9762314137E+00   0.4500000000E-02   0.0000000000E+00  -0.1122750000E-02   0.9063834532E-01   0.0000000000E+00  -0.2264583633E-01   0.8000000011E+01  -0.1776647677E-12  -0.1770675605E-12  -0.1077765471E-14   0.1090165873E-14   0.1213225722E-14   0.4756917272E-01  -0.2376858636E-01  -0.2376858636E-01   0.1087189012E-15  -0.3797005883E-16   0.5080001772E-16   0.8000000011E+01
   0.2095138345E+01   0.9762314137E+00   0.9762314137E+00   0.4500000000E-02  -0.1122750000E-02  -0.1122750000E-02   0.9063834532E-01  -0.2264583633E-01  -0.2264583633E-01   0.8000000010E+01   0.3787388451E-13   0.3959910661E-13   0.1623514265E-15  -0.1496685458E-15   0.7388383799E-15   0.4756917272E-01  -0.2376858636E-01  -0.2376858636E-01   0.1983145560E-15   0.2405104482E-16   0.9975770470E-16   0.8000000010E+01
     1     2     3     4     5     6     7     8
     2     9    10     3     6    11    12     7
 VARIABLES = X,Y,Z,DU1,DU2,DU3,U1,U2,U3,S11,S22,S33,S12,S13,S23,E11,E22,E33,E12,E13,E23,SMISES
 ZONE, T="0.8850D+01" F=FEPOINT, I=   12 J=    2 ET=BRICK
   0.0000000000E+00   0.0000000000E+00   0.0000000000E+00   0.0000000000E+00   0.0000000000E+00   0.0000000000E+00   0.0000000000E+00   0.0000000000E+00   0.0000000000E+00   0.9125000014E+01   0.3067004548E-13   0.3191705340E-13   0.7994721247E-16  -0.1613330202E-15   0.2524218600E-15   0.4981917274E-01  -0.2489133637E-01  -0.2489133637E-01   0.2562534224E-17  -0.4693014332E-16  -0.1538717954E-16   0.9125000014E+01
   0.1049819173E+01   0.0000000000E+00  -0.1780101247E-16   0.2250000000E-02   0.0000000000E+00  -0.2078541888E-17   0.4756917266E-01   0.0000000000E+00  -0.1572247058E-16   0.9125000014E+01  -0.3017998330E-13  -0.3144478317E-13   0.9176594206E-15  -0.6281463839E-16   0.3405184932E-15   0.4981917274E-01  -0.2489133637E-01  -0.2489133637E-01  -0.1798482914E-15  -0.9875414799E-16  -0.2634379943E-16   0.9125000014E+01
   0.1049819173E+01   0.9751086637E+00  -0.2502498737E-16   0.2250000000E-02  -0.1122750000E-02   0.1082886133E-17   0.4756917266E-01  -0.2376858633E-01  -0.2610787350E-16   0.9125000013E+01   0.4842848663E-13   0.4726673814E-13   0.1670399927E-14  -0.4285222459E-15  -0.1181446755E-14   0.4981917273E-01  -0.2489133636E-01  -0.2489133636E-01  -0.1968881860E-15   0.1288615097E-15  -0.4117407216E-16   0.9125000013E+01
   0.0000000000E+00   0.9751086637E+00  -0.1100313219E-16   0.0000000000E+00  -0.1122750000E-02   0.3659625524E-17   0.0000000000E+00  -0.2376858633E-01  -0.1466275771E-16   0.9125000013E+01  -0.5830428260E-13  -0.5770960210E-13   0.1352959137E-14  -0.7208431555E-15   0.2521960048E-15   0.4981917273E-01  -0.2489133637E-01  -0.2489133637E-01   0.4649138118E-16  -0.2240150243E-16   0.1303906273E-16   0.9125000013E+01
   0.0000000000E+00   0.0000000000E+00   0.9751086637E+00   0.0000000000E+00   0.0000000000E+00  -0.1122750000E-02   0.0000000000E+00   0.0000000000E+00  -0.2376858633E-01   0.9125000013E+01  -0.6227040417E-13  -0.6529668647E-13  -0.2468222917E-15  -0.6797902506E-15   0.2785244617E-16   0.4981917273E-01  -0.2489133637E-01  -0.2489133637E-01  -0.5741386036E-17  -0.6717273032E-16  -0.3701609439E-16   0.9125000013E+01
   0.1049819173E+01   0.0000000000E+00   0.9751086637E+00   0.2250000000E-02   0.0000000000E+00  -0.1122750000E-02   0.4756917266E-01   0.0000000000E+00  -0.2376858633E-01   0.9125000013E+01  -0.2060758321E-13  -0.2096242737E-13   0.5285115644E-15  -0.3101430393E-15   0.4700869165E-15   0.4981917273E-01  -0.2489133636E-01  -0.2489133636E-01   0.4433802304E-16  -0.1330158396E-15   0.9954402220E-16   0.9125000013E+01
   0.1049819173E+01   0.9751086637E+00   0.9751086637E+00   0.2250000000E-02  -0.1122750000E-02  -0.1122750000E-02   0.4756917266E-01  -0.2376858633E-01  -0.2376858633E-01   0.9125000012E+01   0.4675179138E-14   0.6243297431E-14  -0.5565559562E-15   0.5313785897E-15  -0.5392878285E-15   0.4981917272E-01  -0.2489133636E-01  -0.2489133636E-01   0.2878687053E-16   0.1318745851E-15   0.2354096443E-16   0.9125000012E+01
   0.0000000000E+00   0.9751086637E+00   0.9751086637E+00   0.0000000000E+00  -0.1122750000E-02  -0.1122750000E-02   0.0000000000E+00  -0.2376858633E-01  -0.2376858633E-01   0.9125000012E+01   0.1842805646E-13   0.1783629349E-13  -0.7166921616E-15  -0.1965357993E-15  -0.2337467109E-15   0.4981917273E-01  -0.2489133636E-01  -0.2489133636E-01  -0.7872975478E-16   0.5341748497E-16   0.4267281494E-16   0.9125000012E+01
   0.2099638345E+01   0.0000000000E+00  -0.3046961521E-16   0.4500000000E-02   0.0000000000E+00  -0.1100709312E-16   0.9513834532E-01   0.0000000000E+00  -0.1946252209E-16   0.9125000014E+01   0.4832601512E-14   0.1337535232E-14   0.1752398229E-14   0.2439378402E-14   0.1125887948E-14   0.4981917273E-01  -0.2489133637E-01  -0.2489133637E-01  -0.8000129274E-16  -0.3377191840E-16   0.3533860499E-17   0.9125000014E+01
   0.2099638345E+01   0.9751086637E+00  -0.3002770315E-16   0.4500000000E-02  -0.1122750000E-02  -0.5732914460E-17   0.9513834532E-01  -0.2376858633E-01  -0.2429478869E-16   0.9125000013E+01   0.8708495471E-13   0.8808814076E-13   0.7451164061E-15  -0.1762855102E-14  -0.1001414585E-14   0.4981917273E-01  -0.2489133636E-01  -0.2489133636E-01  -0.1035398438E-15   0.2116650026E-15   0.5537823117E-16   0.9125000013E+01
   0.2099638345E+01   0.0000000000E+00   0.9751086637E+00   0.4500000000E-02   0.0000000000E+00  -0.1122750000E-02   0.9513834532E-01   0.0000000000E+00  -0.2376858633E-01   0.9125000013E+01   0.8220887751E-13   0.8445003270E-13  -0.6806393187E-15   0.1704652508E-14   0.1498031354E-14   0.4981917273E-01  -0.2489133636E-01  -0.2489133636E-01   0.1431270771E-15  -0.2467405794E-16   0.3751495286E-16   0.9125000013E+01
   0.2099638345E+01   0.9751086637E+00   0.9751086637E+00   0.4500000000E-02  -0.1122750000E-02  -0.1122750000E-02   0.9513834532E-01  -0.2376858633E-01  -0.2376858633E-01   0.9125000012E+01  -0.6109676954E-13  -0.5841949603E-13   0.3554517377E-15   0.4898070318E-16  -0.1545756045E-15   0.4981917272E-01  -0.2489133636E-01  -0.2489133636E-01   0.1510344737E-15   0.6009896404E-16   0.1056764724E-15   0.9125000012E+01
     1     2     3     4     5     6     7     8
     2     9    10     3     6    11    12     7
 VARIABLES = X,Y,Z,DU1,DU2,DU3,U1,U2,U3,S11,S22,S33,S12,S13,S23,E11,E22,E33,E12,E13,E23,SMISES
 ZONE, T="0.8900D+01" F=FEPOINT, I=   12 J=    2 ET=BRICK
   0.0000000000E+00   0.0000000000E+00   0.0000000000E+00   0.0000000000E+00   0.0000000000E+00   0.0000000000E+00   0.0000000000E+00   0.0000000000E+00   0.0000000000E+00   0.1024999973E+02   0.1434328237E-06   0.1434328248E-06   0.1305289921E-15   0.1964588156E-15  -0.5153301486E-15   0.5714550805E-01  -0.2855225403E-01  -0.2855225403E-01   0.2557014375E-17  -0.2040000964E-16  -0.2640304293E-16   0.1024999959E+02
   0.1057145508E+01   0.0000000000E+00  -0.1262992675E-16   0.7326335306E-02   0.0000000000E+00   0.5171085721E-17   0.4981917266E-01   0.0000000000E+00  -0.1780101247E-16   0.1024999973E+02   0.1434330433E-06   0.1434330440E-06  -0.8377676051E-16   0.4937346185E-15  -0.7532804882E-15   0.5714550805E-01  -0.2855225403E-01  -0.2855225403E-01  -0.1881472563E-15  -0.1019690304E-15  -0.3287778527E-16   0.1024999959E+02
   0.1057145508E+01   0.9714477460E+00  -0.2732597056E-16   0.7326335306E-02  -0.3660917653E-02  -0.2300983195E-17   0.4981917266E-01  -0.2489133633E-01  -0.2502498737E-16   0.1024999973E+02   0.1434329252E-06   0.1434329264E-06   0.1055506725E-14   0.5882642130E-16  -0.1216439348E-14   0.5714550805E-01  -0.2855225402E-01  -0.2855225402E-01  -0.1790988198E-15   0.1172477307E-15  -0.3708437568E-16   0.1024999958E+02
   0.0000000000E+00   0.9714477460E+00  -0.1624479806E-16   0.0000000000E+00  -0.3660917653E-02  -0.5241665875E-17   0.0000000000E+00  -0.2489133633E-01  -0.1100313219E-16   0.1024999973E+02   0.1434327913E-06   0.1434327944E-06   0.8895753616E-15  -0.4869947298E-15   0.2797548139E-15   0.5714550805E-01  -0.2855225402E-01  -0.2855225402E-01   0.2505468565E-16  -0.2237554901E-16   0.4934712371E-17   0.1024999958E+02
   0.0000000000E+00   0.0000000000E+00   0.9714477460E+00   0.0000000000E+00   0.0000000000E+00  -0.3660917653E-02   0.0000000000E+00   0.0000000000E+00  -0.2489133633E-01   0.1024999973E+02   0.1434330048E-06   0.1434330002E-06  -0.3148786116E-15   0.1295200776E-15   0.2681588794E-15   0.5714550805E-01  -0.2855225402E-01  -0.2855225402E-01  -0.1016312378E-16  -0.6565794485E-16  -0.1562560361E-16   0.1024999958E+02
   0.1057145508E+01   0.0000000000E+00   0.9714477460E+00   0.7326335306E-02   0.0000000000E+00  -0.3660917653E-02   0.4981917266E-01   0.0000000000E+00  -0.2489133633E-01   0.1024999973E+02   0.1434329249E-06   0.1434329241E-06  -0.2979903828E-15   0.2192231429E-15   0.6932489739E-16   0.5714550805E-01  -0.2855225402E-01  -0.2855225402E-01   0.4269093119E-16  -0.1421821009E-15   0.7361439797E-16   0.1024999958E+02
   0.1057145508E+01   0.9714477460E+00   0.9714477460E+00   0.7326335306E-02  -0.3660917653E-02  -0.3660917653E-02   0.4981917266E-01  -0.2489133633E-01  -0.2489133633E-01   0.1024999973E+02   0.1434330752E-06   0.1434330772E-06  -0.1288874876E-14   0.6299377348E-15  -0.2847895340E-16   0.5714550804E-01  -0.2855225402E-01  -0.2855225402E-01   0.8768385582E-17   0.9418052520E-16   0.4313786251E-16   0.1024999958E+02
   0.0000000000E+00   0.9714477460E+00   0.9714477460E+00   0.0000000000E+00  -0.3660917653E-02  -0.3660917653E-02   0.0000000000E+00  -0.2489133633E-01  -0.2489133633E-01   0.1024999973E+02   0.1434329803E-06   0.1434329810E-06  -0.6926455131E-15  -0.1524040047E-15   0.5487309962E-15   0.5714550804E-01  -0.2855225402E-01  -0.2855225402E-01  -0.7063593307E-16   0.9208430125E-16   0.3820733279E-16   0.1024999958E+02
   0.2114291016E+01   0.0000000000E+00  -0.1240953107E-16   0.1465267061E-01   0.0000000000E+00   0.1806008414E-16   0.9963834532E-01   0.0000000000E+00  -0.3046961521E-16   0.1024999973E+02   0.1434330429E-06   0.1434330385E-06  -0.2321816947E-15   0.2424353741E-14   0.2081767026E-16   0.5714550805E-01  -0.2855225403E-01  -0.2855225403E-01  -0.1251070863E-15   0.5041922691E-16  -0.1143915065E-16   0.1024999959E+02
   0.2114291016E+01   0.9714477460E+00  -0.1912180039E-16   0.1465267061E-01  -0.3660917653E-02   0.1090590276E-16   0.9963834532E-01  -0.2489133633E-01  -0.3002770315E-16   0.1024999973E+02   0.1434330016E-06   0.1434330019E-06  -0.6258394503E-15  -0.6161564211E-15  -0.1183556485E-14   0.5714550804E-01  -0.2855225402E-01  -0.2855225402E-01  -0.1618745199E-15   0.2412867050E-15   0.4052310077E-16   0.1024999958E+02
   0.2114291016E+01   0.0000000000E+00   0.9714477460E+00   0.1465267061E-01   0.0000000000E+00  -0.3660917653E-02   0.9963834532E-01   0.0000000000E+00  -0.2489133633E-01   0.1024999973E+02   0.1434325863E-06   0.1434325837E-06  -0.1679631239E-14   0.4631376154E-16   0.9481841337E-15   0.5714550804E-01  -0.2855225402E-01  -0.2855225402E-01   0.1035518356E-15  -0.2547325488E-16   0.2330837593E-16   0.1024999958E+02
   0.2114291016E+01   0.9714477460E+00   0.9714477460E+00   0.1465267061E-01  -0.3660917653E-02  -0.3660917653E-02   0.9963834532E-01  -0.2489133633E-01  -0.2489133633E-01   0.1024999973E+02   0.1434331247E-06   0.1434331258E-06   0.5584882688E-15   0.5855053406E-15   0.4292524821E-15   0.5714550804E-01  -0.2855225402E-01  -0.2855225402E-01   0.2162039215E-15   0.1526417376E-15   0.1041769242E-15   0.1024999958E+02
     1     2     3     4     5     6     7     8
     2     9    10     3     6    11    12     7
 VARIABLES = X,Y,Z,DU1,DU2,DU3,U1,U2,U3,S11,S22,S33,S12,S13,S23,E11,E22,E33,E12,E13,E23,SMISES
 ZONE, T="0.8950D+01" F=FEPOINT, I=   12 J=    2 ET=BRICK
   0.0000000000E+00   0.0000000000E+00   0.0000000000E+00   0.0000000000E+00   0.0000000000E+00   0.0000000000E+00   0.0000000000E+00   0.0000000000E+00   0.0000000000E+00   0.1137499401E+02   0.3005158213E-05   0.3005158213E-05   0.3506639442E-17   0.2312085975E-15  -0.5211410275E-16   0.8391845010E-01  -0.4193647505E-01  -0.4193647505E-01  -0.1371802718E-17  -0.2951045604E-16  -0.2965745741E-16   0.1137499100E+02
   0.1083918450E+01   0.0000000000E+00  -0.1053388123E-16   0.2677294200E-01   0.0000000000E+00   0.2096045516E-17   0.5714550796E-01   0.0000000000E+00  -0.1262992675E-16   0.1137499401E+02   0.3005158298E-05   0.3005158298E-05   0.4150000177E-15  -0.8513753986E-15  -0.2552113715E-15   0.8391845010E-01  -0.4193647505E-01  -0.4193647505E-01  -0.1826583447E-15  -0.1264666673E-15  -0.2701633335E-16   0.1137499100E+02
   0.1083918450E+01   0.9580635250E+00  -0.2405508459E-16   0.2677294200E-01  -0.1338422100E-01   0.3270885973E-17   0.5714550796E-01  -0.2855225398E-01  -0.2732597056E-16   0.1137499401E+02   0.3005158317E-05   0.3005158318E-05   0.7332793986E-15   0.4480481400E-16  -0.6444268305E-17   0.8391845009E-01  -0.4193647504E-01  -0.4193647504E-01  -0.1632765323E-15   0.1467101653E-15  -0.4602023860E-16   0.1137499100E+02
   0.0000000000E+00   0.9580635250E+00  -0.1513612548E-16   0.0000000000E+00  -0.1338422100E-01   0.1108672583E-17   0.0000000000E+00  -0.2855225398E-01  -0.1624479806E-16   0.1137499401E+02   0.3005156811E-05   0.3005156813E-05   0.7632291741E-15   0.1455053725E-15   0.1937697616E-15   0.8391845009E-01  -0.4193647504E-01  -0.4193647504E-01   0.4191607889E-16  -0.2995993828E-16   0.4159479247E-16   0.1137499100E+02
   0.0000000000E+00   0.0000000000E+00   0.9580635250E+00   0.0000000000E+00   0.0000000000E+00  -0.1338422100E-01   0.0000000000E+00   0.0000000000E+00  -0.2855225398E-01   0.1137499401E+02   0.3005156938E-05   0.3005156936E-05  -0.4721339299E-16   0.2595475712E-15  -0.2683652868E-15   0.8391845009E-01  -0.4193647504E-01  -0.4193647504E-01   0.4911979932E-17  -0.6731053610E-16  -0.3747604019E-16   0.1137499100E+02
   0.1083918450E+01   0.0000000000E+00   0.9580635250E+00   0.2677294200E-01   0.0000000000E+00  -0.1338422100E-01   0.5714550796E-01   0.0000000000E+00  -0.2855225398E-01   0.1137499401E+02   0.3005157897E-05   0.3005157896E-05   0.6203246851E-15   0.6459169202E-16  -0.4056037318E-15   0.8391845009E-01  -0.4193647504E-01  -0.4193647504E-01   0.4361141867E-16  -0.1157436823E-15   0.5816278187E-16   0.1137499100E+02
   0.1083918450E+01   0.9580635250E+00   0.9580635250E+00   0.2677294200E-01  -0.1338422100E-01  -0.1338422100E-01   0.5714550796E-01  -0.2855225398E-01  -0.2855225398E-01   0.1137499400E+02   0.3005157748E-05   0.3005157748E-05   0.1433737073E-15   0.4318704169E-15  -0.1915001376E-15   0.8391845008E-01  -0.4193647504E-01  -0.4193647504E-01   0.2279156080E-16   0.6386893273E-16   0.5632595110E-16   0.1137499100E+02
   0.0000000000E+00   0.9580635250E+00   0.9580635250E+00   0.0000000000E+00  -0.1338422100E-01  -0.1338422100E-01   0.0000000000E+00  -0.2855225398E-01  -0.2855225398E-01   0.1137499400E+02   0.3005158364E-05   0.3005158363E-05  -0.5768944862E-16  -0.2715385169E-15   0.5197042041E-15   0.8391845008E-01  -0.4193647504E-01  -0.4193647504E-01  -0.6968698080E-16   0.9003563656E-16   0.2564950200E-16   0.1137499100E+02
   0.2167836900E+01   0.0000000000E+00  -0.5457154894E-17   0.5354588401E-01   0.0000000000E+00   0.6952376172E-17   0.1142910159E+00   0.0000000000E+00  -0.1240953107E-16   0.1137499401E+02   0.3005158501E-05   0.3005158501E-05   0.1840377391E-14   0.1419881366E-14   0.2379421048E-15   0.8391845009E-01  -0.4193647505E-01  -0.4193647505E-01  -0.6717714791E-16   0.1454273384E-16  -0.1902641022E-16   0.1137499100E+02
   0.2167836900E+01   0.9580635250E+00  -0.9022237424E-17   0.5354588401E-01  -0.1338422100E-01   0.1009956297E-16   0.1142910159E+00  -0.2855225398E-01  -0.1912180039E-16   0.1137499401E+02   0.3005159671E-05   0.3005159672E-05   0.1054408012E-14  -0.5478461774E-15   0.3324484127E-16   0.8391845009E-01  -0.4193647504E-01  -0.4193647504E-01  -0.1206989917E-15   0.2161160171E-15   0.9404830718E-16   0.1137499100E+02
   0.2167836900E+01   0.0000000000E+00   0.9580635250E+00   0.5354588401E-01   0.0000000000E+00  -0.1338422100E-01   0.1142910159E+00   0.0000000000E+00  -0.2855225398E-01   0.1137499401E+02   0.3005158933E-05   0.3005158934E-05  -0.2608790531E-15  -0.9522356021E-15   0.2941914644E-15   0.8391845009E-01  -0.4193647504E-01  -0.4193647504E-01   0.1635475802E-15  -0.1335305844E-15   0.5340395799E-16   0.1137499100E+02
   0.2167836900E+01   0.9580635250E+00   0.9580635250E+00   0.5354588401E-01  -0.1338422100E-01  -0.1338422100E-01   0.1142910159E+00  -0.2855225398E-01  -0.2855225398E-01   0.1137499400E+02   0.3005156999E-05   0.3005156999E-05   0.9199686081E-15  -0.5312025350E-15   0.4074008371E-15   0.8391845008E-01  -0.4193647504E-01  -0.4193647504E-01   0.1700439522E-15   0.1377573454E-15   0.5570347719E-16   0.1137499100E+02
     1     2     3     4     5     6     7     8
     2     9    10     3     6    11    12     7
 VARIABLES = X,Y,Z,DU1,DU2,DU3,U1,U2,U3,S11,S22,S33,S12,S13,S23,E11,E22,E33,E12,E13,E23,SMISES
 ZONE, T="0.9000D+01" F=FEPOINT, I=   12 J=    2 ET=BRICK
   0.0000000000E+00   0.0000000000E+00   0.0000000000E+00   0.0000000000E+00   0.0000000000E+00   0.0000000000E+00   0.0000000000E+00   0.0000000000E+00   0.0000000000E+00   0.1249998613E+02   0.6944756765E-05   0.6944756765E-05   0.3258412613E-16  -0.2087867691E-15  -0.9421045547E-15   0.1126386977E+00  -0.5629434887E-01  -0.5629434887E-01  -0.9059132376E-17  -0.3967202963E-16  -0.5538797935E-16   0.1249997919E+02
   0.1112638698E+01   0.0000000000E+00  -0.1461061045E-16   0.2872024759E-01   0.0000000000E+00  -0.4076729214E-17   0.8391844997E-01   0.0000000000E+00  -0.1053388123E-16   0.1249998613E+02   0.6944757876E-05   0.6944757877E-05   0.7273501678E-15  -0.1236666110E-15  -0.2052157500E-15   0.1126386977E+00  -0.5629434887E-01  -0.5629434887E-01  -0.1391551524E-15  -0.1027734770E-15  -0.3045209092E-16   0.1249997918E+02
   0.1112638698E+01   0.9437056512E+00  -0.2941988509E-16   0.2872024759E-01  -0.1435787380E-01  -0.5364800497E-17   0.8391844997E-01  -0.4193647498E-01  -0.2405508459E-16   0.1249998613E+02   0.6944757278E-05   0.6944757280E-05   0.1181657385E-14  -0.8606901218E-15   0.3179686026E-15   0.1126386977E+00  -0.5629434886E-01  -0.5629434886E-01  -0.1317112795E-15   0.5657578181E-16  -0.3317080684E-16   0.1249997918E+02
   0.0000000000E+00   0.9437056512E+00  -0.2678611274E-16   0.0000000000E+00  -0.1435787380E-01  -0.1164998726E-16   0.0000000000E+00  -0.4193647498E-01  -0.1513612548E-16   0.1249998613E+02   0.6944757623E-05   0.6944757625E-05   0.3765530746E-15   0.6319856485E-15   0.7641575742E-16   0.1126386977E+00  -0.5629434886E-01  -0.5629434886E-01   0.6195411990E-16   0.2867972988E-16   0.6247719553E-16   0.1249997918E+02
   0.0000000000E+00   0.0000000000E+00   0.9437056512E+00   0.0000000000E+00   0.0000000000E+00  -0.1435787380E-01   0.0000000000E+00   0.0000000000E+00  -0.4193647498E-01   0.1249998613E+02   0.6944758395E-05   0.6944758393E-05  -0.7632099493E-16  -0.1992370180E-15  -0.9018542390E-15   0.1126386977E+00  -0.5629434886E-01  -0.5629434886E-01   0.1207670858E-17  -0.5880770587E-16  -0.4477868097E-16   0.1249997918E+02
   0.1112638698E+01   0.0000000000E+00   0.9437056512E+00   0.2872024759E-01   0.0000000000E+00  -0.1435787380E-01   0.8391844997E-01   0.0000000000E+00  -0.4193647498E-01   0.1249998613E+02   0.6944757669E-05   0.6944757669E-05  -0.4968357921E-15   0.3609032062E-15   0.8350004019E-16   0.1126386977E+00  -0.5629434886E-01  -0.5629434886E-01   0.2706312894E-16  -0.1393631095E-15   0.5920041665E-16   0.1249997918E+02
   0.1112638698E+01   0.9437056512E+00   0.9437056512E+00   0.2872024759E-01  -0.1435787380E-01  -0.1435787380E-01   0.8391844997E-01  -0.4193647498E-01  -0.4193647498E-01   0.1249998613E+02   0.6944757770E-05   0.6944757770E-05  -0.1390960610E-14  -0.4196987003E-15   0.1691127074E-15   0.1126386977E+00  -0.5629434885E-01  -0.5629434885E-01  -0.5547162185E-18   0.9791676723E-16   0.6298462332E-16   0.1249997918E+02
   0.0000000000E+00   0.9437056512E+00   0.9437056512E+00   0.0000000000E+00  -0.1435787380E-01  -0.1435787380E-01   0.0000000000E+00  -0.4193647498E-01  -0.4193647498E-01   0.1249998613E+02   0.6944757740E-05   0.6944757740E-05  -0.7163637069E-15   0.4840331335E-15   0.1188753138E-14   0.1126386977E+00  -0.5629434886E-01  -0.5629434886E-01  -0.9143062026E-16   0.1094684017E-15   0.1085575263E-15   0.1249997918E+02
   0.2225277395E+01   0.0000000000E+00  -0.9356518498E-17   0.5744049519E-01   0.0000000000E+00  -0.3899363604E-17   0.1678368999E+00   0.0000000000E+00  -0.5457154894E-17   0.1249998613E+02   0.6944758245E-05   0.6944758242E-05  -0.1294047132E-14  -0.4495456023E-15  -0.2510185863E-15   0.1126386977E+00  -0.5629434887E-01  -0.5629434887E-01  -0.1074290421E-15   0.5302405853E-16  -0.1105676535E-16   0.1249997918E+02
   0.2225277395E+01   0.9437056512E+00  -0.1915374593E-16   0.5744049519E-01  -0.1435787380E-01  -0.1013150850E-16   0.1678368999E+00  -0.4193647498E-01  -0.9022237424E-17   0.1249998613E+02   0.6944757650E-05   0.6944757652E-05  -0.9123987360E-15   0.2479204704E-14  -0.1641478587E-14   0.1126386977E+00  -0.5629434886E-01  -0.5629434886E-01  -0.1327077548E-15   0.3049749878E-15  -0.1657624776E-17   0.1249997918E+02
   0.2225277395E+01   0.0000000000E+00   0.9437056512E+00   0.5744049519E-01   0.0000000000E+00  -0.1435787380E-01   0.1678368999E+00   0.0000000000E+00  -0.4193647498E-01   0.1249998613E+02   0.6944756152E-05   0.6944756153E-05   0.3195561438E-15  -0.2258161296E-14   0.5684771020E-15   0.1126386977E+00  -0.5629434886E-01  -0.5629434886E-01   0.1362999483E-15  -0.6446747974E-16   0.5029233820E-16   0.1249997918E+02
   0.2225277395E+01   0.9437056512E+00   0.9437056512E+00   0.5744049519E-01  -0.1435787380E-01  -0.1435787380E-01   0.1678368999E+00  -0.4193647498E-01  -0.4193647498E-01   0.1249998613E+02   0.6944758536E-05   0.6944758536E-05   0.5377659876E-15   0.1318583317E-14   0.5402910885E-15   0.1126386977E+00  -0.5629434885E-01  -0.5629434885E-01   0.1786344217E-15   0.6652283272E-16   0.8342245514E-16   0.1249997918E+02
     1     2     3     4     5     6     7     8
     2     9    10     3     6    11    12     7
 VARIABLES = X,Y,Z,DU1,DU2,DU3,U1,U2,U3,S11,S22,S33,S12,S13,S23,E11,E22,E33,E12,E13,E23,SMISES
 ZONE, T="0.9050D+01" F=FEPOINT, I=   12 J=    2 ET=BRICK
   0.0000000000E+00   0.0000000000E+00   0.0000000000E+00   0.0000000000E+00   0.0000000000E+00   0.0000000000E+00   0.0000000000E+00   0.0000000000E+00   0.0000000000E+00   0.1137500002E+02  -0.2587265838E-11  -0.3014543088E-11   0.2309541100E-16  -0.4344488927E-12  -0.1238265748E-12   0.1103887394E+00  -0.5517161969E-01  -0.5517161969E-01  -0.1682270699E-16  -0.5287801572E-14  -0.1521151331E-14   0.1137500002E+02
   0.1110388739E+01   0.0000000000E+00  -0.2698281150E-14  -0.2249958359E-02   0.0000000000E+00  -0.2683670540E-14   0.1126386976E+00   0.0000000000E+00  -0.1461061045E-16   0.1137500002E+02  -0.1429414072E-12  -0.2508851460E-12  -0.1022392868E-12  -0.2864040702E-12   0.1266138625E-12   0.1103887394E+00  -0.5517161969E-01  -0.5517161969E-01  -0.1342121881E-14  -0.3461987325E-14   0.1499894414E-14   0.1137500002E+02
   0.1110388739E+01   0.9448283804E+00  -0.1952636473E-14  -0.2249958359E-02   0.1122729180E-02  -0.1923216588E-14   0.1126386976E+00  -0.5629434878E-01  -0.2941988509E-16   0.1137500002E+02   0.2842034366E-12   0.3860926309E-12  -0.9274500757E-13  -0.1787064853E-12  -0.6232606488E-13   0.1103887394E+00  -0.5517161968E-01  -0.5517161968E-01  -0.1243408190E-14  -0.2097822308E-14  -0.8021684811E-15   0.1137500002E+02
   0.0000000000E+00   0.9448283804E+00  -0.7635691477E-15   0.0000000000E+00   0.1122729180E-02  -0.7367830349E-15   0.0000000000E+00  -0.5629434878E-01  -0.2678611274E-16   0.1137500002E+02   0.1439057441E-11   0.1234251301E-11  -0.1148374522E-12  -0.1163660274E-12  -0.3047808941E-12   0.1103887394E+00  -0.5517161968E-01  -0.5517161968E-01  -0.1328379955E-14  -0.1363576798E-14  -0.3624446388E-14   0.1137500002E+02
   0.0000000000E+00   0.0000000000E+00   0.9448283804E+00   0.0000000000E+00   0.0000000000E+00   0.1122729180E-02   0.0000000000E+00   0.0000000000E+00  -0.5629434878E-01   0.1137500002E+02   0.9910375039E-12   0.9260105280E-12  -0.9350158355E-16  -0.3072258474E-12  -0.1421356947E-13   0.1103887394E+00  -0.5517161968E-01  -0.5517161968E-01   0.8651477294E-17  -0.3697176602E-14  -0.2269625547E-15   0.1137500002E+02
   0.1110388739E+01   0.0000000000E+00   0.9448283804E+00  -0.2249958359E-02   0.0000000000E+00   0.1122729180E-02   0.1126386976E+00   0.0000000000E+00  -0.5629434878E-01   0.1137500002E+02  -0.5963526038E-13   0.2103962990E-12  -0.1098269562E-12  -0.2841486800E-12   0.2315171453E-12   0.1103887394E+00  -0.5517161968E-01  -0.5517161968E-01  -0.1296380946E-14  -0.3546863124E-14   0.2803261951E-14   0.1137500002E+02
   0.1110388739E+01   0.9448283804E+00   0.9448283804E+00  -0.2249958359E-02   0.1122729180E-02   0.1122729180E-02   0.1126386976E+00  -0.5629434878E-01  -0.5629434878E-01   0.1137500001E+02  -0.8284314421E-12  -0.3491677516E-12  -0.1072482918E-12  -0.1822198909E-12   0.4208151966E-13   0.1103887393E+00  -0.5517161967E-01  -0.5517161967E-01  -0.1292115518E-14  -0.2194093533E-14   0.5731770928E-15   0.1137500001E+02
   0.0000000000E+00   0.9448283804E+00   0.9448283804E+00   0.0000000000E+00   0.1122729180E-02   0.1122729180E-02   0.0000000000E+00  -0.5629434878E-01  -0.5629434878E-01   0.1137500002E+02  -0.2562278560E-12  -0.1009040338E-12  -0.1243969644E-12   0.5972243902E-14  -0.1940518447E-12   0.1103887394E+00  -0.5517161968E-01  -0.5517161968E-01  -0.1567979844E-14   0.1897805865E-15  -0.2286156119E-14   0.1137500002E+02
   0.2220777478E+01   0.0000000000E+00  -0.5696692761E-14  -0.4499916718E-02   0.0000000000E+00  -0.5687336243E-14   0.2252773951E+00   0.0000000000E+00  -0.9356518498E-17   0.1137500002E+02   0.1081547807E-11   0.6224621724E-12  -0.2061961046E-12  -0.1326982809E-12   0.1061520025E-12   0.1103887394E+00  -0.5517161968E-01  -0.5517161968E-01  -0.2550582539E-14  -0.1548989157E-14   0.1254489583E-14   0.1137500002E+02
   0.2220777478E+01   0.9448283804E+00  -0.5068604388E-14  -0.4499916718E-02   0.1122729180E-02  -0.5049450642E-14   0.2252773951E+00  -0.5629434878E-01  -0.1915374593E-16   0.1137500002E+02  -0.1066434140E-11  -0.1324197553E-11  -0.7229909327E-13  -0.2261007535E-12  -0.8857640907E-13   0.1103887394E+00  -0.5517161968E-01  -0.5517161968E-01  -0.9663368274E-15  -0.2363873477E-14  -0.1040748191E-14   0.1137500002E+02
   0.2220777478E+01   0.0000000000E+00   0.9448283804E+00  -0.4499916718E-02   0.0000000000E+00   0.1122729180E-02   0.2252773951E+00   0.0000000000E+00  -0.5629434878E-01   0.1137500002E+02  -0.4760889867E-12  -0.5453404377E-12  -0.2125914517E-12  -0.2586436173E-12   0.2056549575E-12   0.1103887394E+00  -0.5517161968E-01  -0.5517161968E-01  -0.2522016571E-14  -0.3134407896E-14   0.2535166563E-14   0.1137500002E+02
   0.2220777478E+01   0.9448283804E+00   0.9448283804E+00  -0.4499916718E-02   0.1122729180E-02   0.1122729180E-02   0.2252773951E+00  -0.5629434878E-01  -0.5629434878E-01   0.1137500001E+02   0.3291698496E-12   0.4552366643E-12  -0.8179168902E-13  -0.3569643178E-12   0.1242218618E-13   0.1103887393E+00  -0.5517161967E-01  -0.5517161967E-01  -0.8510301636E-15  -0.4128402760E-14   0.2147861280E-15   0.1137500001E+02
     1     2     3     4     5     6     7     8
     2     9    10     3     6    11    12     7
 VARIABLES = X,Y,Z,DU1,DU2,DU3,U1,U2,U3,S11,S22,S33,S12,S13,S23,E11,E22,E33,E12,E13,E23,SMISES
 ZONE, T="0.9100D+01" F=FEPOINT, I=   12 J=    2 ET=BRICK
   0.0000000000E+00   0.0000000000E+00   0.0000000000E+00   0.0000000000E+00   0.0000000000E+00   0.0000000000E+00   0.0000000000E+00   0.0000000000E+00   0.0000000000E+00   0.1025000002E+02   0.3582998378E-13   0.3573928003E-13   0.3547114227E-16   0.8793873177E-15  -0.3809135878E-15   0.1081387394E+00  -0.5404886969E-01  -0.5404886969E-01   0.2206105081E-16  -0.4350791360E-16  -0.6472613591E-16   0.1025000002E+02
   0.1108138739E+01   0.0000000000E+00  -0.9566943492E-17  -0.2250000000E-02   0.0000000000E+00   0.2688714207E-14   0.1103887392E+00   0.0000000000E+00  -0.2698281150E-14   0.1025000002E+02  -0.6216643397E-13  -0.6163815328E-13   0.2485186338E-15  -0.1590039484E-14  -0.2275573839E-15   0.1081387394E+00  -0.5404886968E-01  -0.5404886968E-01  -0.1613910747E-15  -0.3663505060E-16  -0.2705790903E-16   0.1025000002E+02
   0.1108138739E+01   0.9459511304E+00  -0.2447794032E-16  -0.2250000000E-02   0.1122750000E-02   0.1928158533E-14   0.1103887392E+00  -0.5517161960E-01  -0.1952636473E-14   0.1025000001E+02   0.6132593031E-13   0.6107121985E-13   0.4989590888E-15  -0.2508078499E-15   0.5294530414E-16   0.1081387394E+00  -0.5404886968E-01  -0.5404886968E-01  -0.1642787520E-15   0.1243394333E-15  -0.3826723560E-16   0.1025000001E+02
   0.0000000000E+00   0.9459511304E+00  -0.2333598745E-16   0.0000000000E+00   0.1122750000E-02   0.7402331602E-15   0.0000000000E+00  -0.5517161960E-01  -0.7635691477E-15   0.1025000001E+02   0.1742880603E-14   0.4440472373E-14   0.5618367589E-15   0.6303603733E-15   0.3888462959E-15   0.1081387394E+00  -0.5404886968E-01  -0.5404886968E-01   0.8025834295E-16  -0.2261355934E-16   0.8691593332E-16   0.1025000001E+02
   0.0000000000E+00   0.0000000000E+00   0.9459511304E+00   0.0000000000E+00   0.0000000000E+00   0.1122750000E-02   0.0000000000E+00   0.0000000000E+00  -0.5517161960E-01   0.1025000001E+02   0.5466306066E-13   0.5300822393E-13  -0.9317944279E-16   0.5638834570E-16  -0.6795507152E-15   0.1081387394E+00  -0.5404886968E-01  -0.5404886968E-01  -0.6236499941E-17  -0.1874451624E-16  -0.4191225431E-16   0.1025000001E+02
   0.1108138739E+01   0.0000000000E+00   0.9459511304E+00  -0.2250000000E-02   0.0000000000E+00   0.1122750000E-02   0.1103887392E+00   0.0000000000E+00  -0.5517161960E-01   0.1025000001E+02   0.3121726381E-13   0.3043719024E-13   0.3960344839E-15  -0.3295995624E-15   0.1522397646E-15   0.1081387394E+00  -0.5404886968E-01  -0.5404886968E-01   0.5559231463E-17  -0.1489443763E-15   0.5804814319E-16   0.1025000001E+02
   0.1108138739E+01   0.9459511304E+00   0.9459511304E+00  -0.2250000000E-02   0.1122750000E-02   0.1122750000E-02   0.1103887392E+00  -0.5517161960E-01  -0.5517161960E-01   0.1025000001E+02  -0.6849768219E-13  -0.6884163782E-13  -0.5785150841E-15  -0.6157649102E-15  -0.5267081630E-16   0.1081387393E+00  -0.5404886967E-01  -0.5404886967E-01  -0.3076545086E-17   0.2908287829E-16   0.4821010823E-16   0.1025000001E+02
   0.0000000000E+00   0.9459511304E+00   0.9459511304E+00   0.0000000000E+00   0.1122750000E-02   0.1122750000E-02   0.0000000000E+00  -0.5517161960E-01  -0.5517161960E-01   0.1025000001E+02  -0.5634904638E-13  -0.5740123138E-13  -0.4779149376E-15   0.8319668468E-15   0.1111313661E-14   0.1081387393E+00  -0.5404886967E-01  -0.5404886967E-01  -0.8895653882E-16   0.1053717825E-15   0.5068793744E-16   0.1025000001E+02
   0.2216277478E+01   0.0000000000E+00  -0.6255769413E-17  -0.4500000000E-02   0.0000000000E+00   0.5690436992E-14   0.2207774784E+00   0.0000000000E+00  -0.5696692761E-14   0.1025000002E+02  -0.1629619984E-13  -0.1573962939E-13   0.1571503264E-14   0.8213099776E-15   0.1364987117E-14   0.1081387394E+00  -0.5404886968E-01  -0.5404886968E-01  -0.2498539261E-16  -0.6688223957E-16  -0.1608473187E-16   0.1025000002E+02
   0.2216277478E+01   0.9459511304E+00  -0.6514268519E-17  -0.4500000000E-02   0.1122750000E-02   0.5062090120E-14   0.2207774784E+00  -0.5517161960E-01  -0.5068604388E-14   0.1025000001E+02   0.1487633344E-12   0.1487361127E-12   0.1641577840E-14   0.1570589702E-14  -0.3736149917E-15   0.1081387394E+00  -0.5404886968E-01  -0.5404886968E-01  -0.1040804251E-15   0.2642082866E-15   0.6077096946E-16   0.1025000001E+02
   0.2216277478E+01   0.0000000000E+00   0.9459511304E+00  -0.4500000000E-02   0.0000000000E+00   0.1122750000E-02   0.2207774784E+00   0.0000000000E+00  -0.5517161960E-01   0.1025000001E+02  -0.7006736445E-14  -0.2399988488E-14  -0.6668472989E-15   0.7468346692E-15  -0.4211834222E-15   0.1081387394E+00  -0.5404886968E-01  -0.5404886968E-01   0.5033515053E-16  -0.1018056135E-15   0.6694012495E-16   0.1025000001E+02
   0.2216277478E+01   0.9459511304E+00   0.9459511304E+00  -0.4500000000E-02   0.1122750000E-02   0.1122750000E-02   0.2207774784E+00  -0.5517161960E-01  -0.5517161960E-01   0.1025000001E+02  -0.1352875135E-12  -0.1381784693E-12  -0.9738574552E-15  -0.3283629196E-15  -0.6778729195E-15   0.1081387393E+00  -0.5404886967E-01  -0.5404886967E-01   0.1981943094E-15   0.1513658868E-15   0.2868278247E-16   0.1025000001E+02
     1     2     3     4     5     6     7     8
     2     9    10     3     6    11    12     7
 VARIABLES = X,Y,Z,DU1,DU2,DU3,U1,U2,U3,S11,S22,S33,S12,S13,S23,E11,E22,E33,E12,E13,E23,SMISES
 ZONE, T="0.9150D+01" F=FEPOINT, I=   12 J=    2 ET=BRICK
   0.0000000000E+00   0.0000000000E+00   0.0000000000E+00   0.0000000000E+00   0.0000000000E+00   0.0000000000E+00   0.0000000000E+00   0.0000000000E+00   0.0000000000E+00   0.9125000014E+01  -0.5159411196E-14  -0.7581974002E-14   0.3228362766E-16   0.2336324807E-15   0.1034639622E-15   0.1058887394E+00  -0.5292611968E-01  -0.5292611968E-01   0.1359816596E-17  -0.1698110443E-16  -0.3354264228E-16   0.9125000014E+01
   0.1105888739E+01   0.0000000000E+00  -0.1514092741E-16  -0.2250000000E-02   0.0000000000E+00  -0.5573983919E-17   0.1081387392E+00   0.0000000000E+00  -0.9566943492E-17   0.9125000014E+01   0.6275677002E-13   0.6084761371E-13  -0.2622987860E-15  -0.1821414102E-14   0.5078948725E-15   0.1058887394E+00  -0.5292611968E-01  -0.5292611968E-01  -0.1578614866E-15  -0.1272202233E-15  -0.3131223300E-16   0.9125000014E+01
   0.1105888739E+01   0.9470738804E+00  -0.2563770846E-16  -0.2250000000E-02   0.1122750000E-02  -0.1159768140E-17   0.1081387392E+00  -0.5404886960E-01  -0.2447794032E-16   0.9125000013E+01   0.1839553173E-14   0.2496575474E-15   0.1605818166E-15  -0.6567394073E-16  -0.8449621079E-15   0.1058887394E+00  -0.5292611968E-01  -0.5292611968E-01  -0.1721818489E-15   0.1595527592E-15  -0.9239154061E-16   0.9125000013E+01
   0.0000000000E+00   0.9470738804E+00  -0.2044509887E-16   0.0000000000E+00   0.1122750000E-02   0.2890888581E-17   0.0000000000E+00  -0.5404886960E-01  -0.2333598745E-16   0.9125000013E+01  -0.9168667709E-13  -0.8938602533E-13   0.7908358360E-15   0.4000454524E-15  -0.4672412134E-15   0.1058887394E+00  -0.5292611968E-01  -0.5292611968E-01   0.1007302236E-15  -0.5062997625E-16   0.6496917977E-16   0.9125000013E+01
   0.0000000000E+00   0.0000000000E+00   0.9470738804E+00   0.0000000000E+00   0.0000000000E+00   0.1122750000E-02   0.0000000000E+00   0.0000000000E+00  -0.5404886960E-01   0.9125000013E+01  -0.5656168397E-14  -0.6591886916E-14  -0.9918913144E-16  -0.2496209248E-15   0.2823790471E-15   0.1058887394E+00  -0.5292611968E-01  -0.5292611968E-01   0.9527583451E-17  -0.3760269962E-16  -0.2884965325E-16   0.9125000013E+01
   0.1105888739E+01   0.0000000000E+00   0.9470738804E+00  -0.2250000000E-02   0.0000000000E+00   0.1122750000E-02   0.1081387392E+00   0.0000000000E+00  -0.5404886960E-01   0.9125000013E+01  -0.1093014534E-13  -0.9687122794E-14   0.3712299013E-15  -0.5783627001E-15   0.1094763714E-14   0.1058887394E+00  -0.5292611968E-01  -0.5292611968E-01  -0.6617988892E-17  -0.1198064443E-15   0.8298795555E-16   0.9125000013E+01
   0.1105888739E+01   0.9470738804E+00   0.9470738804E+00  -0.2250000000E-02   0.1122750000E-02   0.1122750000E-02   0.1081387392E+00  -0.5404886960E-01  -0.5404886960E-01   0.9125000012E+01  -0.2369442824E-13  -0.2248912518E-13  -0.6135019646E-15  -0.5232548386E-15  -0.8318944402E-15   0.1058887393E+00  -0.5292611967E-01  -0.5292611967E-01  -0.1564914949E-18   0.3993218432E-16   0.1398629714E-16   0.9125000012E+01
   0.0000000000E+00   0.9470738804E+00   0.9470738804E+00   0.0000000000E+00   0.1122750000E-02   0.1122750000E-02   0.0000000000E+00  -0.5404886960E-01  -0.5404886960E-01   0.9125000012E+01   0.1937473873E-13   0.1976623446E-13  -0.6720998339E-15   0.5082838242E-15   0.7812554918E-15   0.1058887393E+00  -0.5292611967E-01  -0.5292611967E-01  -0.1037053239E-15   0.1445840752E-15   0.1178366857E-16   0.9125000012E+01
   0.2211777478E+01   0.0000000000E+00  -0.2471985898E-16  -0.4500000000E-02   0.0000000000E+00  -0.1846408957E-16   0.2162774784E+00   0.0000000000E+00  -0.6255769413E-17   0.9125000014E+01   0.2545883353E-13   0.2413852267E-13   0.4885839447E-15   0.1331778159E-14   0.1893214798E-14   0.1058887394E+00  -0.5292611968E-01  -0.5292611968E-01  -0.6198732083E-16   0.1089618440E-15   0.3912098913E-16   0.9125000014E+01
   0.2211777478E+01   0.9470738804E+00  -0.2185859440E-16  -0.4500000000E-02   0.1122750000E-02  -0.1534432588E-16   0.2162774784E+00  -0.5404886960E-01  -0.6514268519E-17   0.9125000013E+01   0.3982817348E-13   0.3770601140E-13   0.7100340796E-15   0.2505256391E-14  -0.1453440098E-14   0.1058887394E+00  -0.5292611968E-01  -0.5292611968E-01  -0.1534723813E-15   0.1626056422E-15  -0.7441957275E-17   0.9125000013E+01
   0.2211777478E+01   0.0000000000E+00   0.9470738804E+00  -0.4500000000E-02   0.0000000000E+00   0.1122750000E-02   0.2162774784E+00   0.0000000000E+00  -0.5404886960E-01   0.9125000013E+01  -0.9125162923E-14  -0.3677385820E-14  -0.5095839420E-15   0.6899115048E-15   0.2533576369E-15   0.1058887394E+00  -0.5292611968E-01  -0.5292611968E-01   0.1050892650E-15  -0.9168569249E-16  -0.9219412967E-17   0.9125000013E+01
   0.2211777478E+01   0.9470738804E+00   0.9470738804E+00  -0.4500000000E-02   0.1122750000E-02   0.1122750000E-02   0.2162774784E+00  -0.5404886960E-01  -0.5404886960E-01   0.9125000012E+01   0.6383362253E-13   0.6193136958E-13  -0.5044570387E-15   0.7208280155E-15  -0.1449155562E-14   0.1058887393E+00  -0.5292611967E-01  -0.5292611967E-01   0.1707311264E-15  -0.5640691780E-16   0.1277976112E-15   0.9125000012E+01
     1     2     3     4     5     6     7     8
     2     9    10     3     6    11    12     7
 VARIABLES = X,Y,Z,DU1,DU2,DU3,U1,U2,U3,S11,S22,S33,S12,S13,S23,E11,E22,E33,E12,E13,E23,SMISES
 ZONE, T="0.9200D+01" F=FEPOINT, I=   12 J=    2 ET=BRICK
   0.0000000000E+00   0.0000000000E+00   0.0000000000E+00   0.0000000000E+00   0.0000000000E+00   0.0000000000E+00   0.0000000000E+00   0.0000000000E+00   0.0000000000E+00   0.8000000013E+01   0.5467391838E-13   0.5342545164E-13   0.5044986273E-16   0.7115467283E-15  -0.5541484795E-15   0.1036387394E+00  -0.5180336968E-01  -0.5180336968E-01   0.8734514270E-17  -0.2330028746E-16  -0.4324799859E-16   0.8000000013E+01
   0.1103638739E+01   0.0000000000E+00  -0.1078083821E-16  -0.2250000000E-02   0.0000000000E+00   0.4360089198E-17   0.1058887392E+00   0.0000000000E+00  -0.1514092741E-16   0.8000000012E+01  -0.6486234577E-13  -0.6565836147E-13  -0.7595392158E-16  -0.1894206214E-14  -0.2166246171E-15   0.1036387394E+00  -0.5180336968E-01  -0.5180336968E-01  -0.1673985016E-15  -0.9841013249E-16  -0.3848983921E-16   0.8000000012E+01
   0.1103638739E+01   0.9481966304E+00  -0.2551726829E-16  -0.2250000000E-02   0.1122750000E-02   0.1204401750E-18   0.1058887392E+00  -0.5292611960E-01  -0.2563770846E-16   0.8000000011E+01  -0.7336922305E-13  -0.7260295563E-13   0.4434712132E-15  -0.1646114158E-15  -0.1624655918E-15   0.1036387394E+00  -0.5180336968E-01  -0.5180336968E-01  -0.1008330298E-15   0.1381550756E-15  -0.1203016557E-16   0.8000000011E+01
   0.0000000000E+00   0.9481966304E+00  -0.2415610099E-16   0.0000000000E+00   0.1122750000E-02  -0.3711002123E-17   0.0000000000E+00  -0.5292611960E-01  -0.2044509887E-16   0.8000000012E+01   0.4348500327E-13   0.4791432921E-13   0.7374598715E-15   0.6931557770E-15   0.2404742210E-15   0.1036387394E+00  -0.5180336968E-01  -0.5180336968E-01   0.6622215295E-16  -0.3264433657E-16   0.5735496784E-17   0.8000000012E+01
   0.0000000000E+00   0.0000000000E+00   0.9481966304E+00   0.0000000000E+00   0.0000000000E+00   0.1122750000E-02   0.0000000000E+00   0.0000000000E+00  -0.5292611960E-01   0.8000000012E+01  -0.6393857820E-13  -0.6575197731E-13  -0.9040552590E-16   0.7022558347E-16  -0.3304992488E-15   0.1036387394E+00  -0.5180336968E-01  -0.5180336968E-01  -0.3114919062E-17  -0.4034128677E-16  -0.5195690641E-16   0.8000000012E+01
   0.1103638739E+01   0.0000000000E+00   0.9481966304E+00  -0.2250000000E-02   0.0000000000E+00   0.1122750000E-02   0.1058887392E+00   0.0000000000E+00  -0.5292611960E-01   0.8000000011E+01  -0.4613859351E-13  -0.4575691860E-13   0.4381465989E-15  -0.6364588556E-15   0.4868157163E-15   0.1036387394E+00  -0.5180336968E-01  -0.5180336968E-01   0.3320582077E-16  -0.1457211395E-15   0.6363837631E-16   0.8000000011E+01
   0.1103638739E+01   0.9481966304E+00   0.9481966304E+00  -0.2250000000E-02   0.1122750000E-02   0.1122750000E-02   0.1058887392E+00  -0.5292611960E-01  -0.5292611960E-01   0.8000000010E+01   0.4764278420E-13   0.4765367282E-13  -0.4458069524E-15  -0.5861293261E-15  -0.9963792695E-16   0.1036387393E+00  -0.5180336967E-01  -0.5180336967E-01  -0.5208120619E-16   0.4400466911E-16  -0.4778542974E-16   0.8000000010E+01
   0.0000000000E+00   0.9481966304E+00   0.9481966304E+00   0.0000000000E+00   0.1122750000E-02   0.1122750000E-02   0.0000000000E+00  -0.5292611960E-01  -0.5292611960E-01   0.8000000011E+01   0.1293751071E-13   0.1219554745E-13  -0.5432026580E-15   0.8369934444E-15   0.1293065042E-14   0.1036387393E+00  -0.5180336967E-01  -0.5180336967E-01  -0.7181320433E-16   0.1645857496E-15   0.1538364656E-15   0.8000000011E+01
   0.2207277478E+01   0.0000000000E+00  -0.9677080597E-17  -0.4500000000E-02   0.0000000000E+00   0.1504277838E-16   0.2117774784E+00   0.0000000000E+00  -0.2471985898E-16   0.8000000012E+01  -0.8245795582E-13  -0.8234148909E-13   0.6922196196E-15   0.9807694986E-15   0.1379005885E-14   0.1036387394E+00  -0.5180336968E-01  -0.5180336968E-01  -0.2987524478E-16  -0.5987589811E-16   0.9853848143E-17   0.8000000012E+01
   0.2207277478E+01   0.9481966304E+00  -0.9943426303E-17  -0.4500000000E-02   0.1122750000E-02   0.1191516810E-16   0.2117774784E+00  -0.5292611960E-01  -0.2185859440E-16   0.8000000011E+01  -0.2034504689E-12  -0.2044242977E-12   0.1059590824E-14   0.2383699867E-14  -0.9102310004E-15   0.1036387393E+00  -0.5180336967E-01  -0.5180336967E-01  -0.1016392515E-15   0.3612823644E-15   0.2221919298E-16   0.8000000011E+01
   0.2207277478E+01   0.0000000000E+00   0.9481966304E+00  -0.4500000000E-02   0.0000000000E+00   0.1122750000E-02   0.2117774784E+00   0.0000000000E+00  -0.5292611960E-01   0.8000000011E+01  -0.3357202380E-13  -0.2907231259E-13  -0.5495995069E-15   0.5459183983E-15  -0.2286525861E-15   0.1036387393E+00  -0.5180336967E-01  -0.5180336967E-01   0.8111410468E-16  -0.7094569831E-16   0.3120927949E-16   0.8000000011E+01
   0.2207277478E+01   0.9481966304E+00   0.9481966304E+00  -0.4500000000E-02   0.1122750000E-02   0.1122750000E-02   0.2117774784E+00  -0.5292611960E-01  -0.5292611960E-01   0.8000000010E+01   0.4040382912E-13   0.3763079870E-13  -0.7579669851E-15   0.3382367845E-15  -0.8724212045E-15   0.1036387393E+00  -0.5180336967E-01  -0.5180336967E-01   0.1999919136E-15   0.8845884340E-16   0.8633941072E-16   0.8000000010E+01
     1     2     3     4     5     6     7     8
     2     9    10     3     6    11    12     7
 VARIABLES = X,Y,Z,DU1,DU2,DU3,U1,U2,U3,S11,S22,S33,S12,S13,S23,E11,E22,E33,E12,E13,E23,SMISES
 ZONE, T="0.9250D+01" F=FEPOINT, I=   12 J=    2 ET=BRICK
   0.0000000000E+00   0.0000000000E+00   0.0000000000E+00   0.0000000000E+00   0.0000000000E+00   0.0000000000E+00   0.0000000000E+00   0.0000000000E+00   0.0000000000E+00   0.6875000011E+01  -0.1285115882E-12  -0.1304167589E-12   0.6011958086E-16   0.4993798001E-15  -0.3160480908E-15   0.1013887394E+00  -0.5068061968E-01  -0.5068061968E-01   0.9844627106E-17  -0.1316678451E-16  -0.3948835491E-16   0.6875000011E+01
   0.1101388739E+01   0.0000000000E+00  -0.1273427578E-16  -0.2250000000E-02   0.0000000000E+00  -0.1953437563E-17   0.1036387392E+00   0.0000000000E+00  -0.1078083821E-16   0.6875000011E+01   0.4587846856E-13   0.4405058627E-13   0.5243501850E-16  -0.1682924846E-14   0.7958810614E-16   0.1013887394E+00  -0.5068061968E-01  -0.5068061968E-01  -0.1614378974E-15  -0.8365951101E-16  -0.2034292669E-16   0.6875000011E+01
   0.1101388739E+01   0.9493193804E+00  -0.2576386698E-16  -0.2250000000E-02   0.1122750000E-02  -0.2465986909E-18   0.1036387392E+00  -0.5180336960E-01  -0.2551726829E-16   0.6875000010E+01   0.4266934850E-13   0.4298063805E-13   0.6158881990E-15  -0.1870089740E-15  -0.5257406470E-15   0.1013887393E+00  -0.5068061967E-01  -0.5068061967E-01  -0.1626963868E-15   0.1329483872E-15  -0.4206503963E-16   0.6875000010E+01
   0.0000000000E+00   0.9493193804E+00  -0.2275719156E-16   0.0000000000E+00   0.1122750000E-02   0.1398909432E-17   0.0000000000E+00  -0.5180336960E-01  -0.2415610099E-16   0.6875000010E+01   0.1927728698E-13   0.2309453150E-13   0.9363860681E-15   0.4866930777E-15   0.1087834002E-15   0.1013887394E+00  -0.5068061968E-01  -0.5068061968E-01   0.9022495066E-16  -0.3112571355E-16   0.9705289627E-17   0.6875000010E+01
   0.0000000000E+00   0.0000000000E+00   0.9493193804E+00   0.0000000000E+00   0.0000000000E+00   0.1122750000E-02   0.0000000000E+00   0.0000000000E+00  -0.5180336960E-01   0.6875000010E+01   0.3901440848E-13   0.3735811296E-13  -0.1074325278E-15  -0.1621215063E-15  -0.1705084143E-15   0.1013887394E+00  -0.5068061968E-01  -0.5068061968E-01  -0.4217018709E-18  -0.3367870471E-16  -0.3340115268E-16   0.6875000010E+01
   0.1101388739E+01   0.0000000000E+00   0.9493193804E+00  -0.2250000000E-02   0.0000000000E+00   0.1122750000E-02   0.1036387392E+00   0.0000000000E+00  -0.5180336960E-01   0.6875000010E+01   0.5529358401E-13   0.5598946607E-13   0.3423977628E-15  -0.3877033068E-15   0.7428405893E-15   0.1013887393E+00  -0.5068061967E-01  -0.5068061967E-01   0.2850296121E-16  -0.1328257226E-15   0.6073221148E-16   0.6875000010E+01
   0.1101388739E+01   0.9493193804E+00   0.9493193804E+00  -0.2250000000E-02   0.1122750000E-02   0.1122750000E-02   0.1036387392E+00  -0.5180336960E-01  -0.5180336960E-01   0.6875000009E+01   0.4554910144E-13   0.4554113039E-13  -0.6061904413E-15  -0.6511254605E-15  -0.3736785085E-15   0.1013887393E+00  -0.5068061967E-01  -0.5068061967E-01   0.3614968354E-17   0.8199126250E-16  -0.1629918111E-16   0.6875000009E+01
   0.0000000000E+00   0.9493193804E+00   0.9493193804E+00   0.0000000000E+00   0.1122750000E-02   0.1122750000E-02   0.0000000000E+00  -0.5180336960E-01  -0.5180336960E-01   0.6875000009E+01   0.5539112758E-14   0.5031541499E-14  -0.6466318342E-15   0.8294041177E-15   0.9823240761E-15   0.1013887393E+00  -0.5068061967E-01  -0.5068061967E-01  -0.1010850587E-15   0.1225776130E-15   0.4792902337E-16   0.6875000009E+01
   0.2202777478E+01   0.0000000000E+00  -0.1586273712E-16  -0.4500000000E-02   0.0000000000E+00  -0.6185656522E-17   0.2072774784E+00   0.0000000000E+00  -0.9677080597E-17   0.6875000010E+01   0.1615363192E-12   0.1603488079E-12   0.8976474448E-15   0.1254597743E-14   0.1643788062E-14   0.1013887394E+00  -0.5068061968E-01  -0.5068061968E-01  -0.1978164126E-16  -0.4172992335E-17  -0.9101043503E-17   0.6875000010E+01
   0.2202777478E+01   0.9493193804E+00  -0.1462060534E-16  -0.4500000000E-02   0.1122750000E-02  -0.4677179037E-17   0.2072774784E+00  -0.5180336960E-01  -0.9943426303E-17   0.6875000010E+01   0.5554278073E-13   0.5388648518E-13   0.1219397864E-14   0.2145176056E-14  -0.1338053198E-14   0.1013887393E+00  -0.5068061967E-01  -0.5068061967E-01  -0.7624625387E-16   0.3934417212E-15   0.3581636725E-16   0.6875000010E+01
   0.2202777478E+01   0.0000000000E+00   0.9493193804E+00  -0.4500000000E-02   0.0000000000E+00   0.1122750000E-02   0.2072774784E+00   0.0000000000E+00  -0.5180336960E-01   0.6875000010E+01  -0.9482115926E-13  -0.9023472975E-13  -0.1233986407E-14   0.6670893550E-15   0.3582644914E-15   0.1013887393E+00  -0.5068061967E-01  -0.5068061967E-01   0.1183760182E-15  -0.2886802923E-16   0.6941557003E-16   0.6875000010E+01
   0.2202777478E+01   0.9493193804E+00   0.9493193804E+00  -0.4500000000E-02   0.1122750000E-02   0.1122750000E-02   0.2072774784E+00  -0.5180336960E-01  -0.5180336960E-01   0.6875000009E+01   0.4814316292E-13   0.4653333982E-13  -0.1259378254E-14   0.2431057680E-15  -0.1041108083E-14   0.1013887393E+00  -0.5068061967E-01  -0.5068061967E-01   0.2025973353E-15   0.1019374912E-15   0.7368831253E-16   0.6875000009E+01
     1     2     3     4     5     6     7     8
     2     9    10     3     6    11    12     7
 VARIABLES = X,Y,Z,DU1,DU2,DU3,U1,U2,U3,S11,S22,S33,S12,S13,S23,E11,E22,E33,E12,E13,E23,SMISES
 ZONE, T="0.9300D+01" F=FEPOINT, I=   12 J=    2 ET=BRICK
   0.0000000000E+00   0.0000000000E+00   0.0000000000E+00   0.0000000000E+00   0.0000000000E+00   0.0000000000E+00   0.0000000000E+00   0.0000000000E+00   0.0000000000E+00   0.5750000009E+01   0.1757107733E-12   0.1737676877E-12   0.8906028795E-16   0.5948812032E-15  -0.7523674794E-16   0.9913873936E-01  -0.4955786968E-01  -0.4955786968E-01   0.5751705726E-17  -0.2571513663E-16  -0.5802569812E-16   0.5750000009E+01
   0.1099138739E+01   0.0000000000E+00  -0.1220553966E-16  -0.2250000000E-02   0.0000000000E+00   0.5287361157E-18   0.1013887392E+00   0.0000000000E+00  -0.1273427578E-16   0.5750000009E+01  -0.3696141279E-13  -0.3871346542E-13  -0.2672237580E-15  -0.1929750033E-14   0.1592694806E-15   0.9913873936E-01  -0.4955786968E-01  -0.4955786968E-01  -0.1504946730E-15  -0.8418375126E-16  -0.1099216233E-16   0.5750000009E+01
   0.1099138739E+01   0.9504421304E+00  -0.2478043277E-16  -0.2250000000E-02   0.1122750000E-02   0.9834342069E-18   0.1013887392E+00  -0.5068061960E-01  -0.2576386698E-16   0.5750000008E+01  -0.2263768955E-13  -0.2260940005E-13   0.1074471818E-15  -0.6011495584E-16  -0.5492733090E-15   0.9913873934E-01  -0.4955786967E-01  -0.4955786967E-01  -0.1420881609E-15   0.1182477187E-15  -0.1045610125E-15   0.5750000008E+01
   0.0000000000E+00   0.9504421304E+00  -0.2136727199E-16   0.0000000000E+00   0.1122750000E-02   0.1389919565E-17   0.0000000000E+00  -0.5068061960E-01  -0.2275719156E-16   0.5750000008E+01  -0.1034183106E-12  -0.1000364549E-12   0.8258518283E-15   0.4873810858E-15   0.9727364236E-16   0.9913873935E-01  -0.4955786967E-01  -0.4955786967E-01   0.7460173541E-16  -0.1542952848E-16   0.1004068050E-15   0.5750000008E+01
   0.0000000000E+00   0.0000000000E+00   0.9504421304E+00   0.0000000000E+00   0.0000000000E+00   0.1122750000E-02   0.0000000000E+00   0.0000000000E+00  -0.5068061960E-01   0.5750000008E+01  -0.1283887147E-12  -0.1296854511E-12  -0.1502612980E-15  -0.1576213017E-15  -0.1171956246E-15   0.9913873935E-01  -0.4955786967E-01  -0.4955786967E-01   0.1148709866E-19  -0.4401811559E-16  -0.4385862593E-16   0.5750000008E+01
   0.1099138739E+01   0.0000000000E+00   0.9504421304E+00  -0.2250000000E-02   0.0000000000E+00   0.1122750000E-02   0.1013887392E+00   0.0000000000E+00  -0.5068061960E-01   0.5750000008E+01   0.3631458719E-14   0.4762000097E-14   0.6722486310E-15  -0.7452268957E-15   0.7353625718E-15   0.9913873934E-01  -0.4955786967E-01  -0.4955786967E-01   0.3326057084E-16  -0.1047926687E-15   0.6700981182E-16   0.5750000008E+01
   0.1099138739E+01   0.9504421304E+00   0.9504421304E+00  -0.2250000000E-02   0.1122750000E-02   0.1122750000E-02   0.1013887392E+00  -0.5068061960E-01  -0.5068061960E-01   0.5750000008E+01  -0.4299198933E-13  -0.4304604167E-13  -0.2436717628E-15  -0.3883920011E-15  -0.5172035406E-15   0.9913873933E-01  -0.4955786967E-01  -0.4955786967E-01  -0.2901652904E-16   0.7996126038E-16   0.3384483005E-16   0.5750000008E+01
   0.0000000000E+00   0.9504421304E+00   0.9504421304E+00   0.0000000000E+00   0.1122750000E-02   0.1122750000E-02   0.0000000000E+00  -0.5068061960E-01  -0.5068061960E-01   0.5750000008E+01   0.8769314164E-13   0.8720861103E-13  -0.7087189729E-15   0.6562197671E-15   0.8658679380E-15   0.9913873934E-01  -0.4955786967E-01  -0.4955786967E-01  -0.9329212179E-16   0.1186434005E-15  -0.1753789414E-16   0.5750000008E+01
   0.2198277478E+01   0.0000000000E+00  -0.1570386939E-16  -0.4500000000E-02   0.0000000000E+00   0.1588677242E-18   0.2027774784E+00   0.0000000000E+00  -0.1586273712E-16   0.5750000009E+01  -0.1941987696E-12  -0.1944790475E-12   0.1204339930E-14   0.1275016015E-14   0.1627878438E-14   0.9913873935E-01  -0.4955786968E-01  -0.4955786968E-01  -0.3569303082E-16   0.6431634770E-17   0.6714734966E-17   0.5750000009E+01
   0.2198277478E+01   0.9504421304E+00  -0.1455163502E-16  -0.4500000000E-02   0.1122750000E-02   0.6897031634E-19   0.2027774784E+00  -0.5068061960E-01  -0.1462060534E-16   0.5750000008E+01   0.1062584173E-12   0.1049453479E-12   0.1358446209E-14   0.2189922965E-14  -0.1073123241E-14   0.9913873934E-01  -0.4955786967E-01  -0.4955786967E-01  -0.1392044727E-15   0.4189762951E-15   0.3862354204E-16   0.5750000008E+01
   0.2198277478E+01   0.0000000000E+00   0.9504421304E+00  -0.4500000000E-02   0.0000000000E+00   0.1122750000E-02   0.2027774784E+00   0.0000000000E+00  -0.5068061960E-01   0.5750000008E+01   0.1917607225E-12   0.1959984816E-12  -0.1112838493E-14   0.1203242034E-14   0.1067809149E-15   0.9913873934E-01  -0.4955786967E-01  -0.4955786967E-01   0.6880915598E-16  -0.1500873338E-15   0.8475735884E-16   0.5750000008E+01
   0.2198277478E+01   0.9504421304E+00   0.9504421304E+00  -0.4500000000E-02   0.1122750000E-02   0.1122750000E-02   0.2027774784E+00  -0.5068061960E-01  -0.5068061960E-01   0.5750000007E+01  -0.4296918124E-13  -0.4464268198E-13  -0.8834301632E-15   0.1991038505E-15  -0.9133782256E-15   0.9913873933E-01  -0.4955786966E-01  -0.4955786966E-01   0.1857980310E-15   0.1682453998E-15   0.1074787824E-15   0.5750000007E+01
     1     2     3     4     5     6     7     8
     2     9    10     3     6    11    12     7
 VARIABLES = X,Y,Z,DU1,DU2,DU3,U1,U2,U3,S11,S22,S33,S12,S13,S23,E11,E22,E33,E12,E13,E23,SMISES
 ZONE, T="0.9350D+01" F=FEPOINT, I=   12 J=    2 ET=BRICK
   0.0000000000E+00   0.0000000000E+00   0.0000000000E+00   0.0000000000E+00   0.0000000000E+00   0.0000000000E+00   0.0000000000E+00   0.0000000000E+00   0.0000000000E+00   0.4625000007E+01  -0.8940506538E-13  -0.9110306564E-13   0.8578570319E-16   0.6438153494E-15  -0.4281891954E-15   0.9688873936E-01  -0.4843511968E-01  -0.4843511968E-01   0.1286048184E-16  -0.9313454516E-17  -0.3987820484E-16   0.4625000007E+01
   0.1096888739E+01   0.0000000000E+00  -0.1119057746E-16  -0.2250000000E-02   0.0000000000E+00   0.1014962198E-17   0.9913873920E-01   0.0000000000E+00  -0.1220553966E-16   0.4625000007E+01  -0.3340859488E-13  -0.3481124766E-13   0.1039217645E-15  -0.1466015964E-14  -0.1080847059E-15   0.9688873935E-01  -0.4843511968E-01  -0.4843511968E-01  -0.1441615101E-15  -0.1249661502E-15  -0.4048377809E-16   0.4625000007E+01
   0.1096888739E+01   0.9515648804E+00  -0.2545892856E-16  -0.2250000000E-02   0.1122750000E-02  -0.6784957941E-18   0.9913873920E-01  -0.4955786960E-01  -0.2478043277E-16   0.4625000007E+01   0.1242595124E-13   0.1323285560E-13   0.4711719808E-15  -0.4595668659E-15  -0.3467360041E-15   0.9688873934E-01  -0.4843511967E-01  -0.4843511967E-01  -0.1322731226E-15   0.1010071837E-15  -0.7445269457E-16   0.4625000007E+01
   0.0000000000E+00   0.9515648804E+00  -0.2350691097E-16   0.0000000000E+00   0.1122750000E-02  -0.2139638975E-17   0.0000000000E+00  -0.4955786960E-01  -0.2136727199E-16   0.4625000007E+01   0.4390329747E-13   0.4805905318E-13   0.9062691408E-15   0.6181795893E-15   0.1778476065E-15   0.9688873934E-01  -0.4843511967E-01  -0.4843511967E-01   0.7297356033E-16   0.1810242002E-16   0.2126360356E-16   0.4625000007E+01
   0.0000000000E+00   0.0000000000E+00   0.9515648804E+00   0.0000000000E+00   0.0000000000E+00   0.1122750000E-02   0.0000000000E+00   0.0000000000E+00  -0.4955786960E-01   0.4625000007E+01   0.3742721821E-13   0.3578579685E-13  -0.1490567618E-15  -0.1365735972E-15  -0.3354789748E-15   0.9688873934E-01  -0.4843511967E-01  -0.4843511967E-01  -0.1377928342E-16  -0.2896693610E-16  -0.5630750870E-16   0.4625000007E+01
   0.1096888739E+01   0.0000000000E+00   0.9515648804E+00  -0.2250000000E-02   0.0000000000E+00   0.1122750000E-02   0.9913873920E-01   0.0000000000E+00  -0.4955786960E-01   0.4625000007E+01  -0.3457518767E-13  -0.3389019426E-13   0.1422477802E-15  -0.3554003636E-15   0.5964079635E-15   0.9688873934E-01  -0.4843511967E-01  -0.4843511967E-01   0.4970538255E-16  -0.9701541113E-16   0.7579870750E-16   0.4625000007E+01
   0.1096888739E+01   0.9515648804E+00   0.9515648804E+00  -0.2250000000E-02   0.1122750000E-02   0.1122750000E-02   0.9913873920E-01  -0.4955786960E-01  -0.4955786960E-01   0.4625000006E+01   0.4480174111E-14   0.4198632860E-14  -0.7084979514E-15  -0.7727476054E-15  -0.1735871324E-15   0.9688873933E-01  -0.4843511966E-01  -0.4843511966E-01   0.1216411646E-16   0.1134197536E-15   0.2609485147E-16   0.4625000006E+01
   0.0000000000E+00   0.9515648804E+00   0.9515648804E+00   0.0000000000E+00   0.1122750000E-02   0.1122750000E-02   0.0000000000E+00  -0.4955786960E-01  -0.4955786960E-01   0.4625000006E+01  -0.1061783487E-13  -0.1160070242E-13  -0.7263952824E-15   0.8514660444E-15   0.1110956815E-14   0.9688873933E-01  -0.4843511967E-01  -0.4843511967E-01  -0.1087330423E-15   0.8950466354E-16   0.1109243455E-15   0.4625000006E+01
   0.2193777478E+01   0.0000000000E+00  -0.1046043889E-16  -0.4500000000E-02   0.0000000000E+00   0.5243430508E-17   0.1982774784E+00   0.0000000000E+00  -0.1570386939E-16   0.4625000007E+01   0.7067474983E-13   0.7027129773E-13   0.9195467959E-15   0.1181127796E-14   0.1350131633E-14   0.9688873935E-01  -0.4843511967E-01  -0.4843511967E-01  -0.3117569468E-16   0.1164261160E-15   0.8625836124E-17   0.4625000007E+01
   0.2193777478E+01   0.9515648804E+00  -0.1092553887E-16  -0.4500000000E-02   0.1122750000E-02   0.3626096153E-17   0.1982774784E+00  -0.4955786960E-01  -0.1455163502E-16   0.4625000006E+01  -0.8843974912E-13  -0.8930255564E-13   0.1141225642E-14   0.2216314273E-14  -0.9209860365E-15   0.9688873934E-01  -0.4843511967E-01  -0.4843511967E-01  -0.1245571331E-15   0.4113742140E-15   0.1745577496E-16   0.4625000006E+01
   0.2193777478E+01   0.0000000000E+00   0.9515648804E+00  -0.4500000000E-02   0.0000000000E+00   0.1122750000E-02   0.1982774784E+00   0.0000000000E+00  -0.4955786960E-01   0.4625000006E+01  -0.5872641369E-13  -0.5470199876E-13  -0.1256673312E-14   0.8650854315E-15  -0.6192329109E-16   0.9688873934E-01  -0.4843511967E-01  -0.4843511967E-01   0.8789932893E-16   0.6060944723E-16   0.6685436768E-16   0.4625000006E+01
   0.2193777478E+01   0.9515648804E+00   0.9515648804E+00  -0.4500000000E-02   0.1122750000E-02   0.1122750000E-02   0.1982774784E+00  -0.4955786960E-01  -0.4955786960E-01   0.4625000006E+01   0.3302610409E-13   0.3081907374E-13  -0.1128887269E-14  -0.5056929415E-16  -0.6802834668E-15   0.9688873933E-01  -0.4843511966E-01  -0.4843511966E-01   0.1865674933E-15   0.1339910568E-15   0.6741730286E-16   0.4625000006E+01
     1     2     3     4     5     6     7     8
     2     9    10     3     6    11    12     7
 VARIABLES = X,Y,Z,DU1,DU2,DU3,U1,U2,U3,S11,S22,S33,S12,S13,S23,E11,E22,E33,E12,E13,E23,SMISES
 ZONE, T="0.9400D+01" F=FEPOINT, I=   12 J=    2 ET=BRICK
   0.0000000000E+00   0.0000000000E+00   0.0000000000E+00   0.0000000000E+00   0.0000000000E+00   0.0000000000E+00   0.0000000000E+00   0.0000000000E+00   0.0000000000E+00   0.3500000005E+01   0.8553453754E-13   0.8384397436E-13   0.8889695129E-16   0.6904603519E-15  -0.2583294489E-15   0.9463873935E-01  -0.4731236968E-01  -0.4731236968E-01   0.7117058801E-17  -0.4819773982E-16  -0.6071304712E-16   0.3500000005E+01
   0.1094638739E+01   0.0000000000E+00  -0.1109302704E-16  -0.2250000000E-02   0.0000000000E+00   0.9755042095E-19   0.9688873920E-01   0.0000000000E+00  -0.1119057746E-16   0.3500000005E+01   0.3736661107E-13   0.3594908413E-13  -0.1460404554E-15  -0.1588931057E-14  -0.1420600035E-16   0.9463873935E-01  -0.4731236967E-01  -0.4731236967E-01  -0.1418548806E-15  -0.3593714022E-16  -0.3505750900E-17   0.3500000005E+01
   0.1094638739E+01   0.9526876304E+00  -0.2469740889E-16  -0.2250000000E-02   0.1122750000E-02   0.7615196737E-18   0.9688873920E-01  -0.4843511960E-01  -0.2545892856E-16   0.3500000005E+01  -0.2807611018E-13  -0.2747637624E-13   0.1682415655E-15  -0.3047378201E-15  -0.2580343735E-15   0.9463873934E-01  -0.4731236967E-01  -0.4731236967E-01  -0.1411455876E-15   0.1104899291E-15  -0.1041283393E-15   0.3500000005E+01
   0.0000000000E+00   0.9526876304E+00  -0.2253233443E-16   0.0000000000E+00   0.1122750000E-02   0.9745765335E-18   0.0000000000E+00  -0.4843511960E-01  -0.2350691097E-16   0.3500000005E+01  -0.4880934343E-13  -0.4455000252E-13   0.8373171428E-15   0.5808858660E-15   0.1146425559E-16   0.9463873934E-01  -0.4731236967E-01  -0.4731236967E-01   0.8564243359E-16  -0.3706719585E-17   0.8159589564E-16   0.3500000005E+01
   0.0000000000E+00   0.0000000000E+00   0.9526876304E+00   0.0000000000E+00   0.0000000000E+00   0.1122750000E-02   0.0000000000E+00   0.0000000000E+00  -0.4843511960E-01   0.3500000005E+01  -0.8457414610E-13  -0.8633947115E-13  -0.1533956514E-15  -0.3101040935E-16  -0.1849920434E-15   0.9463873934E-01  -0.4731236967E-01  -0.4731236967E-01  -0.9890541358E-17  -0.4373219156E-16  -0.4147216462E-16   0.3500000005E+01
   0.1094638739E+01   0.0000000000E+00   0.9526876304E+00  -0.2250000000E-02   0.0000000000E+00   0.1122750000E-02   0.9688873920E-01   0.0000000000E+00  -0.4843511960E-01   0.3500000005E+01   0.6298613752E-13   0.6391893833E-13   0.2619598139E-15  -0.5236924365E-15   0.5488108213E-15   0.9463873934E-01  -0.4731236967E-01  -0.4731236967E-01   0.3116469820E-16  -0.1098513944E-15   0.6494305453E-16   0.3500000005E+01
   0.1094638739E+01   0.9526876304E+00   0.9526876304E+00  -0.2250000000E-02   0.1122750000E-02   0.1122750000E-02   0.9688873920E-01  -0.4843511960E-01  -0.4843511960E-01   0.3500000005E+01  -0.9235768074E-14  -0.9461798185E-14  -0.6241324781E-15  -0.8202958574E-15  -0.3334415424E-15   0.9463873933E-01  -0.4731236966E-01  -0.4731236966E-01   0.2883955081E-16   0.1235763106E-15   0.4118109402E-16   0.3500000005E+01
   0.0000000000E+00   0.9526876304E+00   0.9526876304E+00   0.0000000000E+00   0.1122750000E-02   0.1122750000E-02   0.0000000000E+00  -0.4843511960E-01  -0.4843511960E-01   0.3500000005E+01  -0.7553126105E-13  -0.7654188417E-13  -0.5775868925E-15   0.7553222550E-15   0.8803135760E-15   0.9463873933E-01  -0.4731236966E-01  -0.4731236966E-01  -0.1246065528E-15   0.9837982726E-16   0.1835188072E-16   0.3500000005E+01
   0.2189277478E+01   0.0000000000E+00  -0.1133214117E-16  -0.4500000000E-02   0.0000000000E+00  -0.8717022871E-18   0.1937774784E+00   0.0000000000E+00  -0.1046043889E-16   0.3500000005E+01  -0.3708698022E-13  -0.3738684713E-13   0.8585092372E-15   0.1087220362E-14   0.1398297098E-14   0.9463873935E-01  -0.4731236967E-01  -0.4731236967E-01  -0.1200946333E-15  -0.9730994890E-17   0.5889603034E-17   0.3500000005E+01
   0.2189277478E+01   0.9526876304E+00  -0.1141626276E-16  -0.4500000000E-02   0.1122750000E-02  -0.4907238875E-18   0.1937774784E+00  -0.4843511960E-01  -0.1092553887E-16   0.3500000005E+01   0.1209899026E-13   0.1085902831E-13   0.1097892678E-14   0.2445547010E-14  -0.9170831307E-15   0.9463873934E-01  -0.4731236967E-01  -0.4731236967E-01  -0.1796945868E-15   0.4179102043E-15   0.3605487996E-16   0.3500000005E+01
   0.2189277478E+01   0.0000000000E+00   0.9526876304E+00  -0.4500000000E-02   0.0000000000E+00   0.1122750000E-02   0.1937774784E+00   0.0000000000E+00  -0.4843511960E-01   0.3500000005E+01   0.7611139996E-13   0.8022997025E-13  -0.1223979692E-14   0.6979217156E-15  -0.9597348490E-16   0.9463873934E-01  -0.4731236967E-01  -0.4731236967E-01   0.1479187908E-15   0.2408350187E-16   0.2661528228E-16   0.3500000005E+01
   0.2189277478E+01   0.9526876304E+00   0.9526876304E+00  -0.4500000000E-02   0.1122750000E-02   0.1122750000E-02   0.1937774784E+00  -0.4843511960E-01  -0.4843511960E-01   0.3500000004E+01   0.5142420526E-13   0.4883058965E-13  -0.1127543328E-14  -0.6741618805E-16  -0.7165172647E-15   0.9463873932E-01  -0.4731236966E-01  -0.4731236966E-01   0.2526749448E-15   0.7975607585E-17   0.1036951151E-15   0.3500000004E+01
     1     2     3     4     5     6     7     8
     2     9    10     3     6    11    12     7
 VARIABLES = X,Y,Z,DU1,DU2,DU3,U1,U2,U3,S11,S22,S33,S12,S13,S23,E11,E22,E33,E12,E13,E23,SMISES
 ZONE, T="0.9450D+01" F=FEPOINT, I=   12 J=    2 ET=BRICK
   0.0000000000E+00   0.0000000000E+00   0.0000000000E+00   0.0000000000E+00   0.0000000000E+00   0.0000000000E+00   0.0000000000E+00   0.0000000000E+00   0.0000000000E+00   0.2375000004E+01  -0.6141844611E-13  -0.6289539818E-13   0.1103966363E-15   0.7336698908E-15  -0.3802366800E-15   0.9238873935E-01  -0.4618961967E-01  -0.4618961967E-01   0.1981287036E-16  -0.8781457870E-17  -0.4152100842E-16   0.2375000004E+01
   0.1092388739E+01   0.0000000000E+00  -0.1050741719E-16  -0.2250000000E-02   0.0000000000E+00   0.5856098523E-18   0.9463873920E-01   0.0000000000E+00  -0.1109302704E-16   0.2375000004E+01  -0.8856982358E-14  -0.1037809449E-13   0.1193111896E-15  -0.1215403543E-14  -0.1841963220E-15   0.9238873935E-01  -0.4618961967E-01  -0.4618961967E-01  -0.1534803515E-15  -0.1364291095E-15  -0.2363923425E-16   0.2375000004E+01
   0.1092388739E+01   0.9538103804E+00  -0.2508830010E-16  -0.2250000000E-02   0.1122750000E-02  -0.3908912073E-18   0.9463873920E-01  -0.4731236960E-01  -0.2469740889E-16   0.2375000003E+01   0.5946819436E-13   0.6048027638E-13   0.4843449184E-15  -0.4433047461E-15  -0.2285834242E-15   0.9238873933E-01  -0.4618961967E-01  -0.4618961967E-01  -0.1530900573E-15   0.1696042970E-15  -0.1264205915E-15   0.2375000003E+01
   0.0000000000E+00   0.9538103804E+00  -0.2335610876E-16   0.0000000000E+00   0.1122750000E-02  -0.8237743234E-18   0.0000000000E+00  -0.4731236960E-01  -0.2253233443E-16   0.2375000003E+01   0.6027289080E-13   0.6485958731E-13   0.9364791795E-15   0.6138919592E-15   0.8696806235E-16   0.9238873934E-01  -0.4618961967E-01  -0.4618961967E-01   0.9226298225E-16  -0.1980590749E-16   0.6190973623E-16   0.2375000003E+01
   0.0000000000E+00   0.0000000000E+00   0.9538103804E+00   0.0000000000E+00   0.0000000000E+00   0.1122750000E-02   0.0000000000E+00   0.0000000000E+00  -0.4731236960E-01   0.2375000003E+01   0.2113963320E-13   0.1917284904E-13  -0.1497020167E-15  -0.1515725688E-15  -0.3566119554E-15   0.9238873934E-01  -0.4618961967E-01  -0.4618961967E-01  -0.3426418336E-16  -0.2153614258E-16  -0.5182106445E-16   0.2375000003E+01
   0.1092388739E+01   0.0000000000E+00   0.9538103804E+00  -0.2250000000E-02   0.0000000000E+00   0.1122750000E-02   0.9463873920E-01   0.0000000000E+00  -0.4731236960E-01   0.2375000003E+01  -0.1452078988E-13  -0.1384867789E-13   0.2455845100E-15  -0.4004150315E-15   0.5513053561E-15   0.9238873933E-01  -0.4618961967E-01  -0.4618961967E-01   0.7593323921E-16  -0.1294254403E-15   0.4078563381E-16   0.2375000003E+01
   0.1092388739E+01   0.9538103804E+00   0.9538103804E+00  -0.2250000000E-02   0.1122750000E-02   0.1122750000E-02   0.9463873920E-01  -0.4731236960E-01  -0.4731236960E-01   0.2375000003E+01  -0.6081117108E-13  -0.6107040109E-13  -0.6375245339E-15  -0.7853863603E-15  -0.1441531149E-15   0.9238873932E-01  -0.4618961966E-01  -0.4618961966E-01  -0.8799200238E-17   0.9782733358E-16   0.7013234352E-16   0.2375000003E+01
   0.0000000000E+00   0.9538103804E+00   0.9538103804E+00   0.0000000000E+00   0.1122750000E-02   0.1122750000E-02   0.0000000000E+00  -0.4731236960E-01  -0.4731236960E-01   0.2375000003E+01   0.1521287230E-13   0.1415317874E-13  -0.6747411140E-15   0.8810214812E-15   0.1051509971E-14   0.9238873933E-01  -0.4618961966E-01  -0.4618961966E-01  -0.1057439549E-15   0.9872636594E-16   0.2009450230E-16   0.2375000003E+01
   0.2184777478E+01   0.0000000000E+00  -0.9455760385E-17  -0.4500000000E-02   0.0000000000E+00   0.1876380788E-17   0.1892774784E+00   0.0000000000E+00  -0.1133214117E-16   0.2375000004E+01   0.3671341318E-13   0.3671042410E-13   0.9333331580E-15   0.5199235087E-15   0.1216218299E-14   0.9238873934E-01  -0.4618961967E-01  -0.4618961967E-01  -0.7145253807E-16   0.3572377128E-16  -0.6493292113E-17   0.2375000004E+01
   0.2184777478E+01   0.9538103804E+00  -0.1050338154E-16  -0.4500000000E-02   0.1122750000E-02   0.9128812161E-18   0.1892774784E+00  -0.4731236960E-01  -0.1141626276E-16   0.2375000003E+01  -0.6431595444E-13  -0.6525087204E-13   0.1145640481E-14   0.2479022328E-14  -0.8438672167E-15   0.9238873933E-01  -0.4618961967E-01  -0.4618961967E-01  -0.1334791186E-15   0.2255223110E-15   0.6891251809E-16   0.2375000003E+01
   0.2184777478E+01   0.0000000000E+00   0.9538103804E+00  -0.4500000000E-02   0.0000000000E+00   0.1122750000E-02   0.1892774784E+00   0.0000000000E+00  -0.4731236960E-01   0.2375000003E+01   0.5299173125E-13   0.5659808681E-13  -0.1279581694E-14   0.6848053532E-15  -0.7367473824E-16   0.9238873933E-01  -0.4618961967E-01  -0.4618961967E-01   0.7151551564E-16   0.7959044273E-17   0.6143502795E-16   0.2375000003E+01
   0.2184777478E+01   0.9538103804E+00   0.9538103804E+00  -0.4500000000E-02   0.1122750000E-02   0.1122750000E-02   0.1892774784E+00  -0.4731236960E-01  -0.4731236960E-01   0.2375000003E+01  -0.6888623963E-13  -0.7144565897E-13  -0.1062721347E-14  -0.3451787968E-15  -0.5861574500E-15   0.9238873932E-01  -0.4618961966E-01  -0.4618961966E-01   0.1816900969E-15  -0.3123280539E-16   0.2501551143E-16   0.2375000003E+01
     1     2     3     4     5     6     7     8
     2     9    10     3     6    11    12     7
 VARIABLES = X,Y,Z,DU1,DU2,DU3,U1,U2,U3,S11,S22,S33,S12,S13,S23,E11,E22,E33,E12,E13,E23,SMISES
 ZONE, T="0.9500D+01" F=FEPOINT, I=   12 J=    2 ET=BRICK
   0.0000000000E+00   0.0000000000E+00   0.0000000000E+00   0.0000000000E+00   0.0000000000E+00   0.0000000000E+00   0.0000000000E+00   0.0000000000E+00   0.0000000000E+00   0.1250000002E+01   0.8966785700E-14   0.7375955699E-14   0.7762813922E-16   0.6276982476E-15  -0.3319609260E-15   0.9013873934E-01  -0.4506686967E-01  -0.4506686967E-01   0.2233703615E-17  -0.4180751033E-16  -0.2798138973E-16   0.1250000002E+01
   0.1090138739E+01   0.0000000000E+00  -0.1106447282E-16  -0.2250000000E-02   0.0000000000E+00  -0.5570556315E-18   0.9238873920E-01   0.0000000000E+00  -0.1050741719E-16   0.1250000002E+01  -0.2631456715E-13  -0.2773109770E-13  -0.1037667283E-15  -0.1347396926E-14  -0.1011938176E-15   0.9013873934E-01  -0.4506686967E-01  -0.4506686967E-01  -0.1369321967E-15  -0.3920313146E-16  -0.3786768631E-16   0.1250000002E+01
   0.1090138739E+01   0.9549331304E+00  -0.2511727110E-16  -0.2250000000E-02   0.1122750000E-02  -0.2897099950E-19   0.9238873920E-01  -0.4618961960E-01  -0.2508830010E-16   0.1250000002E+01   0.5968417209E-14   0.6936143697E-14   0.2015481074E-15  -0.2132365398E-15  -0.5398549826E-16   0.9013873933E-01  -0.4506686967E-01  -0.4506686967E-01  -0.1759238847E-15   0.1025534359E-15  -0.5718304411E-16   0.1250000002E+01
   0.0000000000E+00   0.9549331304E+00  -0.2322737367E-16   0.0000000000E+00   0.1122750000E-02   0.1287350843E-18   0.0000000000E+00  -0.4618961960E-01  -0.2335610876E-16   0.1250000002E+01  -0.3358466765E-13  -0.2908718037E-13   0.7800106862E-15   0.6410955273E-15  -0.8754132810E-16   0.9013873933E-01  -0.4506686967E-01  -0.4506686967E-01   0.8719155335E-16  -0.2712042824E-17   0.6284418651E-16   0.1250000002E+01
   0.0000000000E+00   0.0000000000E+00   0.9549331304E+00   0.0000000000E+00   0.0000000000E+00   0.1122750000E-02   0.0000000000E+00   0.0000000000E+00  -0.4618961960E-01   0.1250000002E+01  -0.8526634104E-14  -0.1046244234E-13  -0.1259515728E-15  -0.2253679615E-15  -0.3239357577E-15   0.9013873933E-01  -0.4506686967E-01  -0.4506686967E-01  -0.5930473813E-17  -0.4295382320E-16  -0.6165386348E-16   0.1250000002E+01
   0.1090138739E+01   0.0000000000E+00   0.9549331304E+00  -0.2250000000E-02   0.0000000000E+00   0.1122750000E-02   0.9238873920E-01   0.0000000000E+00  -0.4618961960E-01   0.1250000002E+01  -0.4339367495E-13  -0.4265688895E-13   0.3408030057E-15  -0.5599285937E-15   0.5497815620E-15   0.9013873933E-01  -0.4506686967E-01  -0.4506686967E-01   0.4026591582E-16  -0.1252444054E-15   0.9867844388E-16   0.1250000002E+01
   0.1090138739E+01   0.9549331304E+00   0.9549331304E+00  -0.2250000000E-02   0.1122750000E-02   0.1122750000E-02   0.9238873920E-01  -0.4618961960E-01  -0.4618961960E-01   0.1250000002E+01   0.3687133362E-13   0.3638361834E-13  -0.5089293301E-15  -0.5686789416E-15  -0.7402096140E-16   0.9013873932E-01  -0.4506686966E-01  -0.4506686966E-01   0.1544305103E-16   0.1287305256E-15   0.2115362010E-16   0.1250000002E+01
   0.0000000000E+00   0.9549331304E+00   0.9549331304E+00   0.0000000000E+00   0.1122750000E-02   0.1122750000E-02   0.0000000000E+00  -0.4618961960E-01  -0.4618961960E-01   0.1250000002E+01   0.6499500919E-13   0.6401028236E-13  -0.5540615433E-15   0.8143659776E-15   0.1002020444E-14   0.9013873932E-01  -0.4506686966E-01  -0.4506686966E-01  -0.1123324204E-15   0.1137953949E-15   0.2538934306E-16   0.1250000002E+01
   0.2180277478E+01   0.0000000000E+00  -0.1030720237E-16  -0.4500000000E-02   0.0000000000E+00  -0.8514419836E-18   0.1847774784E+00   0.0000000000E+00  -0.9455760385E-17   0.1250000002E+01  -0.2569950921E-13  -0.2585329467E-13   0.7937096716E-15   0.2784132893E-15   0.1130544937E-14   0.9013873934E-01  -0.4506686967E-01  -0.4506686967E-01  -0.2790364582E-16   0.6022165305E-16   0.3587280956E-17   0.1250000002E+01
   0.2180277478E+01   0.9549331304E+00  -0.1194461201E-16  -0.4500000000E-02   0.1122750000E-02  -0.1441230464E-17   0.1847774784E+00  -0.4618961960E-01  -0.1050338154E-16   0.1250000002E+01   0.1284211331E-12   0.1272240322E-12   0.1201519574E-14   0.2778751845E-14  -0.1252841915E-14   0.9013873933E-01  -0.4506686966E-01  -0.4506686966E-01  -0.1219388859E-15   0.2802398142E-15   0.5609800331E-16   0.1250000002E+01
   0.2180277478E+01   0.0000000000E+00   0.9549331304E+00  -0.4500000000E-02   0.0000000000E+00   0.1122750000E-02   0.1847774784E+00   0.0000000000E+00  -0.4618961960E-01   0.1250000002E+01  -0.1492379731E-12  -0.1454628601E-12  -0.6337731225E-15   0.5499222496E-15  -0.1153758566E-15   0.9013873933E-01  -0.4506686966E-01  -0.4506686966E-01   0.1103403083E-15   0.8488468344E-17   0.2789254785E-16   0.1250000002E+01
   0.2180277478E+01   0.9549331304E+00   0.9549331304E+00  -0.4500000000E-02   0.1122750000E-02   0.1122750000E-02   0.1847774784E+00  -0.4618961960E-01  -0.4618961960E-01   0.1250000002E+01   0.6496114716E-13   0.6272822049E-13  -0.8078815421E-15   0.4105122591E-17  -0.8145696580E-15   0.9013873932E-01  -0.4506686966E-01  -0.4506686966E-01   0.2127635872E-15  -0.1484351187E-16   0.9213016055E-16   0.1250000002E+01
     1     2     3     4     5     6     7     8
     2     9    10     3     6    11    12     7
 VARIABLES = X,Y,Z,DU1,DU2,DU3,U1,U2,U3,S11,S22,S33,S12,S13,S23,E11,E22,E33,E12,E13,E23,SMISES
 ZONE, T="0.9550D+01" F=FEPOINT, I=   12 J=    2 ET=BRICK
   0.0000000000E+00   0.0000000000E+00   0.0000000000E+00   0.0000000000E+00   0.0000000000E+00   0.0000000000E+00   0.0000000000E+00   0.0000000000E+00   0.0000000000E+00   0.1250000002E+00  -0.7863755759E-14  -0.9412487590E-14   0.7119444815E-16   0.7140389863E-15  -0.1826769215E-15   0.8788873934E-01  -0.4394411967E-01  -0.4394411967E-01   0.8230991380E-17  -0.3060201087E-16  -0.5060621222E-16   0.1250000002E+00
   0.1087888739E+01   0.0000000000E+00  -0.1055926048E-16  -0.2250000000E-02   0.0000000000E+00   0.5052123440E-18   0.9013873920E-01   0.0000000000E+00  -0.1106447282E-16   0.1250000002E+00  -0.2385599504E-13  -0.2517043495E-13   0.3395630799E-17  -0.1314586219E-14  -0.1669251748E-15   0.8788873934E-01  -0.4394411967E-01  -0.4394411967E-01  -0.1441984046E-15  -0.4195706061E-16  -0.4404697336E-16   0.1250000002E+00
   0.1087888739E+01   0.9560558804E+00  -0.2495857253E-16  -0.2250000000E-02   0.1122750000E-02   0.1586985641E-18   0.9013873920E-01  -0.4506686960E-01  -0.2511727110E-16   0.1250000002E+00   0.3441953667E-13   0.3552132610E-13   0.2594415640E-15  -0.2892074695E-15  -0.4339316143E-16   0.8788873933E-01  -0.4394411966E-01  -0.4394411966E-01  -0.1392779638E-15   0.1239452825E-15  -0.4948145856E-16   0.1250000002E+00
   0.0000000000E+00   0.9560558804E+00  -0.2237092426E-16   0.0000000000E+00   0.1122750000E-02   0.8564494139E-18   0.0000000000E+00  -0.4506686960E-01  -0.2322737367E-16   0.1250000002E+00  -0.1917219380E-13  -0.1498527086E-13   0.7298214694E-15   0.4694311121E-15  -0.6192700431E-17   0.8788873933E-01  -0.4394411967E-01  -0.4394411967E-01   0.5317787862E-16  -0.1370903153E-16   0.7907670123E-16   0.1250000002E+00
   0.0000000000E+00   0.0000000000E+00   0.9560558804E+00   0.0000000000E+00   0.0000000000E+00   0.1122750000E-02   0.0000000000E+00   0.0000000000E+00  -0.4506686960E-01   0.1250000002E+00  -0.3453208447E-13  -0.3640073669E-13  -0.1695126398E-15  -0.1906923848E-15  -0.4029485116E-15   0.8788873933E-01  -0.4394411967E-01  -0.4394411967E-01  -0.4383333796E-17  -0.5197306457E-16  -0.2783953174E-16   0.1250000002E+00
   0.1087888739E+01   0.0000000000E+00   0.9560558804E+00  -0.2250000000E-02   0.0000000000E+00   0.1122750000E-02   0.9013873920E-01   0.0000000000E+00  -0.4506686960E-01   0.1250000002E+00   0.4604467037E-13   0.4683343132E-13   0.3927077833E-15  -0.4636501651E-15   0.5400146387E-15   0.8788873933E-01  -0.4394411966E-01  -0.4394411966E-01   0.2266903539E-16  -0.1772390750E-15   0.1061058922E-15   0.1250000002E+00
   0.1087888739E+01   0.9560558804E+00   0.9560558804E+00  -0.2250000000E-02   0.1122750000E-02   0.1122750000E-02   0.9013873920E-01  -0.4506686960E-01  -0.4506686960E-01   0.1250000002E+00  -0.6433694814E-13  -0.6471228005E-13  -0.4302342578E-15  -0.5688490684E-15  -0.1085429280E-15   0.8788873932E-01  -0.4394411966E-01  -0.4394411966E-01   0.2358103531E-17   0.1959012202E-15   0.6666408707E-17   0.1250000002E+00
   0.0000000000E+00   0.9560558804E+00   0.9560558804E+00   0.0000000000E+00   0.1122750000E-02   0.1122750000E-02   0.0000000000E+00  -0.4506686960E-01  -0.4506686960E-01   0.1250000002E+00   0.1617193096E-13   0.1488747959E-13  -0.5688864663E-15   0.8745178755E-15   0.9183831259E-15   0.8788873932E-01  -0.4394411966E-01  -0.4394411966E-01  -0.7855671819E-16   0.7369215202E-16  -0.1609996917E-16   0.1250000002E+00
   0.2175777478E+01   0.0000000000E+00  -0.9529254432E-17  -0.4500000000E-02   0.0000000000E+00   0.7779479372E-18   0.1802774784E+00   0.0000000000E+00  -0.1030720237E-16   0.1250000002E+00  -0.5517702816E-13  -0.5529236724E-13   0.4574735674E-15   0.3659275779E-15   0.1148639471E-14   0.8788873934E-01  -0.4394411967E-01  -0.4394411967E-01  -0.1174335316E-15   0.1489260998E-15  -0.3208730089E-17   0.1250000002E+00
   0.2175777478E+01   0.9560558804E+00  -0.1114591872E-16  -0.4500000000E-02   0.1122750000E-02   0.7986932829E-18   0.1802774784E+00  -0.4506686960E-01  -0.1194461201E-16   0.1250000002E+00   0.1145978145E-13   0.1031663925E-13   0.8647849369E-15   0.2999112478E-14  -0.1189218824E-14   0.8788873933E-01  -0.4394411966E-01  -0.4394411966E-01  -0.1727188210E-15   0.3032895120E-15   0.5305334098E-16   0.1250000002E+00
   0.2175777478E+01   0.0000000000E+00   0.9560558804E+00  -0.4500000000E-02   0.0000000000E+00   0.1122750000E-02   0.1802774784E+00   0.0000000000E+00  -0.4506686960E-01   0.1250000002E+00   0.5885457789E-13   0.6234992010E-13  -0.1241723925E-14   0.5507950304E-15  -0.9937142809E-16   0.8788873933E-01  -0.4394411966E-01  -0.4394411966E-01   0.1529541962E-15   0.1793316723E-16   0.4667940629E-16   0.1250000002E+00
   0.2175777478E+01   0.9560558804E+00   0.9560558804E+00  -0.4500000000E-02   0.1122750000E-02   0.1122750000E-02   0.1802774784E+00  -0.4506686960E-01  -0.4506686960E-01   0.1250000002E+00  -0.1936478403E-12  -0.1961460461E-12  -0.1336818847E-14  -0.1974001701E-15  -0.6073959839E-15   0.8788873932E-01  -0.4394411966E-01  -0.4394411966E-01   0.2187196430E-15  -0.1176908328E-15   0.1173800089E-15   0.1250000002E+00
     1     2     3     4     5     6     7     8
     2     9    10     3     6    11    12     7
 VARIABLES = X,Y,Z,DU1,DU2,DU3,U1,U2,U3,S11,S22,S33,S12,S13,S23,E11,E22,E33,E12,E13,E23,SMISES
 ZONE, T="0.9600D+01" F=FEPOINT, I=   12 J=    2 ET=BRICK
   0.0000000000E+00   0.0000000000E+00   0.0000000000E+00   0.0000000000E+00   0.0000000000E+00   0.0000000000E+00   0.0000000000E+00   0.0000000000E+00   0.0000000000E+00  -0.1000000002E+01  -0.7380776327E-14  -0.8568105295E-14   0.6783185475E-16   0.6999205103E-15  -0.1116147142E-15   0.8563873934E-01  -0.4282136967E-01  -0.4282136967E-01   0.1478703829E-17  -0.3686464848E-16  -0.3355183376E-16   0.1000000002E+01
   0.1085638739E+01   0.0000000000E+00  -0.1059187882E-16  -0.2250000000E-02   0.0000000000E+00  -0.3261833901E-19   0.8788873920E-01   0.0000000000E+00  -0.1055926048E-16  -0.1000000002E+01   0.3286059911E-13   0.3143799258E-13  -0.4697549285E-16  -0.1312295062E-14  -0.6857809482E-16   0.8563873933E-01  -0.4282136967E-01  -0.4282136967E-01  -0.1429033103E-15  -0.7208535317E-16  -0.2823492424E-16   0.1000000002E+01
   0.1085638739E+01   0.9571786304E+00  -0.2448141763E-16  -0.2250000000E-02   0.1122750000E-02   0.4771549024E-18   0.8788873920E-01  -0.4394411960E-01  -0.2495857253E-16  -0.1000000001E+01  -0.3839880178E-13  -0.3721610310E-13   0.1734241234E-15  -0.3448137164E-15  -0.5623206822E-17   0.8563873933E-01  -0.4282136966E-01  -0.4282136966E-01  -0.1260775827E-15   0.9046549575E-16  -0.2805702179E-16   0.1000000001E+01
   0.0000000000E+00   0.9571786304E+00  -0.2188359391E-16   0.0000000000E+00   0.1122750000E-02   0.4873303523E-18   0.0000000000E+00  -0.4394411960E-01  -0.2237092426E-16  -0.1000000001E+01  -0.2797942471E-13  -0.2398517165E-13   0.6823476605E-15   0.5396538079E-15   0.5548696252E-16   0.8563873933E-01  -0.4282136966E-01  -0.4282136966E-01   0.5965109021E-16   0.2375887228E-16   0.2271410263E-17   0.1000000001E+01
   0.0000000000E+00   0.0000000000E+00   0.9571786304E+00   0.0000000000E+00   0.0000000000E+00   0.1122750000E-02   0.0000000000E+00   0.0000000000E+00  -0.4394411960E-01  -0.1000000001E+01   0.8902072123E-13   0.8726822874E-13  -0.1928578622E-15  -0.3606335417E-15  -0.4227740726E-15   0.8563873933E-01  -0.4282136966E-01  -0.4282136966E-01   0.2418464778E-17  -0.7441887200E-16  -0.6590956635E-16   0.1000000001E+01
   0.1085638739E+01   0.0000000000E+00   0.9571786304E+00  -0.2250000000E-02   0.0000000000E+00   0.1122750000E-02   0.8788873920E-01   0.0000000000E+00  -0.4394411960E-01  -0.1000000001E+01   0.2425699843E-13   0.2509501217E-13   0.5565267599E-15  -0.6102964785E-15   0.6780709350E-15   0.8563873933E-01  -0.4282136966E-01  -0.4282136966E-01   0.2067205314E-16  -0.1010835671E-15   0.7076514954E-16   0.1000000001E+01
   0.1085638739E+01   0.9571786304E+00   0.9571786304E+00  -0.2250000000E-02   0.1122750000E-02   0.1122750000E-02   0.8788873920E-01  -0.4394411960E-01  -0.4394411960E-01  -0.1000000001E+01   0.5490597502E-13   0.5456583577E-13  -0.3128169926E-15  -0.5340532083E-15  -0.4432090944E-18   0.8563873932E-01  -0.4282136966E-01  -0.4282136966E-01   0.3266479002E-16   0.5686542036E-16   0.6844886906E-16   0.1000000001E+01
   0.0000000000E+00   0.9571786304E+00   0.9571786304E+00   0.0000000000E+00   0.1122750000E-02   0.1122750000E-02   0.0000000000E+00  -0.4394411960E-01  -0.4394411960E-01  -0.1000000001E+01  -0.4746663760E-14  -0.5973437823E-14  -0.6009264048E-15   0.9594629373E-15   0.8760308863E-15   0.8563873932E-01  -0.4282136966E-01  -0.4282136966E-01  -0.1094099436E-15   0.1467720293E-15   0.1875465555E-16   0.1000000001E+01
   0.2171277478E+01   0.0000000000E+00  -0.9573207342E-17  -0.4500000000E-02   0.0000000000E+00  -0.4395291009E-19   0.1757774784E+00   0.0000000000E+00  -0.9529254432E-17  -0.1000000002E+01   0.8916554426E-13   0.8895148386E-13  -0.5196189954E-16  -0.2150232714E-15   0.8715528685E-15   0.8563873933E-01  -0.4282136967E-01  -0.4282136967E-01  -0.6062053766E-16  -0.3488812447E-16  -0.4374277669E-17   0.1000000002E+01
   0.2171277478E+01   0.9571786304E+00  -0.1270923901E-16  -0.4500000000E-02   0.1122750000E-02  -0.1563320288E-17   0.1757774784E+00  -0.4394411960E-01  -0.1114591872E-16  -0.1000000001E+01  -0.1483489710E-12  -0.1492730488E-12   0.4145207158E-15   0.3314845362E-14  -0.1385756349E-14   0.8563873932E-01  -0.4282136966E-01  -0.4282136966E-01  -0.1232812129E-15   0.4966168354E-15   0.1530247143E-16   0.1000000001E+01
   0.2171277478E+01   0.0000000000E+00   0.9571786304E+00  -0.4500000000E-02   0.0000000000E+00   0.1122750000E-02   0.1757774784E+00   0.0000000000E+00  -0.4394411960E-01  -0.1000000001E+01  -0.2279798248E-13  -0.1949735178E-13  -0.6191655064E-15   0.2324022776E-15  -0.2262933748E-15   0.8563873932E-01  -0.4282136966E-01  -0.4282136966E-01   0.1519902241E-15  -0.5485461059E-16   0.9109809476E-16   0.1000000001E+01
   0.2171277478E+01   0.9571786304E+00   0.9571786304E+00  -0.4500000000E-02   0.1122750000E-02   0.1122750000E-02   0.1757774784E+00  -0.4394411960E-01  -0.4394411960E-01  -0.1000000001E+01   0.9714896427E-13   0.9480941439E-13  -0.7355975458E-15   0.8995550519E-16  -0.7086035548E-15   0.8563873931E-01  -0.4282136966E-01  -0.4282136966E-01   0.1392442639E-15   0.1495587742E-15   0.9074757103E-16   0.1000000001E+01
     1     2     3     4     5     6     7     8
     2     9    10     3     6    11    12     7
 VARIABLES = X,Y,Z,DU1,DU2,DU3,U1,U2,U3,S11,S22,S33,S12,S13,S23,E11,E22,E33,E12,E13,E23,SMISES
 ZONE, T="0.9650D+01" F=FEPOINT, I=   12 J=    2 ET=BRICK
   0.0000000000E+00   0.0000000000E+00   0.0000000000E+00   0.0000000000E+00   0.0000000000E+00   0.0000000000E+00   0.0000000000E+00   0.0000000000E+00   0.0000000000E+00  -0.2125000003E+01   0.4563676340E-13   0.4417541491E-13   0.8924350513E-16   0.7254890570E-15  -0.1500569934E-15   0.8338873933E-01  -0.4169861967E-01  -0.4169861967E-01  -0.5416383374E-18  -0.2983342803E-16  -0.3793454445E-16   0.2125000003E+01
   0.1083388739E+01   0.0000000000E+00  -0.1050341794E-16  -0.2250000000E-02   0.0000000000E+00   0.8846087072E-19   0.8563873920E-01   0.0000000000E+00  -0.1059187882E-16  -0.2125000003E+01  -0.4695099640E-13  -0.4847755286E-13  -0.2446074275E-15  -0.1526078901E-14  -0.1118263984E-15   0.8338873933E-01  -0.4169861967E-01  -0.4169861967E-01  -0.1420918160E-15  -0.8836615592E-16  -0.2251048638E-16   0.2125000003E+01
   0.1083388739E+01   0.9583013804E+00  -0.2456475897E-16  -0.2250000000E-02   0.1122750000E-02  -0.8334134399E-19   0.8563873920E-01  -0.4282136960E-01  -0.2448141763E-16  -0.2125000003E+01   0.2987843940E-13   0.3084988442E-13  -0.4007854972E-16  -0.1749814245E-15   0.3807201503E-16   0.8338873932E-01  -0.4169861966E-01  -0.4169861966E-01  -0.1655412352E-15   0.1228111988E-15  -0.5965894500E-16   0.2125000003E+01
   0.0000000000E+00   0.9583013804E+00  -0.2215295552E-16   0.0000000000E+00   0.1122750000E-02  -0.2693616098E-18   0.0000000000E+00  -0.4282136960E-01  -0.2188359391E-16  -0.2125000003E+01   0.2754007449E-13   0.3181057104E-13   0.6091061870E-15   0.5207092495E-15  -0.2431629078E-15   0.8338873932E-01  -0.4169861966E-01  -0.4169861966E-01   0.4799985874E-16  -0.1032887358E-16   0.5415003079E-17   0.2125000003E+01
   0.0000000000E+00   0.0000000000E+00   0.9583013804E+00   0.0000000000E+00   0.0000000000E+00   0.1122750000E-02   0.0000000000E+00   0.0000000000E+00  -0.4282136960E-01  -0.2125000003E+01  -0.5317057102E-13  -0.5484618865E-13  -0.1828442274E-15  -0.2961832006E-15  -0.1878985129E-15   0.8338873932E-01  -0.4169861966E-01  -0.4169861966E-01  -0.1076400398E-17  -0.7913043650E-16  -0.6537577711E-16   0.2125000003E+01
   0.1083388739E+01   0.0000000000E+00   0.9583013804E+00  -0.2250000000E-02   0.0000000000E+00   0.1122750000E-02   0.8563873920E-01   0.0000000000E+00  -0.4282136960E-01  -0.2125000003E+01  -0.1536757891E-13  -0.1467514844E-13   0.6714761295E-15  -0.5470701700E-15   0.5942677884E-15   0.8338873932E-01  -0.4169861966E-01  -0.4169861966E-01   0.2844886828E-16  -0.1290450221E-15   0.1069323622E-15   0.2125000003E+01
   0.1083388739E+01   0.9583013804E+00   0.9583013804E+00  -0.2250000000E-02   0.1122750000E-02   0.1122750000E-02   0.8563873920E-01  -0.4282136960E-01  -0.4282136960E-01  -0.2125000003E+01   0.8031299418E-15   0.2405814129E-15  -0.9372084934E-16  -0.4306418341E-15  -0.6040458067E-16   0.8338873931E-01  -0.4169861966E-01  -0.4169861966E-01   0.9620622609E-17   0.3841419190E-16   0.6071665369E-16   0.2125000003E+01
   0.0000000000E+00   0.9583013804E+00   0.9583013804E+00   0.0000000000E+00   0.1122750000E-02   0.1122750000E-02   0.0000000000E+00  -0.4282136960E-01  -0.4282136960E-01  -0.2125000003E+01   0.9955887648E-13   0.9860276812E-13  -0.4087598956E-15   0.7064914137E-15   0.9464404647E-15   0.8338873931E-01  -0.4169861966E-01  -0.4169861966E-01  -0.1218807770E-15   0.1450884958E-15   0.1060811347E-16   0.2125000003E+01
   0.2166777478E+01   0.0000000000E+00  -0.8885270877E-17  -0.4500000000E-02   0.0000000000E+00   0.6879364644E-18   0.1712774784E+00   0.0000000000E+00  -0.9573207342E-17  -0.2125000003E+01  -0.1036423454E-12  -0.1034983902E-12   0.5038851698E-15  -0.1874436961E-15   0.9451768598E-15   0.8338873933E-01  -0.4169861966E-01  -0.4169861966E-01  -0.7451865050E-16   0.7151759136E-16  -0.7228237398E-17   0.2125000003E+01
   0.2166777478E+01   0.9583013804E+00  -0.1160038854E-16  -0.4500000000E-02   0.1122750000E-02   0.1108850471E-17   0.1712774784E+00  -0.4282136960E-01  -0.1270923901E-16  -0.2125000003E+01   0.6037155975E-13   0.5960118285E-13   0.1012810543E-14   0.3385869247E-14  -0.1331980170E-14   0.8338873932E-01  -0.4169861966E-01  -0.4169861966E-01  -0.1161345950E-15   0.3564039983E-15   0.3462374522E-16   0.2125000003E+01
   0.2166777478E+01   0.0000000000E+00   0.9583013804E+00  -0.4500000000E-02   0.0000000000E+00   0.1122750000E-02   0.1712774784E+00   0.0000000000E+00  -0.4282136960E-01  -0.2125000003E+01   0.5626142825E-14   0.9244650412E-14  -0.5677908393E-15   0.4357435586E-15  -0.2377801125E-15   0.8338873932E-01  -0.4169861966E-01  -0.4169861966E-01   0.1298312665E-15  -0.5866598373E-16   0.8445097664E-16   0.2125000003E+01
   0.2166777478E+01   0.9583013804E+00   0.9583013804E+00  -0.4500000000E-02   0.1122750000E-02   0.1122750000E-02   0.1712774784E+00  -0.4282136960E-01  -0.4282136960E-01  -0.2125000003E+01  -0.4173912750E-13  -0.4383613195E-13  -0.7901941805E-15   0.1811128977E-15  -0.6212995459E-15   0.8338873931E-01  -0.4169861965E-01  -0.4169861965E-01   0.2096921270E-15   0.1467411268E-15   0.9785756751E-16   0.2125000003E+01
     1     2     3     4     5     6     7     8
     2     9    10     3     6    11    12     7
 VARIABLES = X,Y,Z,DU1,DU2,DU3,U1,U2,U3,S11,S22,S33,S12,S13,S23,E11,E22,E33,E12,E13,E23,SMISES
 ZONE, T="0.9700D+01" F=FEPOINT, I=   12 J=    2 ET=BRICK
   0.0000000000E+00   0.0000000000E+00   0.0000000000E+00   0.0000000000E+00   0.0000000000E+00   0.0000000000E+00   0.0000000000E+00   0.0000000000E+00   0.0000000000E+00  -0.3250000005E+01   0.1136728162E-12   0.1118833828E-12   0.8914286707E-16   0.5937535640E-15   0.9990946703E-16   0.8113873933E-01  -0.4057586967E-01  -0.4057586967E-01  -0.4862388096E-17  -0.4042827976E-16  -0.3478106008E-16   0.3250000005E+01
   0.1081138739E+01   0.0000000000E+00  -0.1140530477E-16  -0.2250000000E-02   0.0000000000E+00  -0.9018868247E-18   0.8338873920E-01   0.0000000000E+00  -0.1050341794E-16  -0.3250000005E+01  -0.8417552850E-13  -0.8563913674E-13  -0.3990964318E-15  -0.1159949580E-14   0.7806184177E-16   0.8113873933E-01  -0.4057586966E-01  -0.4057586966E-01  -0.1345199168E-15  -0.2175810408E-16  -0.3454346292E-16   0.3250000005E+01
   0.1081138739E+01   0.9594241304E+00  -0.2443573443E-16  -0.2250000000E-02   0.1122750000E-02   0.1290245458E-18   0.8338873920E-01  -0.4169861960E-01  -0.2456475897E-16  -0.3250000005E+01  -0.1585035172E-13  -0.1500825471E-13  -0.3039542689E-15  -0.2784377286E-15  -0.1394709973E-15   0.8113873932E-01  -0.4057586966E-01  -0.4057586966E-01  -0.1596984803E-15   0.6160861689E-16  -0.6320972272E-16   0.3250000005E+01
   0.0000000000E+00   0.9594241304E+00  -0.2053013476E-16   0.0000000000E+00   0.1122750000E-02   0.1622820757E-17   0.0000000000E+00  -0.4169861960E-01  -0.2215295552E-16  -0.3250000005E+01   0.3831909441E-14   0.7271269146E-14   0.3226611656E-15   0.3678672435E-15  -0.5042654607E-15   0.8113873932E-01  -0.4057586966E-01  -0.4057586966E-01   0.4221929060E-16   0.6906842516E-17   0.9824703417E-17   0.3250000005E+01
   0.0000000000E+00   0.0000000000E+00   0.9594241304E+00   0.0000000000E+00   0.0000000000E+00   0.1122750000E-02   0.0000000000E+00   0.0000000000E+00  -0.4169861960E-01  -0.3250000005E+01  -0.2497503575E-13  -0.2579448309E-13  -0.2043053017E-15  -0.3286354832E-15   0.5764616577E-16   0.8113873932E-01  -0.4057586966E-01  -0.4057586966E-01  -0.5294224126E-17  -0.7643025931E-16  -0.8422203054E-16   0.3250000005E+01
   0.1081138739E+01   0.0000000000E+00   0.9594241304E+00  -0.2250000000E-02   0.0000000000E+00   0.1122750000E-02   0.8338873920E-01   0.0000000000E+00  -0.4169861960E-01  -0.3250000005E+01   0.5898862530E-13   0.6009340387E-13   0.4833910416E-15  -0.4879972180E-15   0.8202521562E-15   0.8113873932E-01  -0.4057586966E-01  -0.4057586966E-01   0.2538577457E-16  -0.1376099341E-15   0.9424842174E-16   0.3250000005E+01
   0.1081138739E+01   0.9594241304E+00   0.9594241304E+00  -0.2250000000E-02   0.1122750000E-02   0.1122750000E-02   0.8338873920E-01  -0.4169861960E-01  -0.4169861960E-01  -0.3250000004E+01  -0.4084823161E-13  -0.4106881737E-13  -0.1867016417E-15  -0.3908633375E-15  -0.7571448914E-16   0.8113873931E-01  -0.4057586965E-01  -0.4057586965E-01   0.1652550785E-16   0.1475036474E-15   0.3472479844E-16   0.3250000004E+01
   0.0000000000E+00   0.9594241304E+00   0.9594241304E+00   0.0000000000E+00   0.1122750000E-02   0.1122750000E-02   0.0000000000E+00  -0.4169861960E-01  -0.4169861960E-01  -0.3250000004E+01  -0.7260824595E-13  -0.7316661341E-13  -0.2719708348E-15   0.7325230466E-15   0.4362583562E-15   0.8113873931E-01  -0.4057586966E-01  -0.4057586966E-01  -0.9740118419E-16   0.1004661018E-15   0.5506976795E-16   0.3250000004E+01
   0.2162277478E+01   0.0000000000E+00  -0.1205901922E-16  -0.4500000000E-02   0.0000000000E+00  -0.3173748343E-17   0.1667774784E+00   0.0000000000E+00  -0.8885270877E-17  -0.3250000005E+01  -0.1922925423E-12  -0.1930595390E-12   0.9598774563E-17   0.1732902513E-15   0.8264190046E-15   0.8113873933E-01  -0.4057586966E-01  -0.4057586966E-01  -0.4156324155E-16   0.2140199442E-16   0.2286659687E-17   0.3250000005E+01
   0.2162277478E+01   0.9594241304E+00  -0.1544939360E-16  -0.4500000000E-02   0.1122750000E-02  -0.3849005064E-17   0.1667774784E+00  -0.4169861960E-01  -0.1160038854E-16  -0.3250000005E+01   0.4761084003E-13   0.4695792609E-13   0.6340202881E-15   0.3095086123E-14  -0.1551115619E-14   0.8113873932E-01  -0.4057586966E-01  -0.4057586966E-01  -0.1350596169E-15   0.3466623057E-15   0.3785576925E-16   0.3250000005E+01
   0.2162277478E+01   0.0000000000E+00   0.9594241304E+00  -0.4500000000E-02   0.0000000000E+00   0.1122750000E-02   0.1667774784E+00   0.0000000000E+00  -0.4169861960E-01  -0.3250000005E+01   0.7288498460E-13   0.7635010711E-13  -0.9644700920E-15   0.4439907071E-15  -0.9320306632E-16   0.8113873932E-01  -0.4057586966E-01  -0.4057586966E-01   0.8340028784E-16  -0.6005294087E-17   0.5228329828E-16   0.3250000005E+01
   0.2162277478E+01   0.9594241304E+00   0.9594241304E+00  -0.4500000000E-02   0.1122750000E-02   0.1122750000E-02   0.1667774784E+00  -0.4169861960E-01  -0.4169861960E-01  -0.3250000004E+01  -0.7286536895E-14  -0.9463089519E-14  -0.1012998103E-14   0.1590839110E-15  -0.6321387124E-15   0.8113873931E-01  -0.4057586965E-01  -0.4057586965E-01   0.1653910357E-15   0.1150290379E-15   0.1165179842E-15   0.3250000004E+01
     1     2     3     4     5     6     7     8
     2     9    10     3     6    11    12     7
 VARIABLES = X,Y,Z,DU1,DU2,DU3,U1,U2,U3,S11,S22,S33,S12,S13,S23,E11,E22,E33,E12,E13,E23,SMISES
 ZONE, T="0.9750D+01" F=FEPOINT, I=   12 J=    2 ET=BRICK
   0.0000000000E+00   0.0000000000E+00   0.0000000000E+00   0.0000000000E+00   0.0000000000E+00   0.0000000000E+00   0.0000000000E+00   0.0000000000E+00   0.0000000000E+00  -0.4375000007E+01  -0.2129990071E-13  -0.2233920427E-13   0.1047576327E-15   0.6018276172E-15  -0.3138867301E-15   0.7888873933E-01  -0.3945311966E-01  -0.3945311966E-01  -0.3879757057E-17  -0.2608863205E-16  -0.4638308209E-16   0.4375000007E+01
   0.1078888739E+01   0.0000000000E+00  -0.1048512108E-16  -0.2250000000E-02   0.0000000000E+00   0.9201836912E-18   0.8113873920E-01   0.0000000000E+00  -0.1140530477E-16  -0.4375000007E+01   0.3363334830E-13   0.3275207315E-13  -0.5069875789E-15  -0.1358610048E-14  -0.2426275453E-15   0.7888873932E-01  -0.3945311966E-01  -0.3945311966E-01  -0.1228280582E-15  -0.7879737276E-16  -0.3687722468E-16   0.4375000007E+01
   0.1078888739E+01   0.9605468804E+00  -0.2545809174E-16  -0.2250000000E-02   0.1122750000E-02  -0.1022357310E-17   0.8113873920E-01  -0.4057586960E-01  -0.2443573443E-16  -0.4375000006E+01   0.2023523395E-13   0.2175581219E-13  -0.2673575413E-15  -0.1147480516E-15   0.7040432656E-16   0.7888873932E-01  -0.3945311966E-01  -0.3945311966E-01  -0.1292109651E-15   0.1254744097E-15  -0.4060496427E-16   0.4375000006E+01
   0.0000000000E+00   0.9605468804E+00  -0.2297181193E-16   0.0000000000E+00   0.1122750000E-02  -0.2441677165E-17   0.0000000000E+00  -0.4057586960E-01  -0.2053013476E-16  -0.4375000006E+01  -0.3140813075E-13  -0.2685635990E-13   0.4847953833E-15   0.4031556614E-15  -0.1155012398E-15   0.7888873932E-01  -0.3945311966E-01  -0.3945311966E-01   0.4071164138E-16   0.2933348381E-18   0.5327471247E-16   0.4375000006E+01
   0.0000000000E+00   0.0000000000E+00   0.9605468804E+00   0.0000000000E+00   0.0000000000E+00   0.1122750000E-02   0.0000000000E+00   0.0000000000E+00  -0.4057586960E-01  -0.4375000006E+01  -0.3486170328E-13  -0.3657151716E-13  -0.2117605600E-15  -0.3118720105E-15  -0.1647840185E-15   0.7888873932E-01  -0.3945311966E-01  -0.3945311966E-01   0.5892851390E-17  -0.9878015452E-16  -0.6509661264E-16   0.4375000006E+01
   0.1078888739E+01   0.0000000000E+00   0.9605468804E+00  -0.2250000000E-02   0.0000000000E+00   0.1122750000E-02   0.8113873920E-01   0.0000000000E+00  -0.4057586960E-01  -0.4375000006E+01  -0.1075379019E-13  -0.1024621887E-13   0.6467891440E-15  -0.5049555119E-15   0.6223042952E-15   0.7888873932E-01  -0.3945311966E-01  -0.3945311966E-01   0.8733193784E-17  -0.5844182404E-16   0.1088834011E-15   0.4375000006E+01
   0.1078888739E+01   0.9605468804E+00   0.9605468804E+00  -0.2250000000E-02   0.1122750000E-02   0.1122750000E-02   0.8113873920E-01  -0.4057586960E-01  -0.4057586960E-01  -0.4375000006E+01   0.2508947500E-13   0.2482280791E-13   0.2415865308E-16  -0.2024277749E-15   0.2779902353E-15   0.7888873931E-01  -0.3945311965E-01  -0.3945311965E-01   0.3688359258E-17   0.4593559949E-16   0.3264969661E-16   0.4375000006E+01
   0.0000000000E+00   0.9605468804E+00   0.9605468804E+00   0.0000000000E+00   0.1122750000E-02   0.1122750000E-02   0.0000000000E+00  -0.4057586960E-01  -0.4057586960E-01  -0.4375000006E+01   0.7219379712E-13   0.7109101142E-13  -0.4499118928E-15   0.9128059921E-15   0.8924049645E-15   0.7888873931E-01  -0.3945311965E-01  -0.3945311965E-01  -0.9317075569E-16   0.1286577958E-15   0.5103640173E-16   0.4375000006E+01
   0.2157777478E+01   0.0000000000E+00  -0.5054852123E-17  -0.4500000000E-02   0.0000000000E+00   0.7004167098E-17   0.1622774784E+00   0.0000000000E+00  -0.1205901922E-16  -0.4375000007E+01   0.1030154336E-12   0.1023676256E-12  -0.7232657105E-15  -0.2343105369E-15   0.4322230382E-15   0.7888873932E-01  -0.3945311966E-01  -0.3945311966E-01  -0.8097750557E-16  -0.1412789558E-16   0.4069655946E-17   0.4375000007E+01
   0.2157777478E+01   0.9605468804E+00  -0.1070552096E-16  -0.4500000000E-02   0.1122750000E-02   0.4743872641E-17   0.1622774784E+00  -0.4057586960E-01  -0.1544939360E-16  -0.4375000006E+01  -0.2702032765E-13  -0.2748021596E-13  -0.2785210888E-16   0.3346878955E-14  -0.1380112981E-14   0.7888873931E-01  -0.3945311966E-01  -0.3945311966E-01  -0.1387356845E-15   0.4284800695E-15   0.3166857135E-16   0.4375000006E+01
   0.2157777478E+01   0.0000000000E+00   0.9605468804E+00  -0.4500000000E-02   0.0000000000E+00   0.1122750000E-02   0.1622774784E+00   0.0000000000E+00  -0.4057586960E-01  -0.4375000006E+01   0.3302699803E-13   0.3547041317E-13  -0.7595122319E-15  -0.4703096109E-15  -0.3300692636E-15   0.7888873931E-01  -0.3945311966E-01  -0.3945311966E-01   0.1656288416E-15  -0.3511000997E-16   0.2834659086E-16   0.4375000006E+01
   0.2157777478E+01   0.9605468804E+00   0.9605468804E+00  -0.4500000000E-02   0.1122750000E-02   0.1122750000E-02   0.1622774784E+00  -0.4057586960E-01  -0.4057586960E-01  -0.4375000006E+01  -0.3954042918E-13  -0.4289234118E-13  -0.4203761946E-15   0.6481947932E-16  -0.3372717417E-15   0.7888873930E-01  -0.3945311965E-01  -0.3945311965E-01   0.1375846683E-15  -0.2792344780E-16   0.1069888775E-15   0.4375000006E+01
     1     2     3     4     5     6     7     8
     2     9    10     3     6    11    12     7
 VARIABLES = X,Y,Z,DU1,DU2,DU3,U1,U2,U3,S11,S22,S33,S12,S13,S23,E11,E22,E33,E12,E13,E23,SMISES
 ZONE, T="0.9800D+01" F=FEPOINT, I=   12 J=    2 ET=BRICK
   0.0000000000E+00   0.0000000000E+00   0.0000000000E+00   0.0000000000E+00   0.0000000000E+00   0.0000000000E+00   0.0000000000E+00   0.0000000000E+00   0.0000000000E+00  -0.5500000009E+01  -0.1584821251E-13  -0.1794913101E-13   0.1042870370E-15   0.4633994785E-15   0.1330692286E-15   0.7663873932E-01  -0.3833036966E-01  -0.3833036966E-01   0.7167548331E-17  -0.4856924807E-16  -0.6521541098E-16   0.5500000009E+01
   0.1076638739E+01   0.0000000000E+00  -0.1264622636E-16  -0.2250000000E-02   0.0000000000E+00  -0.2161105279E-17   0.7888873920E-01   0.0000000000E+00  -0.1048512108E-16  -0.5500000008E+01   0.6351402855E-14   0.4549283406E-14  -0.4441861690E-15  -0.1301427509E-14   0.1498186657E-15   0.7663873932E-01  -0.3833036966E-01  -0.3833036966E-01  -0.1408765448E-15  -0.2693572650E-16  -0.1227147042E-16   0.5500000008E+01
   0.1076638739E+01   0.9616696304E+00  -0.2524579933E-16  -0.2250000000E-02   0.1122750000E-02   0.2122924099E-18   0.7888873920E-01  -0.3945311960E-01  -0.2545809174E-16  -0.5500000008E+01   0.2495008823E-14   0.3357424325E-14  -0.2585607799E-15  -0.1573760627E-15  -0.2353970509E-15   0.7663873931E-01  -0.3833036966E-01  -0.3833036966E-01  -0.1309379287E-15   0.6788829666E-16  -0.8012060289E-16   0.5500000008E+01
   0.0000000000E+00   0.9616696304E+00  -0.2018117785E-16   0.0000000000E+00   0.1122750000E-02   0.2790634075E-17   0.0000000000E+00  -0.3945311960E-01  -0.2297181193E-16  -0.5500000008E+01   0.1339936238E-13   0.1692471096E-13   0.3743933015E-15   0.1429752212E-15  -0.4715182375E-15   0.7663873931E-01  -0.3833036966E-01  -0.3833036966E-01   0.4041529970E-16   0.2583977763E-17   0.6486592608E-16   0.5500000008E+01
   0.0000000000E+00   0.0000000000E+00   0.9616696304E+00   0.0000000000E+00   0.0000000000E+00   0.1122750000E-02   0.0000000000E+00   0.0000000000E+00  -0.3945311960E-01  -0.5500000008E+01   0.9544999207E-14   0.8452711042E-14  -0.2262327855E-15  -0.4279701826E-15   0.1951441971E-15   0.7663873931E-01  -0.3833036966E-01  -0.3833036966E-01  -0.2989409886E-17  -0.4121358261E-16  -0.2320470462E-17   0.5500000008E+01
   0.1076638739E+01   0.0000000000E+00   0.9616696304E+00  -0.2250000000E-02   0.0000000000E+00   0.1122750000E-02   0.7888873920E-01   0.0000000000E+00  -0.3945311960E-01  -0.5500000008E+01  -0.1207032706E-13  -0.1113752626E-13   0.6082959398E-15  -0.4694902501E-15   0.8906488153E-15   0.7663873931E-01  -0.3833036966E-01  -0.3833036966E-01   0.4230299802E-16  -0.1086852516E-15   0.8423452140E-16   0.5500000008E+01
   0.1076638739E+01   0.9616696304E+00   0.9616696304E+00  -0.2250000000E-02   0.1122750000E-02   0.1122750000E-02   0.7888873920E-01  -0.3945311960E-01  -0.3945311960E-01  -0.5500000007E+01   0.3364772530E-13   0.3373590240E-13  -0.1677872192E-15  -0.2532842843E-15  -0.1394137644E-15   0.7663873930E-01  -0.3833036965E-01  -0.3833036965E-01   0.7485824496E-17   0.7990980005E-16   0.7290796610E-16   0.5500000007E+01
   0.0000000000E+00   0.9616696304E+00   0.9616696304E+00   0.0000000000E+00   0.1122750000E-02   0.1122750000E-02   0.0000000000E+00  -0.3945311960E-01  -0.3945311960E-01  -0.5500000007E+01  -0.6868764189E-14  -0.7363454015E-14  -0.3547212455E-15   0.6898345598E-15   0.3061941994E-15   0.7663873931E-01  -0.3833036965E-01  -0.3833036965E-01  -0.9577569625E-16   0.1082325180E-15  -0.8071437338E-17   0.5500000007E+01
   0.2153277478E+01   0.0000000000E+00  -0.1407684321E-16  -0.4500000000E-02   0.0000000000E+00  -0.9021991087E-17   0.1577774784E+00   0.0000000000E+00  -0.5054852123E-17  -0.5500000008E+01   0.8622040034E-13   0.8503634062E-13  -0.6287542713E-15   0.1419981039E-15   0.6606985252E-15   0.7663873932E-01  -0.3833036966E-01  -0.3833036966E-01  -0.8212810375E-16   0.1455396097E-15  -0.1348747769E-16   0.5500000008E+01
   0.2153277478E+01   0.9616696304E+00  -0.1825343778E-16  -0.4500000000E-02   0.1122750000E-02  -0.7547916819E-17   0.1577774784E+00  -0.3945311960E-01  -0.1070552096E-16  -0.5500000008E+01  -0.9464760499E-14  -0.9970730113E-14  -0.7667581037E-16   0.3203309850E-14  -0.1844443928E-14   0.7663873931E-01  -0.3833036966E-01  -0.3833036966E-01  -0.1535983936E-15   0.4049613924E-15   0.6349337588E-16   0.5500000008E+01
   0.2153277478E+01   0.0000000000E+00   0.9616696304E+00  -0.4500000000E-02   0.0000000000E+00   0.1122750000E-02   0.1577774784E+00   0.0000000000E+00  -0.3945311960E-01  -0.5500000008E+01  -0.8070429549E-13  -0.7711799148E-13  -0.7812646947E-15  -0.7345608125E-16   0.1939507190E-15   0.7663873931E-01  -0.3833036966E-01  -0.3833036966E-01   0.1296026915E-15  -0.6474162126E-16   0.7690630207E-16   0.5500000008E+01
   0.2153277478E+01   0.9616696304E+00   0.9616696304E+00  -0.4500000000E-02   0.1122750000E-02   0.1122750000E-02   0.1577774784E+00  -0.3945311960E-01  -0.3945311960E-01  -0.5500000007E+01   0.4457008013E-13   0.4222971625E-13  -0.4931303043E-15   0.1711699876E-15  -0.5845032175E-15   0.7663873930E-01  -0.3833036965E-01  -0.3833036965E-01   0.1456396505E-15   0.1095669944E-15   0.9023629982E-16   0.5500000007E+01
     1     2     3     4     5     6     7     8
     2     9    10     3     6    11    12     7
 VARIABLES = X,Y,Z,DU1,DU2,DU3,U1,U2,U3,S11,S22,S33,S12,S13,S23,E11,E22,E33,E12,E13,E23,SMISES
 ZONE, T="0.9850D+01" F=FEPOINT, I=   12 J=    2 ET=BRICK
   0.0000000000E+00   0.0000000000E+00   0.0000000000E+00   0.0000000000E+00   0.0000000000E+00   0.0000000000E+00   0.0000000000E+00   0.0000000000E+00   0.0000000000E+00  -0.6625000010E+01   0.1949323470E-14   0.1342686456E-14   0.1113417653E-15   0.7038209385E-15  -0.3017848432E-15   0.7438873932E-01  -0.3720761966E-01  -0.3720761966E-01  -0.8276892986E-18  -0.2330730509E-16  -0.3348194505E-16   0.6625000010E+01
   0.1074388739E+01   0.0000000000E+00  -0.1016221074E-16  -0.2250000000E-02   0.0000000000E+00   0.2484015619E-17   0.7663873920E-01   0.0000000000E+00  -0.1264622636E-16  -0.6625000010E+01  -0.3264076157E-13  -0.3342588861E-13  -0.5336847916E-15  -0.1358149103E-14  -0.1830936849E-15   0.7438873932E-01  -0.3720761966E-01  -0.3720761966E-01  -0.1399096664E-15  -0.8896698709E-16  -0.3328388415E-16   0.6625000010E+01
   0.1074388739E+01   0.9627923804E+00  -0.2474934274E-16  -0.2250000000E-02   0.1122750000E-02   0.4964565905E-18   0.7663873920E-01  -0.3833036960E-01  -0.2524579933E-16  -0.6625000009E+01   0.2835559090E-13   0.2985040630E-13  -0.3136466305E-15  -0.1172327498E-15   0.1467094526E-15   0.7438873931E-01  -0.3720761965E-01  -0.3720761965E-01  -0.1161814745E-15   0.8878156866E-16  -0.6762157961E-16   0.6625000009E+01
   0.0000000000E+00   0.9627923804E+00  -0.2268983488E-16   0.0000000000E+00   0.1122750000E-02  -0.2508657030E-17   0.0000000000E+00  -0.3833036960E-01  -0.2018117785E-16  -0.6625000010E+01  -0.5833184926E-13  -0.5419641199E-13   0.6659246038E-15   0.4271637504E-15   0.8784050026E-16   0.7438873931E-01  -0.3720761966E-01  -0.3720761966E-01   0.2473582723E-16   0.3183063876E-17  -0.1610647156E-17   0.6625000010E+01
   0.0000000000E+00   0.0000000000E+00   0.9627923804E+00   0.0000000000E+00   0.0000000000E+00   0.1122750000E-02   0.0000000000E+00   0.0000000000E+00  -0.3833036960E-01  -0.6625000010E+01   0.2184323483E-13   0.2038322109E-13  -0.2249660774E-15  -0.2312876483E-15  -0.2421637607E-15   0.7438873931E-01  -0.3720761966E-01  -0.3720761966E-01   0.1316337068E-17  -0.9009206681E-16  -0.6838654051E-16   0.6625000010E+01
   0.1074388739E+01   0.0000000000E+00   0.9627923804E+00  -0.2250000000E-02   0.0000000000E+00   0.1122750000E-02   0.7663873920E-01   0.0000000000E+00  -0.3833036960E-01  -0.6625000009E+01   0.1981640999E-13   0.1963208476E-13   0.6381597533E-15  -0.4111361948E-15   0.3832059827E-15   0.7438873931E-01  -0.3720761965E-01  -0.3720761965E-01   0.3594359726E-16  -0.6940554667E-16   0.8449362182E-16   0.6625000009E+01
   0.1074388739E+01   0.9627923804E+00   0.9627923804E+00  -0.2250000000E-02   0.1122750000E-02   0.1122750000E-02   0.7663873920E-01  -0.3833036960E-01  -0.3833036960E-01  -0.6625000009E+01  -0.3066257362E-13  -0.3140998136E-13  -0.9428885015E-16  -0.3326249759E-15   0.1008815459E-15   0.7438873930E-01  -0.3720761965E-01  -0.3720761965E-01  -0.7352988226E-17   0.3753043551E-16   0.7411720417E-16   0.6625000009E+01
   0.0000000000E+00   0.9627923804E+00   0.9627923804E+00   0.0000000000E+00   0.1122750000E-02   0.1122750000E-02   0.0000000000E+00  -0.3833036960E-01  -0.3833036960E-01  -0.6625000009E+01  -0.2940920589E-14  -0.4232550997E-14  -0.4747626735E-15   0.9046722771E-15   0.8831733131E-15   0.7438873930E-01  -0.3720761965E-01  -0.3720761965E-01  -0.8345942917E-16   0.1164088854E-15   0.2711993871E-16   0.6625000009E+01
   0.2148777478E+01   0.0000000000E+00  -0.4734092049E-17  -0.4500000000E-02   0.0000000000E+00   0.9342751160E-17   0.1532774784E+00   0.0000000000E+00  -0.1407684321E-16  -0.6625000010E+01  -0.3366085020E-13  -0.3377984347E-13  -0.2815707705E-15   0.1015155296E-15   0.4318587665E-15   0.7438873932E-01  -0.3720761966E-01  -0.3720761966E-01  -0.1636342150E-16  -0.7118590230E-17  -0.1786553798E-16   0.6625000010E+01
   0.2148777478E+01   0.9627923804E+00  -0.1024233810E-16  -0.4500000000E-02   0.1122750000E-02   0.8011099686E-17   0.1532774784E+00  -0.3833036960E-01  -0.1825343778E-16  -0.6625000009E+01   0.9219578428E-13   0.9153762145E-13   0.2388152359E-15   0.2889992268E-14  -0.1305268574E-14   0.7438873931E-01  -0.3720761965E-01  -0.3720761965E-01  -0.1359197282E-15   0.3617037287E-15   0.5481697634E-16   0.6625000009E+01
   0.2148777478E+01   0.0000000000E+00   0.9627923804E+00  -0.4500000000E-02   0.0000000000E+00   0.1122750000E-02   0.1532774784E+00   0.0000000000E+00  -0.3833036960E-01  -0.6625000009E+01   0.5755890767E-13   0.6047018202E-13  -0.1013072521E-14  -0.2317764233E-15  -0.1352377613E-15   0.7438873931E-01  -0.3720761965E-01  -0.3720761965E-01   0.8229971252E-16  -0.9623352694E-16   0.7560012873E-16   0.6625000009E+01
   0.2148777478E+01   0.9627923804E+00   0.9627923804E+00  -0.4500000000E-02   0.1122750000E-02   0.1122750000E-02   0.1532774784E+00  -0.3833036960E-01  -0.3833036960E-01  -0.6625000008E+01  -0.3497951347E-14  -0.6853314913E-14  -0.7376733621E-15   0.1715302605E-15  -0.2176212365E-15   0.7438873930E-01  -0.3720761965E-01  -0.3720761965E-01   0.1839573062E-15   0.1219352037E-15   0.9088079655E-16   0.6625000008E+01
     1     2     3     4     5     6     7     8
     2     9    10     3     6    11    12     7
 VARIABLES = X,Y,Z,DU1,DU2,DU3,U1,U2,U3,S11,S22,S33,S12,S13,S23,E11,E22,E33,E12,E13,E23,SMISES
 ZONE, T="0.9900D+01" F=FEPOINT, I=   12 J=    2 ET=BRICK
   0.0000000000E+00   0.0000000000E+00   0.0000000000E+00   0.0000000000E+00   0.0000000000E+00   0.0000000000E+00   0.0000000000E+00   0.0000000000E+00   0.0000000000E+00  -0.7749966911E+01  -0.1655082777E-04  -0.1655082777E-04   0.1209315104E-15   0.5892244399E-15  -0.8553568466E-15   0.6773480584E-01  -0.3388290292E-01  -0.3388290292E-01   0.4926971153E-17  -0.2217148473E-16  -0.5640625684E-16   0.7749950360E+01
   0.1067734806E+01   0.0000000000E+00  -0.7117529722E-17  -0.6653933474E-02   0.0000000000E+00   0.3044681016E-17   0.7438873920E-01   0.0000000000E+00  -0.1016221074E-16  -0.7749966910E+01  -0.1655082791E-04  -0.1655082791E-04  -0.3107906889E-15  -0.9338394600E-15  -0.6825922078E-15   0.6773480583E-01  -0.3388290292E-01  -0.3388290292E-01  -0.1374846332E-15  -0.7156521221E-16  -0.2970308257E-16   0.7749950359E+01
   0.1067734806E+01   0.9661170971E+00  -0.2524838411E-16  -0.6653933474E-02   0.3324716737E-02  -0.4990413698E-18   0.7438873920E-01  -0.3720761960E-01  -0.2474934274E-16  -0.7749966909E+01  -0.1655082808E-04  -0.1655082808E-04   0.1010516925E-15  -0.4920131649E-15   0.8287319978E-15   0.6773480583E-01  -0.3388290291E-01  -0.3388290291E-01  -0.1537028453E-15   0.1015301466E-15  -0.4303231202E-16   0.7749950359E+01
   0.0000000000E+00   0.9661170971E+00  -0.2735846938E-16   0.0000000000E+00   0.3324716737E-02  -0.4668634498E-17   0.0000000000E+00  -0.3720761960E-01  -0.2268983488E-16  -0.7749966910E+01  -0.1655082785E-04  -0.1655082785E-04   0.4066209515E-15   0.6364258028E-15   0.6223794401E-15   0.6773480583E-01  -0.3388290291E-01  -0.3388290291E-01   0.4539394395E-16   0.1962290846E-16   0.2107424845E-16   0.7749950359E+01
   0.0000000000E+00   0.0000000000E+00   0.9661170971E+00   0.0000000000E+00   0.0000000000E+00   0.3324716737E-02   0.0000000000E+00   0.0000000000E+00  -0.3720761960E-01  -0.7749966910E+01  -0.1655082769E-04  -0.1655082769E-04  -0.2264397431E-15   0.2672472849E-15  -0.1050216225E-14   0.6773480583E-01  -0.3388290291E-01  -0.3388290291E-01  -0.1183861437E-16  -0.5178501288E-16  -0.4330750319E-16   0.7749950359E+01
   0.1067734806E+01   0.0000000000E+00   0.9661170971E+00  -0.6653933474E-02   0.0000000000E+00   0.3324716737E-02   0.7438873920E-01   0.0000000000E+00  -0.3720761960E-01  -0.7749966909E+01  -0.1655082779E-04  -0.1655082779E-04   0.6398136499E-15  -0.6153604635E-15  -0.4006485048E-15   0.6773480583E-01  -0.3388290291E-01  -0.3388290291E-01   0.4917182515E-16  -0.1203006696E-15   0.4579958033E-16   0.7749950359E+01
   0.1067734806E+01   0.9661170971E+00   0.9661170971E+00  -0.6653933474E-02   0.3324716737E-02   0.3324716737E-02   0.7438873920E-01  -0.3720761960E-01  -0.3720761960E-01  -0.7749966908E+01  -0.1655082797E-04  -0.1655082797E-04  -0.1667273518E-15  -0.2912972951E-15   0.3431781521E-15   0.6773480582E-01  -0.3388290291E-01  -0.3388290291E-01   0.1784854861E-16   0.1153306900E-15   0.7140706723E-16   0.7749950358E+01
   0.0000000000E+00   0.9661170971E+00   0.9661170971E+00   0.0000000000E+00   0.3324716737E-02   0.3324716737E-02   0.0000000000E+00  -0.3720761960E-01  -0.3720761960E-01  -0.7749966909E+01  -0.1655082811E-04  -0.1655082812E-04  -0.6181153774E-15   0.1129766025E-14   0.1204099893E-14   0.6773480582E-01  -0.3388290291E-01  -0.3388290291E-01  -0.9681344370E-16   0.8531236868E-16   0.4306497240E-16   0.7749950358E+01
   0.2135469611E+01   0.0000000000E+00   0.1236254338E-16  -0.1330786695E-01   0.0000000000E+00   0.1709663543E-16   0.1487774784E+00   0.0000000000E+00  -0.4734092049E-17  -0.7749966910E+01  -0.1655082807E-04  -0.1655082807E-04  -0.4141335128E-15  -0.2182152061E-15  -0.3124169543E-15   0.6773480583E-01  -0.3388290292E-01  -0.3388290292E-01  -0.4631995713E-16   0.3445480539E-16  -0.2954348328E-16   0.7749950359E+01
   0.2135469611E+01   0.9661170971E+00   0.1930027075E-17  -0.1330786695E-01   0.3324716737E-02   0.1217236517E-16   0.1487774784E+00  -0.3720761960E-01  -0.1024233810E-16  -0.7749966909E+01  -0.1655082818E-04  -0.1655082818E-04   0.1085372038E-16   0.2164883340E-14  -0.8852846011E-15   0.6773480582E-01  -0.3388290291E-01  -0.3388290291E-01  -0.1435718041E-15   0.2825338055E-15   0.2485561492E-16   0.7749950358E+01
   0.2135469611E+01   0.0000000000E+00   0.9661170971E+00  -0.1330786695E-01   0.0000000000E+00   0.3324716737E-02   0.1487774784E+00   0.0000000000E+00  -0.3720761960E-01  -0.7749966909E+01  -0.1655082813E-04  -0.1655082813E-04  -0.9641925250E-15  -0.1407050715E-15  -0.6198091537E-15   0.6773480582E-01  -0.3388290291E-01  -0.3388290291E-01   0.8066881207E-16  -0.6434957847E-16   0.6112172701E-16   0.7749950358E+01
   0.2135469611E+01   0.9661170971E+00   0.9661170971E+00  -0.1330786695E-01   0.3324716737E-02   0.3324716737E-02   0.1487774784E+00  -0.3720761960E-01  -0.3720761960E-01  -0.7749966908E+01  -0.1655082782E-04  -0.1655082782E-04  -0.6779131102E-15   0.3455386279E-15   0.1840140046E-15   0.6773480582E-01  -0.3388290291E-01  -0.3388290291E-01   0.1738578047E-15   0.1298383093E-15   0.1715448271E-15   0.7749950357E+01
     1     2     3     4     5     6     7     8
     2     9    10     3     6    11    12     7
 VARIABLES = X,Y,Z,DU1,DU2,DU3,U1,U2,U3,S11,S22,S33,S12,S13,S23,E11,E22,E33,E12,E13,E23,SMISES
 ZONE, T="0.9950D+01" F=FEPOINT, I=   12 J=    2 ET=BRICK
   0.0000000000E+00   0.0000000000E+00   0.0000000000E+00   0.0000000000E+00   0.0000000000E+00   0.0000000000E+00   0.0000000000E+00   0.0000000000E+00   0.0000000000E+00  -0.8875012697E+01   0.6341592722E-05   0.6341592724E-05   0.1240327367E-15   0.7730272928E-15   0.1483495438E-15   0.4440607593E-01  -0.2222078796E-01  -0.2222078796E-01  -0.1322293055E-17  -0.1450958989E-16  -0.4930505484E-16   0.8875019039E+01
   0.1044406076E+01   0.0000000000E+00  -0.6211712472E-18  -0.2332872987E-01   0.0000000000E+00   0.6496358474E-17   0.6773480573E-01   0.0000000000E+00  -0.7117529722E-17  -0.8875012697E+01   0.6341592078E-05   0.6341592078E-05   0.1248427027E-15  -0.1643875159E-15  -0.1511826911E-15   0.4440607593E-01  -0.2222078796E-01  -0.2222078796E-01  -0.1293893229E-15  -0.6351567391E-16  -0.3339291243E-16   0.8875019038E+01
   0.1044406076E+01   0.9777792121E+00  -0.1718322502E-16  -0.2332872987E-01   0.1166211494E-01   0.8065159092E-17   0.6773480573E-01  -0.3388290286E-01  -0.2524838411E-16  -0.8875012696E+01   0.6341591689E-05   0.6341591690E-05   0.6360787577E-15  -0.1310160328E-15   0.8628961766E-15   0.4440607592E-01  -0.2222078796E-01  -0.2222078796E-01  -0.1321782927E-15   0.1319247786E-15  -0.2856599454E-16   0.8875019037E+01
   0.0000000000E+00   0.9777792121E+00  -0.2056107542E-16   0.0000000000E+00   0.1166211494E-01   0.6797393954E-17   0.0000000000E+00  -0.3388290286E-01  -0.2735846938E-16  -0.8875012696E+01   0.6341590696E-05   0.6341590698E-05   0.1137874138E-15   0.2237631423E-15   0.6118768528E-15   0.4440607592E-01  -0.2222078796E-01  -0.2222078796E-01   0.3456416435E-16  -0.1738991444E-16   0.4529753126E-16   0.8875019038E+01
   0.0000000000E+00   0.0000000000E+00   0.9777792121E+00   0.0000000000E+00   0.0000000000E+00   0.1166211494E-01   0.0000000000E+00   0.0000000000E+00  -0.3388290286E-01  -0.8875012696E+01   0.6341591451E-05   0.6341591449E-05  -0.1082630650E-15   0.9001358469E-16  -0.1064286725E-14   0.4440607592E-01  -0.2222078796E-01  -0.2222078796E-01  -0.4748658909E-17  -0.5899357562E-16  -0.4218528614E-16   0.8875019038E+01
   0.1044406076E+01   0.0000000000E+00   0.9777792121E+00  -0.2332872987E-01   0.0000000000E+00   0.1166211494E-01   0.6773480573E-01   0.0000000000E+00  -0.3388290286E-01  -0.8875012696E+01   0.6341591384E-05   0.6341591384E-05   0.9609891908E-15   0.7556629842E-16  -0.8199839948E-15   0.4440607592E-01  -0.2222078796E-01  -0.2222078796E-01   0.7764326042E-16  -0.1159505909E-15   0.4172704629E-16   0.8875019037E+01
   0.1044406076E+01   0.9777792121E+00   0.9777792121E+00  -0.2332872987E-01   0.1166211494E-01   0.1166211494E-01   0.6773480573E-01  -0.3388290286E-01  -0.3388290286E-01  -0.8875012695E+01   0.6341591424E-05   0.6341591421E-05   0.2746616283E-15  -0.1501339875E-15  -0.3512333591E-15   0.4440607592E-01  -0.2222078796E-01  -0.2222078796E-01   0.2705716530E-16   0.1260875165E-15   0.4192399927E-16   0.8875019036E+01
   0.0000000000E+00   0.9777792121E+00   0.9777792121E+00   0.0000000000E+00   0.1166211494E-01   0.1166211494E-01   0.0000000000E+00  -0.3388290286E-01  -0.3388290286E-01  -0.8875012695E+01   0.6341591465E-05   0.6341591462E-05  -0.1279221931E-15   0.6722384258E-15   0.9537451740E-15   0.4440607592E-01  -0.2222078796E-01  -0.2222078796E-01  -0.7192008106E-16   0.9951804895E-16   0.2945078612E-16   0.8875019037E+01
   0.2088812152E+01   0.0000000000E+00   0.2742246719E-16  -0.4665745974E-01   0.0000000000E+00   0.1505992381E-16   0.1354696115E+00   0.0000000000E+00   0.1236254338E-16  -0.8875012697E+01   0.6341590970E-05   0.6341590973E-05   0.1810863465E-14  -0.1447354446E-14  -0.1314070390E-15   0.4440607592E-01  -0.2222078796E-01  -0.2222078796E-01  -0.3063048934E-16   0.1516101172E-15  -0.2283365875E-16   0.8875019038E+01
   0.2088812152E+01   0.9777792121E+00   0.1801936369E-16  -0.4665745974E-01   0.1166211494E-01   0.1608933661E-16   0.1354696115E+00  -0.3388290286E-01   0.1930027075E-17  -0.8875012696E+01   0.6341592376E-05   0.6341592377E-05   0.9931163272E-15   0.1406548237E-16   0.3199508968E-15   0.4440607592E-01  -0.2222078796E-01  -0.2222078796E-01  -0.1309153129E-15   0.2470748625E-15   0.6770568393E-16   0.8875019037E+01
   0.2088812152E+01   0.0000000000E+00   0.9777792121E+00  -0.4665745974E-01   0.0000000000E+00   0.1166211494E-01   0.1354696115E+00   0.0000000000E+00  -0.3388290286E-01  -0.8875012696E+01   0.6341591512E-05   0.6341591514E-05   0.2789192094E-15  -0.1428261591E-15  -0.6184347197E-15   0.4440607592E-01  -0.2222078796E-01  -0.2222078796E-01   0.1159707031E-15   0.3101854666E-16   0.6440693248E-16   0.8875019037E+01
   0.2088812152E+01   0.9777792121E+00   0.9777792121E+00  -0.4665745974E-01   0.1166211494E-01   0.1166211494E-01   0.1354696115E+00  -0.3388290286E-01  -0.3388290286E-01  -0.8875012695E+01   0.6341591815E-05   0.6341591811E-05   0.6835200985E-15   0.7851944850E-15   0.5064455267E-15   0.4440607591E-01  -0.2222078796E-01  -0.2222078796E-01   0.2214549912E-15   0.1461720370E-15   0.1078091315E-15   0.8875019036E+01
     1     2     3     4     5     6     7     8
     2     9    10     3     6    11    12     7
 VARIABLES = X,Y,Z,DU1,DU2,DU3,U1,U2,U3,S11,S22,S33,S12,S13,S23,E11,E22,E33,E12,E13,E23,SMISES
 ZONE, T="0.1000D+02" F=FEPOINT, I=   12 J=    2 ET=BRICK
   0.0000000000E+00   0.0000000000E+00   0.0000000000E+00   0.0000000000E+00   0.0000000000E+00   0.0000000000E+00   0.0000000000E+00   0.0000000000E+00   0.0000000000E+00  -0.1000000668E+02   0.3330847811E-05   0.3330847809E-05   0.1629907957E-15  -0.8384459644E-15   0.4483082759E-15   0.1965626107E-01  -0.9848130537E-02  -0.9848130537E-02  -0.2687470481E-17  -0.4222222041E-16  -0.3361539322E-16   0.1000001001E+02
   0.1019656261E+01   0.0000000000E+00  -0.2368263472E-16  -0.2474981481E-01   0.0000000000E+00  -0.2306146347E-16   0.4440607586E-01   0.0000000000E+00  -0.6211712472E-18  -0.1000000668E+02   0.3330850648E-05   0.3330850646E-05   0.1386602654E-14   0.1255212705E-14   0.8871936743E-15   0.1965626107E-01  -0.9848130537E-02  -0.9848130537E-02  -0.8868014744E-16  -0.5341006807E-16  -0.5499594960E-17   0.1000001001E+02
   0.1019656261E+01   0.9901518695E+00  -0.2786956475E-16  -0.2474981481E-01   0.1237265741E-01  -0.1068633974E-16   0.4440607586E-01  -0.2222078793E-01  -0.1718322502E-16  -0.1000000668E+02   0.3330849625E-05   0.3330849623E-05   0.1948805320E-14  -0.1292302079E-14  -0.5250115255E-15   0.1965626107E-01  -0.9848130536E-02  -0.9848130536E-02  -0.1162507235E-15   0.1118204318E-15  -0.6878265340E-16   0.1000001001E+02
   0.0000000000E+00   0.9901518695E+00  -0.1635766613E-16   0.0000000000E+00   0.1237265741E-01   0.4203409294E-17   0.0000000000E+00  -0.2222078793E-01  -0.2056107542E-16  -0.1000000668E+02   0.3330850341E-05   0.3330850343E-05  -0.2674913688E-15  -0.6244081630E-15  -0.1975392533E-14   0.1965626107E-01  -0.9848130536E-02  -0.9848130536E-02   0.4957930136E-16  -0.2981399484E-16  -0.2303323259E-16   0.1000001001E+02
   0.0000000000E+00   0.0000000000E+00   0.9901518695E+00   0.0000000000E+00   0.0000000000E+00   0.1237265741E-01   0.0000000000E+00   0.0000000000E+00  -0.2222078793E-01  -0.1000000668E+02   0.3330850765E-05   0.3330850766E-05  -0.8145978176E-16  -0.7740369039E-15   0.8190731882E-15   0.1965626107E-01  -0.9848130536E-02  -0.9848130536E-02  -0.8693133751E-18  -0.5943994045E-16  -0.1725682109E-16   0.1000001001E+02
   0.1019656261E+01   0.0000000000E+00   0.9901518695E+00  -0.2474981481E-01   0.0000000000E+00   0.1237265741E-01   0.4440607586E-01   0.0000000000E+00  -0.2222078793E-01  -0.1000000668E+02   0.3330850454E-05   0.3330850456E-05  -0.1247710617E-14   0.1526320797E-14   0.1103437760E-14   0.1965626107E-01  -0.9848130536E-02  -0.9848130536E-02   0.3036311534E-16  -0.7624910917E-16   0.7286967379E-16   0.1000001001E+02
   0.1019656261E+01   0.9901518695E+00   0.9901518695E+00  -0.2474981481E-01   0.1237265741E-01   0.1237265741E-01   0.4440607586E-01  -0.2222078793E-01  -0.2222078793E-01  -0.1000000667E+02   0.3330849854E-05   0.3330849857E-05  -0.1518180113E-14  -0.1471966431E-14  -0.8712151133E-15   0.1965626107E-01  -0.9848130535E-02  -0.9848130535E-02  -0.5391073957E-17   0.6255004242E-16   0.3267386024E-16   0.1000001001E+02
   0.0000000000E+00   0.9901518695E+00   0.9901518695E+00   0.0000000000E+00   0.1237265741E-01   0.1237265741E-01   0.0000000000E+00  -0.2222078793E-01  -0.2222078793E-01  -0.1000000668E+02   0.3330850136E-05   0.3330850137E-05  -0.2792327732E-15  -0.3319253014E-15  -0.1805076329E-15   0.1965626107E-01  -0.9848130535E-02  -0.9848130535E-02  -0.7772548875E-16   0.5099923007E-16   0.6025308546E-17   0.1000001001E+02
   0.2039312522E+01   0.0000000000E+00  -0.4656178094E-16  -0.4949962963E-01   0.0000000000E+00  -0.7398424813E-16   0.8881215172E-01   0.0000000000E+00   0.2742246719E-16  -0.1000000668E+02   0.3330852252E-05   0.3330852248E-05  -0.2033700903E-15   0.8143335183E-15   0.1414705417E-14   0.1965626107E-01  -0.9848130537E-02  -0.9848130537E-02  -0.3633423042E-16   0.1318600133E-15   0.2009105416E-16   0.1000001001E+02
   0.2039312522E+01   0.9901518695E+00  -0.3905765441E-16  -0.4949962963E-01   0.1237265741E-01  -0.5707701809E-16   0.8881215172E-01  -0.2222078793E-01   0.1801936369E-16  -0.1000000668E+02   0.3330849121E-05   0.3330849120E-05  -0.1949232057E-15  -0.2796522173E-15  -0.1610388630E-14   0.1965626107E-01  -0.9848130536E-02  -0.9848130536E-02  -0.1003999197E-15   0.2750535418E-15   0.1628710817E-16   0.1000001001E+02
   0.2039312522E+01   0.0000000000E+00   0.9901518695E+00  -0.4949962963E-01   0.0000000000E+00   0.1237265741E-01   0.8881215172E-01   0.0000000000E+00  -0.2222078793E-01  -0.1000000668E+02   0.3330849565E-05   0.3330849569E-05  -0.2135582480E-14   0.1149031252E-15   0.1487247246E-14   0.1965626107E-01  -0.9848130536E-02  -0.9848130536E-02   0.4291584094E-16   0.3782796825E-16   0.8760362243E-16   0.1000001001E+02
   0.2039312522E+01   0.9901518695E+00   0.9901518695E+00  -0.4949962963E-01   0.1237265741E-01   0.1237265741E-01   0.8881215172E-01  -0.2222078793E-01  -0.2222078793E-01  -0.1000000667E+02   0.3330850533E-05   0.3330850532E-05  -0.1942557964E-14   0.1798199366E-14  -0.4849440836E-15   0.1965626107E-01  -0.9848130534E-02  -0.9848130534E-02   0.1389287717E-15   0.1495618392E-15   0.8347212628E-16   0.1000001001E+02
     1     2     3     4     5     6     7     8
     2     9    10     3     6    11    12     7
