 VARIABLES = X,Y,Z,DU1,DU2,DU3,U1,U2,U3,S11,S22,S33,S12,S13,S23,MISES
 ZONE, T="0.1000D+01" F=FEPOINT, I=   12 J=    2 ET=BRICK
   0.0000000000E+00   0.0000000000E+00   0.0000000000E+00   0.0000000000E+00   0.0000000000E+00   0.0000000000E+00   0.0000000000E+00   0.0000000000E+00   0.0000000000E+00   0.3027288371E+02   0.1743602870E-07   0.1743603755E-07  -0.1043143405E-13   0.1254726463E-13   0.5234094991E-14   0.0000000000E+00
   0.1900000000E+01  -0.4241595859E-15   0.5612003540E-15   0.9000000000E+00  -0.4241595859E-15   0.5612003540E-15   0.0000000000E+00   0.0000000000E+00   0.0000000000E+00   0.3027288371E+02   0.1743646235E-07   0.1743646141E-07  -0.4938646677E-14   0.7352737224E-14  -0.1686758903E-14   0.0000000000E+00
   0.1900000000E+01   0.7291274386E+00  -0.1322553420E-14   0.9000000000E+00  -0.2708725614E+00  -0.1322553420E-14   0.0000000000E+00   0.0000000000E+00   0.0000000000E+00   0.3027288370E+02   0.1743659896E-07   0.1743660057E-07  -0.5780526114E-14  -0.1241085060E-13  -0.2664120046E-14   0.0000000000E+00
   0.0000000000E+00   0.7291274386E+00   0.0000000000E+00   0.0000000000E+00  -0.2708725614E+00   0.0000000000E+00   0.0000000000E+00   0.0000000000E+00   0.0000000000E+00   0.3027288370E+02   0.1743612662E-07   0.1743611854E-07  -0.5278903463E-14  -0.2994326389E-13   0.7097468988E-14   0.0000000000E+00
   0.0000000000E+00   0.7621962700E-15   0.7291274386E+00   0.0000000000E+00   0.7621962700E-15  -0.2708725614E+00   0.0000000000E+00   0.0000000000E+00   0.0000000000E+00   0.3027288370E+02   0.1743686075E-07   0.1743686554E-07   0.9338264699E-14  -0.3543743675E-14  -0.1655956097E-14   0.0000000000E+00
   0.1900000000E+01   0.1220544912E-14   0.7291274386E+00   0.9000000000E+00   0.1220544912E-14  -0.2708725614E+00   0.0000000000E+00   0.0000000000E+00   0.0000000000E+00   0.3027288370E+02   0.1743606774E-07   0.1743606151E-07   0.6191629484E-14   0.2939458698E-14   0.2033777636E-14   0.0000000000E+00
   0.1900000000E+01   0.7291274386E+00   0.7291274386E+00   0.9000000000E+00  -0.2708725614E+00  -0.2708725614E+00   0.0000000000E+00   0.0000000000E+00   0.0000000000E+00   0.3027288370E+02   0.1743646605E-07   0.1743646624E-07   0.4654030557E-14  -0.6677582887E-14   0.1056416492E-14   0.0000000000E+00
   0.0000000000E+00   0.7291274386E+00   0.7291274386E+00   0.0000000000E+00  -0.2708725614E+00  -0.2708725614E+00   0.0000000000E+00   0.0000000000E+00   0.0000000000E+00   0.3027288370E+02   0.1743603416E-07   0.1743602499E-07   0.7231772266E-14  -0.1014401610E-13   0.2074179002E-15   0.0000000000E+00
   0.3800000000E+01  -0.3994628200E-15   0.5465821920E-15   0.1800000000E+01  -0.3994628200E-15   0.5465821920E-15   0.0000000000E+00   0.0000000000E+00   0.0000000000E+00   0.3027288371E+02   0.1743610596E-07   0.1743610601E-07   0.2395437476E-14  -0.3879196445E-14  -0.3314501264E-16   0.0000000000E+00
   0.3800000000E+01   0.7291274386E+00  -0.1333420822E-14   0.1800000000E+01  -0.2708725614E+00  -0.1333420822E-14   0.0000000000E+00   0.0000000000E+00   0.0000000000E+00   0.3027288370E+02   0.1743678172E-07   0.1743678206E-07  -0.4440851982E-14   0.8169567346E-14   0.8503458916E-15   0.0000000000E+00
   0.3800000000E+01   0.1488114608E-14   0.7291274386E+00   0.1800000000E+01   0.1488114608E-14  -0.2708725614E+00   0.0000000000E+00   0.0000000000E+00   0.0000000000E+00   0.3027288370E+02   0.1743634506E-07   0.1743634633E-07   0.4418974714E-14   0.3385254806E-14   0.9018446569E-15   0.0000000000E+00
   0.3800000000E+01   0.7291274386E+00   0.7291274386E+00   0.1800000000E+01  -0.2708725614E+00  -0.2708725614E+00   0.0000000000E+00   0.0000000000E+00   0.0000000000E+00   0.3027288370E+02   0.1743610571E-07   0.1743610638E-07   0.3450269291E-14  -0.1631450129E-15   0.1785335561E-14   0.0000000000E+00
     1     2     3     4     5     6     7     8
     2     9    10     3     6    11    12     7
 VARIABLES = X,Y,Z,DU1,DU2,DU3,U1,U2,U3,S11,S22,S33,S12,S13,S23,MISES
 ZONE, T="0.2000D+01" F=FEPOINT, I=   12 J=    2 ET=BRICK
   0.0000000000E+00   0.0000000000E+00   0.0000000000E+00   0.0000000000E+00   0.0000000000E+00   0.0000000000E+00   0.0000000000E+00   0.0000000000E+00   0.0000000000E+00   0.2953201731E+02   0.7407941417E+00  -0.3666219640E-04   0.4677419725E+01  -0.1135928764E-05  -0.1799134634E-06   0.0000000000E+00
   0.1876607837E+01   0.2972255500E+00  -0.4103494048E-07  -0.2339216339E-01   0.2972255500E+00  -0.4103494104E-07   0.9000000000E+00  -0.4241595859E-15   0.5612003540E-15   0.2953201903E+02   0.7407914800E+00  -0.3571839033E-04   0.4677418455E+01   0.9280733698E-14  -0.2580820170E-13   0.0000000000E+00
   0.1762547197E+01   0.1017376087E+01  -0.4103494172E-07  -0.1374528032E+00   0.2882486485E+00  -0.4103494039E-07   0.9000000000E+00  -0.2708725614E+00  -0.1322553420E-14   0.2953201903E+02   0.7407914799E+00  -0.3571838991E-04   0.4677418454E+01  -0.1619285831E-13   0.2434657248E-13   0.0000000000E+00
  -0.1140606608E+00   0.7201506699E+00   0.0000000000E+00  -0.1140606608E+00  -0.8976768687E-02   0.0000000000E+00   0.0000000000E+00  -0.2708725614E+00   0.0000000000E+00   0.2953201847E+02   0.7407929767E+00  -0.3666219629E-04   0.4677416140E+01  -0.1135928797E-05  -0.1799134117E-06   0.0000000000E+00
  -0.1192337657E-15   0.7528123691E-15   0.7291274386E+00  -0.1192337657E-15  -0.9383900875E-17   0.0000000000E+00   0.0000000000E+00   0.7621962700E-15  -0.2708725614E+00   0.2953201731E+02   0.7407941416E+00  -0.3666219622E-04   0.4677419725E+01   0.1135928771E-05   0.1799134690E-06   0.0000000000E+00
   0.1876607837E+01   0.2972255500E+00   0.7291274796E+00  -0.2339216339E-01   0.2972255500E+00   0.4103494103E-07   0.9000000000E+00   0.1220544912E-14  -0.2708725614E+00   0.2953201903E+02   0.7407914799E+00  -0.3571839024E-04   0.4677418454E+01  -0.3154814549E-14   0.2687558157E-13   0.0000000000E+00
   0.1762547197E+01   0.1017376087E+01   0.7291274796E+00  -0.1374528032E+00   0.2882486485E+00   0.4103494116E-07   0.9000000000E+00  -0.2708725614E+00  -0.2708725614E+00   0.2953201902E+02   0.7407914798E+00  -0.3571839026E-04   0.4677418454E+01  -0.1463501921E-14  -0.2857243624E-13   0.0000000000E+00
  -0.1140606608E+00   0.7201506699E+00   0.7291274386E+00  -0.1140606608E+00  -0.8976768687E-02   0.0000000000E+00   0.0000000000E+00  -0.2708725614E+00  -0.2708725614E+00   0.2953201847E+02   0.7407929766E+00  -0.3666219691E-04   0.4677416139E+01   0.1135928777E-05   0.1799134170E-06   0.0000000000E+00
   0.3753215694E+01   0.5944509672E+00   0.5465821920E-15  -0.4678430574E-01   0.5944509672E+00   0.0000000000E+00   0.1800000000E+01  -0.3994628200E-15   0.5465821920E-15   0.2953201848E+02   0.7407929767E+00  -0.3666219554E-04   0.4677416140E+01   0.1135928780E-05   0.1799134166E-06   0.0000000000E+00
   0.3639155033E+01   0.1314601637E+01  -0.1333420822E-14  -0.1608449665E+00   0.5854741985E+00   0.0000000000E+00   0.1800000000E+01  -0.2708725614E+00  -0.1333420822E-14   0.2953201731E+02   0.7407941415E+00  -0.3666219637E-04   0.4677419724E+01   0.1135928763E-05   0.1799134681E-06   0.0000000000E+00
   0.3753215694E+01   0.5944509672E+00   0.7291274386E+00  -0.4678430574E-01   0.5944509672E+00   0.5551115123E-16   0.1800000000E+01   0.1488114608E-14  -0.2708725614E+00   0.2953201847E+02   0.7407929767E+00  -0.3666219576E-04   0.4677416139E+01  -0.1135928779E-05  -0.1799134158E-06   0.0000000000E+00
   0.3639155033E+01   0.1314601637E+01   0.7291274386E+00  -0.1608449665E+00   0.5854741985E+00   0.5551115123E-16   0.1800000000E+01  -0.2708725614E+00  -0.2708725614E+00   0.2953201730E+02   0.7407941415E+00  -0.3666219555E-04   0.4677419724E+01  -0.1135928780E-05  -0.1799134718E-06   0.0000000000E+00
     1     2     3     4     5     6     7     8
     2     9    10     3     6    11    12     7
 VARIABLES = X,Y,Z,DU1,DU2,DU3,U1,U2,U3,S11,S22,S33,S12,S13,S23,MISES
 ZONE, T="0.3000D+01" F=FEPOINT, I=   12 J=    2 ET=BRICK
   0.0000000000E+00   0.0000000000E+00   0.0000000000E+00   0.0000000000E+00   0.0000000000E+00   0.0000000000E+00   0.0000000000E+00   0.0000000000E+00   0.0000000000E+00   0.2738207391E+02   0.2890797870E+01  -0.6043105367E-05   0.8896978357E+01  -0.1077975060E-05  -0.3502553420E-06   0.0000000000E+00
   0.1807007367E+01   0.5871323319E+00  -0.4044129413E-07  -0.6960046949E-01   0.2899067819E+00   0.5936463475E-09   0.8766078366E+00   0.2972255500E+00  -0.4103494048E-07   0.2738207471E+02   0.2890795955E+01  -0.4921720716E-05   0.8896977789E+01   0.1067014898E-13  -0.1602714881E-13   0.0000000000E+00
   0.1581694625E+01   0.1280573648E+01  -0.4044129561E-07  -0.1808525716E+00   0.2631975614E+00   0.5936461030E-09   0.7625471968E+00   0.1737608706E-01  -0.4103494172E-07   0.2738207470E+02   0.2890795955E+01  -0.4921720555E-05   0.8896977788E+01  -0.1461071216E-13   0.1363594467E-13   0.0000000000E+00
  -0.2253127696E+00   0.6934414017E+00   0.0000000000E+00  -0.1112521088E+00  -0.2670926822E-01   0.0000000000E+00  -0.1140606608E+00  -0.2798493301E+00   0.0000000000E+00   0.2738207539E+02   0.2890796394E+01  -0.6043101586E-05   0.8896976325E+01  -0.1077975102E-05  -0.3502553157E-06   0.0000000000E+00
  -0.2355316005E-15   0.7248917292E-15   0.7291274386E+00  -0.1162978347E-15  -0.2792063984E-16   0.0000000000E+00  -0.1192337657E-15   0.7528123691E-15  -0.2708725614E+00   0.2738207391E+02   0.2890797869E+01  -0.6043105444E-05   0.8896978356E+01   0.1077975070E-05   0.3502553490E-06   0.0000000000E+00
   0.1807007367E+01   0.5871323319E+00   0.7291274790E+00  -0.6960046949E-01   0.2899067819E+00  -0.5936462289E-09   0.8766078366E+00   0.2972255500E+00  -0.2708725204E+00   0.2738207470E+02   0.2890795955E+01  -0.4921720820E-05   0.8896977788E+01  -0.4703673867E-14   0.1905498563E-13   0.0000000000E+00
   0.1581694625E+01   0.1280573648E+01   0.7291274790E+00  -0.1808525716E+00   0.2631975614E+00  -0.5936461002E-09   0.7625471968E+00   0.1737608706E-01  -0.2708725204E+00   0.2738207470E+02   0.2890795954E+01  -0.4921721109E-05   0.8896977787E+01   0.1056160318E-14  -0.1608642794E-13   0.0000000000E+00
  -0.2253127696E+00   0.6934414017E+00   0.7291274386E+00  -0.1112521088E+00  -0.2670926822E-01   0.0000000000E+00  -0.1140606608E+00  -0.2798493301E+00  -0.2708725614E+00   0.2738207538E+02   0.2890796394E+01  -0.6043101420E-05   0.8896976324E+01   0.1077975081E-05   0.3502553175E-06   0.0000000000E+00
   0.3614014762E+01   0.1174264579E+01   0.5465821920E-15  -0.1392009323E+00   0.5798136115E+00   0.0000000000E+00   0.1753215694E+01   0.5944509672E+00   0.5465821920E-15   0.2738207539E+02   0.2890796394E+01  -0.6043100747E-05   0.8896976326E+01   0.1077975079E-05   0.3502553137E-06   0.0000000000E+00
   0.3388701992E+01   0.1867705980E+01  -0.1333420822E-14  -0.2504530411E+00   0.5531043432E+00   0.0000000000E+00   0.1639155033E+01   0.3146016371E+00  -0.1333420822E-14   0.2738207391E+02   0.2890797869E+01  -0.6043105090E-05   0.8896978355E+01   0.1077975067E-05   0.3502553494E-06   0.0000000000E+00
   0.3614014762E+01   0.1174264579E+01   0.7291274386E+00  -0.1392009323E+00   0.5798136115E+00   0.0000000000E+00   0.1753215694E+01   0.5944509672E+00  -0.2708725614E+00   0.2738207538E+02   0.2890796394E+01  -0.6043101115E-05   0.8896976325E+01  -0.1077975078E-05  -0.3502553179E-06   0.0000000000E+00
   0.3388701992E+01   0.1867705980E+01   0.7291274386E+00  -0.2504530411E+00   0.5531043432E+00   0.0000000000E+00   0.1639155033E+01   0.3146016371E+00  -0.2708725614E+00   0.2738207391E+02   0.2890797869E+01  -0.6043105443E-05   0.8896978354E+01  -0.1077975080E-05  -0.3502553541E-06   0.0000000000E+00
     1     2     3     4     5     6     7     8
     2     9    10     3     6    11    12     7
 VARIABLES = X,Y,Z,DU1,DU2,DU3,U1,U2,U3,S11,S22,S33,S12,S13,S23,MISES
 ZONE, T="0.4000D+01" F=FEPOINT, I=   12 J=    2 ET=BRICK
   0.0000000000E+00   0.0000000000E+00   0.0000000000E+00   0.0000000000E+00   0.0000000000E+00   0.0000000000E+00   0.0000000000E+00   0.0000000000E+00   0.0000000000E+00   0.2403341222E+02   0.6239459565E+01  -0.6043567348E-05   0.1224563950E+02  -0.1009979182E-05  -0.5146101111E-06   0.0000000000E+00
   0.1692912376E+01   0.8625819894E+00  -0.4044400881E-07  -0.1140949915E+00   0.2754496575E+00  -0.2714682035E-11   0.8070073671E+00   0.5871323319E+00  -0.4044129413E-07   0.2403341312E+02   0.6239457541E+01  -0.4922108388E-05   0.1224563938E+02   0.1235377381E-13  -0.1405433678E-13   0.0000000000E+00
   0.1361895486E+01   0.1512239214E+01  -0.4044401007E-07  -0.2197991391E+00   0.2316655659E+00  -0.2714462607E-11   0.5816946252E+00   0.2805736484E+00  -0.4044129561E-07   0.2403341312E+02   0.6239457540E+01  -0.4922108342E-05   0.1224563937E+02  -0.2067690810E-13   0.9400655424E-14   0.0000000000E+00
  -0.3310169302E+00   0.6496573047E+00   0.0000000000E+00  -0.1057041606E+00  -0.4378409693E-01   0.0000000000E+00  -0.2253127696E+00  -0.3065585983E+00   0.0000000000E+00   0.2403341425E+02   0.6239457534E+01  -0.6043563673E-05   0.1224563802E+02  -0.1009979223E-05  -0.5146100894E-06   0.0000000000E+00
  -0.3460298655E-15   0.6791218493E-15   0.7291274386E+00  -0.1104982650E-15  -0.4576988000E-16   0.0000000000E+00  -0.2355316005E-15   0.7248917292E-15  -0.2708725614E+00   0.2403341221E+02   0.6239459564E+01  -0.6043568021E-05   0.1224563950E+02   0.1009979185E-05   0.5146101165E-06   0.0000000000E+00
   0.1692912376E+01   0.8625819894E+00   0.7291274790E+00  -0.1140949915E+00   0.2754496575E+00   0.2714440340E-11   0.8070073671E+00   0.5871323319E+00  -0.2708725210E+00   0.2403341312E+02   0.6239457540E+01  -0.4922108275E-05   0.1224563937E+02  -0.7656869120E-14   0.1711928824E-13   0.0000000000E+00
   0.1361895486E+01   0.1512239214E+01   0.7291274790E+00  -0.2197991391E+00   0.2316655659E+00   0.2714503982E-11   0.5816946252E+00   0.2805736484E+00  -0.2708725210E+00   0.2403341311E+02   0.6239457540E+01  -0.4922108378E-05   0.1224563937E+02   0.2867785418E-15  -0.1849657932E-13   0.0000000000E+00
  -0.3310169302E+00   0.6496573047E+00   0.7291274386E+00  -0.1057041606E+00  -0.4378409693E-01   0.0000000000E+00  -0.2253127696E+00  -0.3065585983E+00  -0.2708725614E+00   0.2403341424E+02   0.6239457533E+01  -0.6043563489E-05   0.1224563802E+02   0.1009979203E-05   0.5146100880E-06   0.0000000000E+00
   0.3385824792E+01   0.1725163899E+01   0.5465821920E-15  -0.2281899700E+00   0.5508993204E+00   0.0000000000E+00   0.1614014762E+01   0.1174264579E+01   0.5465821920E-15   0.2403341425E+02   0.6239457534E+01  -0.6043563891E-05   0.1224563802E+02   0.1009979206E-05   0.5146100849E-06   0.0000000000E+00
   0.3054807862E+01   0.2374821204E+01  -0.1333420822E-14  -0.3338941306E+00   0.5071152235E+00   0.0000000000E+00   0.1388701992E+01   0.8677059803E+00  -0.1333420822E-14   0.2403341221E+02   0.6239459564E+01  -0.6043567758E-05   0.1224563950E+02   0.1009979186E-05   0.5146101163E-06   0.0000000000E+00
   0.3385824792E+01   0.1725163899E+01   0.7291274386E+00  -0.2281899700E+00   0.5508993204E+00   0.0000000000E+00   0.1614014762E+01   0.1174264579E+01  -0.2708725614E+00   0.2403341424E+02   0.6239457533E+01  -0.6043563940E-05   0.1224563802E+02  -0.1009979197E-05  -0.5146100880E-06   0.0000000000E+00
   0.3054807862E+01   0.2374821204E+01   0.7291274386E+00  -0.3338941306E+00   0.5071152235E+00   0.0000000000E+00   0.1388701992E+01   0.8677059803E+00  -0.2708725614E+00   0.2403341221E+02   0.6239459563E+01  -0.6043567755E-05   0.1224563949E+02  -0.1009979194E-05  -0.5146101246E-06   0.0000000000E+00
     1     2     3     4     5     6     7     8
     2     9    10     3     6    11    12     7
 VARIABLES = X,Y,Z,DU1,DU2,DU3,U1,U2,U3,S11,S22,S33,S12,S13,S23,MISES
 ZONE, T="0.5000D+01" F=FEPOINT, I=   12 J=    2 ET=BRICK
   0.0000000000E+00   0.0000000000E+00   0.0000000000E+00   0.0000000000E+00   0.0000000000E+00   0.0000000000E+00   0.0000000000E+00   0.0000000000E+00   0.0000000000E+00   0.1981385249E+02   0.1045901929E+02  -0.6043490547E-05   0.1439561212E+02  -0.9170308525E-06  -0.6662619288E-06   0.0000000000E+00
   0.1537132263E+01   0.1116792016E+01  -0.4044352136E-07  -0.1557801126E+00   0.2542100262E+00   0.4874551216E-12   0.6929123756E+00   0.8625819894E+00  -0.4044400881E-07   0.1981385336E+02   0.1045901730E+02  -0.4922045203E-05   0.1439561246E+02   0.1362260356E-13  -0.9405469594E-14   0.0000000000E+00
   0.1108561960E+01   0.1706668432E+01  -0.4044352235E-07  -0.2533335259E+00   0.1944292177E+00   0.4877291469E-12   0.3618954861E+00   0.5122392144E+00  -0.4044401007E-07   0.1981385336E+02   0.1045901730E+02  -0.4922045108E-05   0.1439561246E+02  -0.1901731193E-13   0.7281974315E-14   0.0000000000E+00
  -0.4285703554E+00   0.5898764889E+00   0.0000000000E+00  -0.9755342523E-01  -0.5978081586E-01   0.0000000000E+00  -0.3310169302E+00  -0.3503426953E+00   0.0000000000E+00   0.1981385487E+02   0.1045901690E+02  -0.6043487356E-05   0.1439561135E+02  -0.9170308894E-06  -0.6662619100E-06   0.0000000000E+00
  -0.4480077268E-15   0.6166297355E-15   0.7291274386E+00  -0.1019778613E-15  -0.6249211380E-16   0.0000000000E+00  -0.3460298655E-15   0.6791218493E-15  -0.2708725614E+00   0.1981385249E+02   0.1045901929E+02  -0.6043491241E-05   0.1439561212E+02   0.9170308478E-06   0.6662619311E-06   0.0000000000E+00
   0.1537132263E+01   0.1116792016E+01   0.7291274790E+00  -0.1557801126E+00   0.2542100262E+00  -0.4877592674E-12   0.6929123756E+00   0.8625819894E+00  -0.2708725210E+00   0.1981385336E+02   0.1045901730E+02  -0.4922045033E-05   0.1439561246E+02  -0.1060423084E-13   0.1758595678E-13   0.0000000000E+00
   0.1108561960E+01   0.1706668432E+01   0.7291274790E+00  -0.2533335259E+00   0.1944292177E+00  -0.4876265678E-12   0.3618954861E+00   0.5122392144E+00  -0.2708725210E+00   0.1981385335E+02   0.1045901730E+02  -0.4922045065E-05   0.1439561246E+02   0.6268814068E-14  -0.1780185405E-13   0.0000000000E+00
  -0.4285703554E+00   0.5898764889E+00   0.7291274386E+00  -0.9755342523E-01  -0.5978081586E-01   0.0000000000E+00  -0.3310169302E+00  -0.3503426953E+00  -0.2708725614E+00   0.1981385487E+02   0.1045901690E+02  -0.6043487228E-05   0.1439561134E+02   0.9170308727E-06   0.6662619067E-06   0.0000000000E+00
   0.3074264579E+01   0.2233583959E+01   0.5465821920E-15  -0.3115602133E+00   0.5084200597E+00   0.0000000000E+00   0.1385824792E+01   0.1725163899E+01   0.5465821920E-15   0.1981385488E+02   0.1045901691E+02  -0.6043487084E-05   0.1439561135E+02   0.9170308755E-06   0.6662619099E-06   0.0000000000E+00
   0.2645694223E+01   0.2823460448E+01  -0.1333420822E-14  -0.4091136385E+00   0.4486392438E+00   0.0000000000E+00   0.1054807862E+01   0.1374821204E+01  -0.1333420822E-14   0.1981385249E+02   0.1045901929E+02  -0.6043490995E-05   0.1439561212E+02   0.9170308534E-06   0.6662619318E-06   0.0000000000E+00
   0.3074264579E+01   0.2233583959E+01   0.7291274386E+00  -0.3115602133E+00   0.5084200597E+00   0.0000000000E+00   0.1385824792E+01   0.1725163899E+01  -0.2708725614E+00   0.1981385487E+02   0.1045901690E+02  -0.6043487631E-05   0.1439561135E+02  -0.9170308690E-06  -0.6662619014E-06   0.0000000000E+00
   0.2645694223E+01   0.2823460448E+01   0.7291274386E+00  -0.4091136385E+00   0.4486392438E+00   0.0000000000E+00   0.1054807862E+01   0.1374821204E+01  -0.2708725614E+00   0.1981385248E+02   0.1045901929E+02  -0.6043491478E-05   0.1439561212E+02  -0.9170308539E-06  -0.6662619405E-06   0.0000000000E+00
     1     2     3     4     5     6     7     8
     2     9    10     3     6    11    12     7
 VARIABLES = X,Y,Z,DU1,DU2,DU3,U1,U2,U3,S11,S22,S33,S12,S13,S23,MISES
 ZONE, T="0.6000D+01" F=FEPOINT, I=   12 J=    2 ET=BRICK
   0.0000000000E+00   0.0000000000E+00   0.0000000000E+00   0.0000000000E+00   0.0000000000E+00   0.0000000000E+00   0.0000000000E+00   0.0000000000E+00   0.0000000000E+00   0.1513643464E+02   0.1513643715E+02  -0.6043491368E-05   0.1513644193E+02  -0.8015143508E-06  -0.8015143677E-06   0.0000000000E+00
   0.1343502853E+01   0.1343502916E+01  -0.4044352129E-07  -0.1936294104E+00   0.2267109003E+00   0.6608889868E-16   0.5371322630E+00   0.1116792016E+01  -0.4044352136E-07   0.1513643533E+02   0.1513643533E+02  -0.4922044875E-05   0.1513644270E+02   0.1755622230E-13  -0.1077240210E-13   0.0000000000E+00
   0.8279319597E+00   0.1859073809E+01  -0.4044352269E-07  -0.2806300004E+00   0.1524053768E+00  -0.3409612545E-15   0.1085619602E+00   0.7066684320E+00  -0.4044352235E-07   0.1513643533E+02   0.1513643533E+02  -0.4922045060E-05   0.1513644269E+02  -0.2318746014E-13   0.2692672366E-14   0.0000000000E+00
  -0.5155709562E+00   0.5155709562E+00   0.0000000000E+00  -0.8700060073E-01  -0.7430553271E-01   0.0000000000E+00  -0.4285703554E+00  -0.4101235111E+00   0.0000000000E+00   0.1513643714E+02   0.1513643463E+02  -0.6043487082E-05   0.1513644193E+02  -0.8015143998E-06  -0.8015143639E-06   0.0000000000E+00
  -0.5389541511E-15   0.5389541511E-15   0.7291274386E+00  -0.9094642425E-16  -0.7767558436E-16   0.0000000000E+00  -0.4480077268E-15   0.6166297355E-15  -0.2708725614E+00   0.1513643463E+02   0.1513643714E+02  -0.6043490399E-05   0.1513644193E+02   0.8015143561E-06   0.8015143790E-06   0.0000000000E+00
   0.1343502853E+01   0.1343502916E+01   0.7291274790E+00  -0.1936294104E+00   0.2267109003E+00   0.4040211633E-15   0.5371322630E+00   0.1116792016E+01  -0.2708725210E+00   0.1513643533E+02   0.1513643533E+02  -0.4922045208E-05   0.1513644269E+02  -0.1117723461E-13   0.1195877713E-13   0.0000000000E+00
   0.8279319597E+00   0.1859073809E+01   0.7291274790E+00  -0.2806300004E+00   0.1524053768E+00   0.2641387543E-16   0.1085619602E+00   0.7066684320E+00  -0.2708725210E+00   0.1513643533E+02   0.1513643533E+02  -0.4922044793E-05   0.1513644269E+02   0.5988295219E-14  -0.1740526478E-13   0.0000000000E+00
  -0.5155709562E+00   0.5155709562E+00   0.7291274386E+00  -0.8700060073E-01  -0.7430553271E-01   0.0000000000E+00  -0.4285703554E+00  -0.4101235111E+00  -0.2708725614E+00   0.1513643714E+02   0.1513643463E+02  -0.6043488013E-05   0.1513644193E+02   0.8015143758E-06   0.8015143508E-06   0.0000000000E+00
   0.2687005769E+01   0.2687005769E+01   0.5465821920E-15  -0.3872588101E+00   0.4534218098E+00   0.0000000000E+00   0.1074264579E+01   0.2233583959E+01   0.5465821920E-15   0.1513643715E+02   0.1513643464E+02  -0.6043487675E-05   0.1513644193E+02   0.8015143765E-06   0.8015143554E-06   0.0000000000E+00
   0.2171434812E+01   0.3202576725E+01  -0.1333420822E-14  -0.4742594108E+00   0.3791162771E+00   0.0000000000E+00   0.6456942232E+00   0.1823460448E+01  -0.1333420822E-14   0.1513643463E+02   0.1513643714E+02  -0.6043490459E-05   0.1513644193E+02   0.8015143606E-06   0.8015143772E-06   0.0000000000E+00
   0.2687005769E+01   0.2687005769E+01   0.7291274386E+00  -0.3872588101E+00   0.4534218098E+00   0.0000000000E+00   0.1074264579E+01   0.2233583959E+01  -0.2708725614E+00   0.1513643714E+02   0.1513643463E+02  -0.6043486070E-05   0.1513644193E+02  -0.8015143818E-06  -0.8015143515E-06   0.0000000000E+00
   0.2171434812E+01   0.3202576725E+01   0.7291274386E+00  -0.4742594108E+00   0.3791162771E+00   0.0000000000E+00   0.6456942232E+00   0.1823460448E+01  -0.2708725614E+00   0.1513643463E+02   0.1513643714E+02  -0.6043491593E-05   0.1513644193E+02  -0.8015143506E-06  -0.8015143833E-06   0.0000000000E+00
     1     2     3     4     5     6     7     8
     2     9    10     3     6    11    12     7
 VARIABLES = X,Y,Z,DU1,DU2,DU3,U1,U2,U3,S11,S22,S33,S12,S13,S23,MISES
 ZONE, T="0.7000D+01" F=FEPOINT, I=   12 J=    2 ET=BRICK
   0.0000000000E+00   0.0000000000E+00   0.0000000000E+00   0.0000000000E+00   0.0000000000E+00   0.0000000000E+00   0.0000000000E+00   0.0000000000E+00   0.0000000000E+00   0.1045901691E+02   0.1981385488E+02  -0.6043491607E-05   0.1439561135E+02  -0.6662619049E-06  -0.9170308622E-06   0.0000000000E+00
   0.1116791943E+01   0.1537132316E+01  -0.4044352111E-07  -0.2267109095E+00   0.1936293997E+00   0.1843482506E-15   0.3435028526E+00   0.1343502916E+01  -0.4044352129E-07   0.1045901730E+02   0.1981385336E+02  -0.4922045053E-05   0.1439561246E+02   0.1926923945E-13  -0.4896567143E-14   0.0000000000E+00
   0.5269155267E+00   0.1965702618E+01  -0.4044352255E-07  -0.3010164330E+00   0.1066288097E+00   0.1369821682E-15  -0.1720680403E+00   0.8590738088E+00  -0.4044352269E-07   0.1045901730E+02   0.1981385336E+02  -0.4922045065E-05   0.1439561246E+02  -0.2188902198E-13  -0.1672748210E-16   0.0000000000E+00
  -0.5898764889E+00   0.4285703554E+00   0.0000000000E+00  -0.7430553271E-01  -0.8700060073E-01   0.0000000000E+00  -0.5155709562E+00  -0.4844290438E+00   0.0000000000E+00   0.1045901929E+02   0.1981385249E+02  -0.6043487122E-05   0.1439561212E+02  -0.6662619535E-06  -0.9170308654E-06   0.0000000000E+00
  -0.6166297355E-15   0.4480077268E-15   0.7291274386E+00  -0.7767558436E-16  -0.9094642425E-16   0.0000000000E+00  -0.5389541511E-15   0.5389541511E-15  -0.2708725614E+00   0.1045901690E+02   0.1981385487E+02  -0.6043490936E-05   0.1439561135E+02   0.6662619096E-06   0.9170308734E-06   0.0000000000E+00
   0.1116791943E+01   0.1537132316E+01   0.7291274790E+00  -0.2267109095E+00   0.1936293997E+00  -0.5187907395E-16   0.3435028526E+00   0.1343502916E+01  -0.2708725210E+00   0.1045901730E+02   0.1981385336E+02  -0.4922045130E-05   0.1439561246E+02  -0.1287240811E-13   0.1332814442E-13   0.0000000000E+00
   0.5269155267E+00   0.1965702618E+01   0.7291274790E+00  -0.3010164330E+00   0.1066288097E+00  -0.4468268203E-16  -0.1720680403E+00   0.8590738088E+00  -0.2708725210E+00   0.1045901730E+02   0.1981385335E+02  -0.4922045129E-05   0.1439561246E+02   0.9513100096E-14  -0.1551992159E-13   0.0000000000E+00
  -0.5898764889E+00   0.4285703554E+00   0.7291274386E+00  -0.7430553271E-01  -0.8700060073E-01   0.0000000000E+00  -0.5155709562E+00  -0.4844290438E+00  -0.2708725614E+00   0.1045901929E+02   0.1981385249E+02  -0.6043487257E-05   0.1439561212E+02   0.6662619345E-06   0.9170308501E-06   0.0000000000E+00
   0.2233583959E+01   0.3074264579E+01   0.5465821920E-15  -0.4534218098E+00   0.3872588101E+00   0.0000000000E+00   0.6870057685E+00   0.2687005769E+01   0.5465821920E-15   0.1045901929E+02   0.1981385249E+02  -0.6043487124E-05   0.1439561212E+02   0.6662619300E-06   0.9170308460E-06   0.0000000000E+00
   0.1643707470E+01   0.3502834934E+01  -0.1333420822E-14  -0.5277273425E+00   0.3002582094E+00   0.0000000000E+00   0.1714348123E+00   0.2202576725E+01  -0.1333420822E-14   0.1045901690E+02   0.1981385487E+02  -0.6043491609E-05   0.1439561135E+02   0.6662619122E-06   0.9170308742E-06   0.0000000000E+00
   0.2233583959E+01   0.3074264579E+01   0.7291274386E+00  -0.4534218098E+00   0.3872588101E+00   0.0000000000E+00   0.6870057685E+00   0.2687005769E+01  -0.2708725614E+00   0.1045901929E+02   0.1981385249E+02  -0.6043487259E-05   0.1439561212E+02  -0.6662619418E-06  -0.9170308579E-06   0.0000000000E+00
   0.1643707470E+01   0.3502834934E+01   0.7291274386E+00  -0.5277273425E+00   0.3002582094E+00   0.0000000000E+00   0.1714348123E+00   0.2202576725E+01  -0.2708725614E+00   0.1045901690E+02   0.1981385487E+02  -0.6043490963E-05   0.1439561134E+02  -0.6662619059E-06  -0.9170308771E-06   0.0000000000E+00
     1     2     3     4     5     6     7     8
     2     9    10     3     6    11    12     7
 VARIABLES = X,Y,Z,DU1,DU2,DU3,U1,U2,U3,S11,S22,S33,S12,S13,S23,MISES
 ZONE, T="0.8000D+01" F=FEPOINT, I=   12 J=    2 ET=BRICK
   0.0000000000E+00   0.0000000000E+00   0.0000000000E+00   0.0000000000E+00   0.0000000000E+00   0.0000000000E+00   0.0000000000E+00   0.0000000000E+00   0.0000000000E+00   0.6239457535E+01   0.2403341425E+02  -0.6043491557E-05   0.1224563802E+02  -0.5146038853E-06  -0.1009967019E-05   0.0000000000E+00
   0.8625819096E+00   0.1692912416E+01  -0.4044352131E-07  -0.2542100335E+00   0.1557801007E+00  -0.2065134088E-15   0.1167919431E+00   0.1537132316E+01  -0.4044352111E-07   0.6239457541E+01   0.2403341312E+02  -0.4922045081E-05   0.1224563938E+02   0.1868111401E-13  -0.4755563385E-14   0.0000000000E+00
   0.2129246847E+00   0.2023929306E+01  -0.4044352229E-07  -0.3139908420E+00   0.5822668741E-01   0.2558446077E-15  -0.4730844733E+00   0.9657026184E+00  -0.4044352255E-07   0.6239457540E+01   0.2403341312E+02  -0.4922045171E-05   0.1224563937E+02  -0.2015043893E-13  -0.3954997103E-15   0.0000000000E+00
  -0.6496573047E+00   0.3310169302E+00   0.0000000000E+00  -0.5978081586E-01  -0.9755342523E-01   0.0000000000E+00  -0.5898764889E+00  -0.5714296446E+00   0.0000000000E+00   0.6239459564E+01   0.2403341221E+02  -0.6043487078E-05   0.1224563950E+02  -0.5146039273E-06  -0.1009967021E-05   0.0000000000E+00
  -0.6791218493E-15   0.3460298655E-15   0.7291274386E+00  -0.6249211380E-16  -0.1019778613E-15   0.0000000000E+00  -0.6166297355E-15   0.4480077268E-15  -0.2708725614E+00   0.6239457534E+01   0.2403341425E+02  -0.6043491052E-05   0.1224563802E+02   0.5146038835E-06   0.1009967024E-05   0.0000000000E+00
   0.8625819096E+00   0.1692912416E+01   0.7291274790E+00  -0.2542100335E+00   0.1557801007E+00  -0.1737501744E-15   0.1167919431E+00   0.1537132316E+01  -0.2708725210E+00   0.6239457540E+01   0.2403341312E+02  -0.4922045176E-05   0.1224563937E+02  -0.1546567768E-13   0.7885594446E-14   0.0000000000E+00
   0.2129246847E+00   0.2023929306E+01   0.7291274790E+00  -0.3139908420E+00   0.5822668741E-01   0.2088579960E-15  -0.4730844733E+00   0.9657026184E+00  -0.2708725210E+00   0.6239457540E+01   0.2403341311E+02  -0.4922045151E-05   0.1224563937E+02   0.1407888908E-13  -0.1046227727E-13   0.0000000000E+00
  -0.6496573047E+00   0.3310169302E+00   0.7291274386E+00  -0.5978081586E-01  -0.9755342523E-01   0.0000000000E+00  -0.5898764889E+00  -0.5714296446E+00  -0.2708725614E+00   0.6239459564E+01   0.2403341221E+02  -0.6043487203E-05   0.1224563949E+02   0.5146039171E-06   0.1009967013E-05   0.0000000000E+00
   0.1725163899E+01   0.3385824792E+01   0.5465821920E-15  -0.5084200597E+00   0.3115602133E+00   0.0000000000E+00   0.2335839587E+00   0.3074264579E+01   0.5465821920E-15   0.6239459565E+01   0.2403341222E+02  -0.6043487019E-05   0.1224563950E+02   0.5146039117E-06   0.1009967020E-05   0.0000000000E+00
   0.1075506594E+01   0.3716841722E+01  -0.1333420822E-14  -0.5682008756E+00   0.2140067881E+00   0.0000000000E+00  -0.3562925302E+00   0.2502834934E+01  -0.1333420822E-14   0.6239457534E+01   0.2403341424E+02  -0.6043490782E-05   0.1224563802E+02   0.5146038829E-06   0.1009967016E-05   0.0000000000E+00
   0.1725163899E+01   0.3385824792E+01   0.7291274386E+00  -0.5084200597E+00   0.3115602133E+00   0.0000000000E+00   0.2335839587E+00   0.3074264579E+01  -0.2708725614E+00   0.6239459564E+01   0.2403341221E+02  -0.6043486794E-05   0.1224563950E+02  -0.5146039187E-06  -0.1009967001E-05   0.0000000000E+00
   0.1075506594E+01   0.3716841722E+01   0.7291274386E+00  -0.5682008756E+00   0.2140067881E+00   0.0000000000E+00  -0.3562925302E+00   0.2502834934E+01  -0.2708725614E+00   0.6239457533E+01   0.2403341424E+02  -0.6043490862E-05   0.1224563802E+02  -0.5146038865E-06  -0.1009967041E-05   0.0000000000E+00
     1     2     3     4     5     6     7     8
     2     9    10     3     6    11    12     7
 VARIABLES = X,Y,Z,DU1,DU2,DU3,U1,U2,U3,S11,S22,S33,S12,S13,S23,MISES
 ZONE, T="0.9000D+01" F=FEPOINT, I=   12 J=    2 ET=BRICK
   0.0000000000E+00   0.0000000000E+00   0.0000000000E+00   0.0000000000E+00   0.0000000000E+00   0.0000000000E+00   0.0000000000E+00   0.0000000000E+00   0.0000000000E+00   0.2890796394E+01   0.2738207539E+02  -0.6043491112E-05   0.8896976326E+01  -0.3502746045E-06  -0.1078034423E-05   0.0000000000E+00
   0.5871322467E+00   0.1807007395E+01  -0.4044352096E-07  -0.2754496629E+00   0.1140949785E+00   0.3554014721E-15  -0.1374180904E+00   0.1692912416E+01  -0.4044352131E-07   0.2890795954E+01   0.2738207471E+02  -0.4922044775E-05   0.8896977789E+01   0.2210869977E-13   0.4971445870E-15   0.0000000000E+00
  -0.1063090698E+00   0.2032320137E+01  -0.4044352252E-07  -0.3192337544E+00   0.8390830865E-02  -0.2288954074E-15  -0.7870753153E+00   0.1023929306E+01  -0.4044352229E-07   0.2890795954E+01   0.2738207470E+02  -0.4922044944E-05   0.8896977788E+01  -0.2107306176E-13  -0.5582342990E-14   0.0000000000E+00
  -0.6934414017E+00   0.2253127696E+00   0.0000000000E+00  -0.4378409693E-01  -0.1057041606E+00   0.0000000000E+00  -0.6496573047E+00  -0.6689830698E+00   0.0000000000E+00   0.2890797869E+01   0.2738207391E+02  -0.6043487379E-05   0.8896978356E+01  -0.3502746508E-06  -0.1078034448E-05   0.0000000000E+00
  -0.7248917292E-15   0.2355316005E-15   0.7291274386E+00  -0.4576988000E-16  -0.1104982650E-15   0.0000000000E+00  -0.6791218493E-15   0.3460298655E-15  -0.2708725614E+00   0.2890796394E+01   0.2738207539E+02  -0.6043491630E-05   0.8896976325E+01   0.3502746070E-06   0.1078034444E-05   0.0000000000E+00
   0.5871322467E+00   0.1807007395E+01   0.7291274790E+00  -0.2754496629E+00   0.1140949785E+00   0.2428477341E-15  -0.1374180904E+00   0.1692912416E+01  -0.2708725210E+00   0.2890795954E+01   0.2738207470E+02  -0.4922045062E-05   0.8896977788E+01  -0.1417314221E-13   0.8053695582E-14   0.0000000000E+00
  -0.1063090698E+00   0.2032320137E+01   0.7291274790E+00  -0.3192337544E+00   0.8390830865E-02  -0.2736187470E-15  -0.7870753153E+00   0.1023929306E+01  -0.2708725210E+00   0.2890795954E+01   0.2738207470E+02  -0.4922044778E-05   0.8896977787E+01   0.1348122964E-13  -0.1052863006E-13   0.0000000000E+00
  -0.6934414017E+00   0.2253127696E+00   0.7291274386E+00  -0.4378409693E-01  -0.1057041606E+00   0.0000000000E+00  -0.6496573047E+00  -0.6689830698E+00  -0.2708725614E+00   0.2890797869E+01   0.2738207391E+02  -0.6043487135E-05   0.8896978355E+01   0.3502746371E-06   0.1078034423E-05   0.0000000000E+00
   0.1174264579E+01   0.3614014762E+01   0.5465821920E-15  -0.5508993204E+00   0.2281899700E+00   0.0000000000E+00  -0.2748361010E+00   0.3385824792E+01   0.5465821920E-15   0.2890797869E+01   0.2738207391E+02  -0.6043487101E-05   0.8896978356E+01   0.3502746309E-06   0.1078034425E-05   0.0000000000E+00
   0.4808231769E+00   0.3839327532E+01  -0.1333420822E-14  -0.5946834173E+00   0.1224858094E+00   0.0000000000E+00  -0.9244934057E+00   0.2716841722E+01  -0.1333420822E-14   0.2890796394E+01   0.2738207538E+02  -0.6043490254E-05   0.8896976325E+01   0.3502746048E-06   0.1078034436E-05   0.0000000000E+00
   0.1174264579E+01   0.3614014762E+01   0.7291274386E+00  -0.5508993204E+00   0.2281899700E+00   0.0000000000E+00  -0.2748361010E+00   0.3385824792E+01  -0.2708725614E+00   0.2890797869E+01   0.2738207391E+02  -0.6043486896E-05   0.8896978355E+01  -0.3502746445E-06  -0.1078034429E-05   0.0000000000E+00
   0.4808231769E+00   0.3839327532E+01   0.7291274386E+00  -0.5946834173E+00   0.1224858094E+00   0.0000000000E+00  -0.9244934057E+00   0.2716841722E+01  -0.2708725614E+00   0.2890796393E+01   0.2738207538E+02  -0.6043491099E-05   0.8896976324E+01  -0.3502746053E-06  -0.1078034448E-05   0.0000000000E+00
     1     2     3     4     5     6     7     8
     2     9    10     3     6    11    12     7
 VARIABLES = X,Y,Z,DU1,DU2,DU3,U1,U2,U3,S11,S22,S33,S12,S13,S23,MISES
 ZONE, T="0.1000D+02" F=FEPOINT, I=   12 J=    2 ET=BRICK
   0.0000000000E+00   0.0000000000E+00   0.0000000000E+00   0.0000000000E+00   0.0000000000E+00   0.0000000000E+00   0.0000000000E+00   0.0000000000E+00   0.0000000000E+00   0.7408237679E+00   0.2953204801E+02  -0.6043491668E-05   0.4677416599E+01  -0.1773204060E-06  -0.1119557059E-05   0.0000000000E+00
   0.2972254394E+00   0.1876607854E+01  -0.4044352122E-07  -0.2899068074E+00   0.6960045934E-01  -0.2650738786E-15  -0.4128677533E+00   0.1807007395E+01  -0.4044352096E-07   0.7408228703E+00   0.2953204779E+02  -0.4922045016E-05   0.4677418028E+01   0.2115777980E-13   0.2834535616E-14   0.0000000000E+00
  -0.4229251421E+00   0.1990668501E+01  -0.4044352236E-07  -0.3166160723E+00  -0.4165163579E-01   0.1608075110E-15  -0.1106309070E+01   0.1032320137E+01  -0.4044352252E-07   0.7408228702E+00   0.2953204779E+02  -0.4922044381E-05   0.4677418027E+01  -0.1909839972E-13  -0.1003519953E-13   0.0000000000E+00
  -0.7201506699E+00   0.1140606608E+00   0.0000000000E+00  -0.2670926822E-01  -0.1112521088E+00   0.0000000000E+00  -0.6934414017E+00  -0.7746872304E+00   0.0000000000E+00   0.7408245434E+00   0.2953204724E+02  -0.6043487328E-05   0.4677418985E+01  -0.1773204456E-06  -0.1119557078E-05   0.0000000000E+00
  -0.7528123691E-15   0.1192337657E-15   0.7291274386E+00  -0.2792063984E-16  -0.1162978347E-15   0.0000000000E+00  -0.7248917292E-15   0.2355316005E-15  -0.2708725614E+00   0.7408237678E+00   0.2953204801E+02  -0.6043491138E-05   0.4677416598E+01   0.1773204023E-06   0.1119557063E-05   0.0000000000E+00
   0.2972254394E+00   0.1876607854E+01   0.7291274790E+00  -0.2899068074E+00   0.6960045934E-01  -0.2706846249E-15  -0.4128677533E+00   0.1807007395E+01  -0.2708725210E+00   0.7408228702E+00   0.2953204779E+02  -0.4922044715E-05   0.4677418027E+01  -0.1595968360E-13   0.5273089170E-14   0.0000000000E+00
  -0.4229251421E+00   0.1990668501E+01   0.7291274790E+00  -0.3166160723E+00  -0.4165163579E-01   0.1387711018E-15  -0.1106309070E+01   0.1032320137E+01  -0.2708725210E+00   0.7408228701E+00   0.2953204778E+02  -0.4922044891E-05   0.4677418027E+01   0.1553671938E-13  -0.9920721699E-14   0.0000000000E+00
  -0.7201506699E+00   0.1140606608E+00   0.7291274386E+00  -0.2670926822E-01  -0.1112521088E+00   0.0000000000E+00  -0.6934414017E+00  -0.7746872304E+00  -0.2708725614E+00   0.7408245433E+00   0.2953204723E+02  -0.6043487412E-05   0.4677418985E+01   0.1773204373E-06   0.1119557060E-05   0.0000000000E+00
   0.5944509672E+00   0.3753215694E+01   0.5465821920E-15  -0.5798136115E+00   0.1392009323E+00   0.0000000000E+00  -0.8257354214E+00   0.3614014762E+01   0.5465821920E-15   0.7408245435E+00   0.2953204724E+02  -0.6043486767E-05   0.4677418985E+01   0.1773204307E-06   0.1119557064E-05   0.0000000000E+00
  -0.1256997027E+00   0.3867276355E+01  -0.1333420822E-14  -0.6065228797E+00   0.2794882355E-01   0.0000000000E+00  -0.1519176823E+01   0.2839327532E+01  -0.1333420822E-14   0.7408237678E+00   0.2953204801E+02  -0.6043490771E-05   0.4677416598E+01   0.1773204062E-06   0.1119557059E-05   0.0000000000E+00
   0.5944509672E+00   0.3753215694E+01   0.7291274386E+00  -0.5798136115E+00   0.1392009323E+00   0.0000000000E+00  -0.8257354214E+00   0.3614014762E+01  -0.2708725614E+00   0.7408245434E+00   0.2953204723E+02  -0.6043486285E-05   0.4677418985E+01  -0.1773204425E-06  -0.1119557055E-05   0.0000000000E+00
  -0.1256997027E+00   0.3867276355E+01   0.7291274386E+00  -0.6065228797E+00   0.2794882355E-01   0.0000000000E+00  -0.1519176823E+01   0.2839327532E+01  -0.2708725614E+00   0.7408237677E+00   0.2953204801E+02  -0.6043490107E-05   0.4677416597E+01  -0.1773203981E-06  -0.1119557080E-05   0.0000000000E+00
     1     2     3     4     5     6     7     8
     2     9    10     3     6    11    12     7
 VARIABLES = X,Y,Z,DU1,DU2,DU3,U1,U2,U3,S11,S22,S33,S12,S13,S23,MISES
 ZONE, T="0.1100D+02" F=FEPOINT, I=   12 J=    2 ET=BRICK
   0.0000000000E+00   0.0000000000E+00   0.0000000000E+00   0.0000000000E+00   0.0000000000E+00   0.0000000000E+00   0.0000000000E+00   0.0000000000E+00   0.0000000000E+00  -0.6043491456E-05   0.3027287783E+02  -0.6043491340E-05  -0.1254918953E-05   0.1268470678E-13  -0.1133512471E-05   0.0000000000E+00
  -0.4477528237E-07   0.1900000000E+01  -0.4044352102E-07  -0.2972254841E+00   0.2339214586E-01   0.2017429192E-15  -0.7027745606E+00   0.1876607854E+01  -0.4044352122E-07  -0.7366214681E-05   0.3027287803E+02  -0.4922044864E-05   0.2091747401E-11   0.2103174116E-13   0.5962782628E-14   0.0000000000E+00
  -0.7291273938E+00   0.1900000000E+01  -0.4044352244E-07  -0.3062022517E+00  -0.9066850093E-01  -0.8010221176E-16  -0.1422925142E+01   0.9906685009E+00  -0.4044352236E-07  -0.7366214834E-05   0.3027287802E+02  -0.4922045020E-05   0.2082141215E-11  -0.1600871779E-13  -0.1015984742E-13   0.0000000000E+00
  -0.7291274386E+00   0.2220446049E-15   0.0000000000E+00  -0.8976768687E-02  -0.1140606608E+00   0.0000000000E+00  -0.7201506699E+00  -0.8859393392E+00   0.0000000000E+00  -0.6043486916E-05   0.3027287782E+02  -0.6043486815E-05   0.1254918956E-05  -0.2577860170E-13  -0.1133512503E-05   0.0000000000E+00
  -0.7621962700E-15  -0.4930380658E-31   0.7291274386E+00  -0.9383900875E-17  -0.1192337657E-15   0.0000000000E+00  -0.7528123691E-15   0.1192337657E-15  -0.2708725614E+00  -0.6043491277E-05   0.3027287782E+02  -0.6043491165E-05  -0.1254918948E-05  -0.1537629183E-13   0.1133512484E-05   0.0000000000E+00
  -0.4477528326E-07   0.1900000000E+01   0.7291274790E+00  -0.2972254841E+00   0.2339214586E-01   0.8536736856E-16  -0.7027745606E+00   0.1876607854E+01  -0.2708725210E+00  -0.7366214771E-05   0.3027287802E+02  -0.4922044958E-05   0.2074535499E-11  -0.1617837090E-13   0.2091161815E-14   0.0000000000E+00
  -0.7291273938E+00   0.1900000000E+01   0.7291274790E+00  -0.3062022517E+00  -0.9066850093E-01  -0.1521271173E-15  -0.1422925142E+01   0.9906685009E+00  -0.2708725210E+00  -0.7366214483E-05   0.3027287802E+02  -0.4922044667E-05   0.2079540513E-11   0.1801392521E-13  -0.4227279945E-14   0.0000000000E+00
  -0.7291274386E+00   0.0000000000E+00   0.7291274386E+00  -0.8976768687E-02  -0.1140606608E+00   0.0000000000E+00  -0.7201506699E+00  -0.8859393392E+00  -0.2708725614E+00  -0.6043487547E-05   0.3027287782E+02  -0.6043487460E-05   0.1254918945E-05   0.1739315412E-13   0.1133512478E-05   0.0000000000E+00
   0.1110223025E-14   0.3800000000E+01   0.5465821920E-15  -0.5944509672E+00   0.4678430574E-01   0.0000000000E+00  -0.1405549033E+01   0.3753215694E+01   0.5465821920E-15  -0.6043486725E-05   0.3027287782E+02  -0.6043486637E-05   0.1254918972E-05   0.1443661855E-13   0.1133512476E-05   0.0000000000E+00
  -0.7291274386E+00   0.3800000000E+01  -0.1333420822E-14  -0.6034277358E+00  -0.6727635506E-01   0.0000000000E+00  -0.2125699703E+01   0.2867276355E+01  -0.1333420822E-14  -0.6043490694E-05   0.3027287782E+02  -0.6043490598E-05  -0.1254918956E-05  -0.9356399730E-14   0.1133512474E-05   0.0000000000E+00
  -0.1332267630E-14   0.3800000000E+01   0.7291274386E+00  -0.5944509672E+00   0.4678430574E-01   0.0000000000E+00  -0.1405549033E+01   0.3753215694E+01  -0.2708725614E+00  -0.6043486871E-05   0.3027287782E+02  -0.6043486759E-05   0.1254918931E-05  -0.2180872812E-13  -0.1133512486E-05   0.0000000000E+00
  -0.7291274386E+00   0.3800000000E+01   0.7291274386E+00  -0.6034277358E+00  -0.6727635506E-01   0.0000000000E+00  -0.2125699703E+01   0.2867276355E+01  -0.2708725614E+00  -0.6043490274E-05   0.3027287782E+02  -0.6043490154E-05  -0.1254918953E-05   0.2563100816E-13  -0.1133512495E-05   0.0000000000E+00
     1     2     3     4     5     6     7     8
     2     9    10     3     6    11    12     7
