 VARIABLES = X,Y,Z,DU1,DU2,DU3,U1,U2,U3,S11,S22,S33,S12,S13,S23,MISES
 ZONE, T="0.1000D+01" F=FEPOINT, I=   12 J=    2 ET=BRICK
   0.0000000000E+00   0.0000000000E+00   0.0000000000E+00   0.0000000000E+00   0.0000000000E+00   0.0000000000E+00   0.0000000000E+00   0.0000000000E+00   0.0000000000E+00   0.2694413814E+01   0.3178176644E-12   0.3175405221E-12   0.1465518634E-16  -0.1585814934E-15  -0.3623744249E-15   0.0000000000E+00
   0.1090000000E+01   0.0000000000E+00  -0.3780970187E-18   0.9000000000E-01   0.0000000000E+00  -0.3780970187E-18   0.0000000000E+00   0.0000000000E+00   0.0000000000E+00   0.2694413814E+01  -0.1624782090E-13  -0.1569353621E-13   0.4600558606E-15   0.3327352333E-15   0.2740292124E-15   0.0000000000E+00
   0.1090000000E+01   0.9582563187E+00   0.2690828408E-16   0.9000000000E-01  -0.4174368125E-01   0.2690828408E-16   0.0000000000E+00   0.0000000000E+00   0.0000000000E+00   0.2694413814E+01  -0.1554503328E-13  -0.1499074860E-13  -0.7005861337E-16   0.7541271639E-15   0.3206176886E-16   0.0000000000E+00
   0.0000000000E+00   0.9582563187E+00  -0.3557370928E-16   0.0000000000E+00  -0.4174368125E-01  -0.3557370928E-16   0.0000000000E+00   0.0000000000E+00   0.0000000000E+00   0.2694413814E+01   0.3174662706E-12   0.3171891283E-12  -0.5601628256E-15   0.5788353086E-15  -0.3933712513E-15   0.0000000000E+00
   0.0000000000E+00   0.0000000000E+00   0.9582563187E+00   0.0000000000E+00   0.0000000000E+00  -0.4174368125E-01   0.0000000000E+00   0.0000000000E+00   0.0000000000E+00   0.2694413814E+01   0.3171148682E-12   0.3171891283E-12   0.6922970868E-16   0.3719562588E-15   0.3103910282E-15   0.0000000000E+00
   0.1090000000E+01   0.0000000000E+00   0.9582563187E+00   0.9000000000E-01   0.0000000000E+00  -0.4174368125E-01   0.0000000000E+00   0.0000000000E+00   0.0000000000E+00   0.2694413814E+01  -0.1484222848E-13  -0.1499074860E-13   0.1792025658E-15  -0.5318380175E-15   0.1086166593E-15   0.0000000000E+00
   0.1090000000E+01   0.9582563187E+00   0.9582563187E+00   0.9000000000E-01  -0.4174368125E-01  -0.4174368125E-01   0.0000000000E+00   0.0000000000E+00   0.0000000000E+00   0.2694413813E+01  -0.1746506790E-13  -0.1761358802E-13  -0.1199036677E-14  -0.1620687881E-15  -0.1333507842E-15   0.0000000000E+00
   0.0000000000E+00   0.9582563187E+00   0.9582563187E+00   0.0000000000E+00  -0.4174368125E-01  -0.4174368125E-01   0.0000000000E+00   0.0000000000E+00   0.0000000000E+00   0.2694413813E+01   0.3184262879E-12   0.3185005479E-12  -0.4174079618E-15  -0.2591366929E-15   0.2793942018E-15   0.0000000000E+00
   0.2180000000E+01   0.0000000000E+00   0.6181366956E-16   0.1800000000E+00   0.0000000000E+00   0.6181366956E-16   0.0000000000E+00   0.0000000000E+00   0.0000000000E+00   0.2694413814E+01  -0.3450674991E-12  -0.3489275945E-12   0.5296355590E-16   0.4806833971E-15   0.3116255031E-15   0.0000000000E+00
   0.2180000000E+01   0.9582563187E+00   0.9689401983E-16   0.1800000000E+00  -0.4174368125E-01   0.9689401983E-16   0.0000000000E+00   0.0000000000E+00   0.0000000000E+00   0.2694413813E+01  -0.3433105300E-12  -0.3471706254E-12  -0.4324473799E-15   0.6415589311E-15  -0.1133015955E-14   0.0000000000E+00
   0.2180000000E+01   0.0000000000E+00   0.9582563187E+00   0.1800000000E+00   0.0000000000E+00  -0.4174368125E-01   0.0000000000E+00   0.0000000000E+00   0.0000000000E+00   0.2694413813E+01  -0.3482049348E-12  -0.3471706254E-12   0.6483025308E-16  -0.1779000857E-14   0.9014570166E-15   0.0000000000E+00
   0.2180000000E+01   0.9582563187E+00   0.9582563187E+00   0.1800000000E+00  -0.4174368125E-01  -0.4174368125E-01   0.0000000000E+00   0.0000000000E+00   0.0000000000E+00   0.2694413813E+01  -0.3547620332E-12  -0.3537277239E-12  -0.2205010561E-14  -0.3528609712E-15  -0.5431844413E-15   0.0000000000E+00
     1     2     3     4     5     6     7     8
     2     9    10     3     6    11    12     7
 VARIABLES = X,Y,Z,DU1,DU2,DU3,U1,U2,U3,S11,S22,S33,S12,S13,S23,MISES
 ZONE, T="0.2000D+01" F=FEPOINT, I=   12 J=    2 ET=BRICK
   0.0000000000E+00   0.0000000000E+00   0.0000000000E+00   0.0000000000E+00   0.0000000000E+00   0.0000000000E+00   0.0000000000E+00   0.0000000000E+00   0.0000000000E+00   0.5417802406E+01   0.4653464215E-12   0.4632502325E-12   0.2361303109E-16   0.1663184621E-14   0.6704323866E-15   0.0000000000E+00
   0.1180000000E+01   0.0000000000E+00   0.1228264413E-15   0.9000000000E-01   0.0000000000E+00   0.1232045383E-15   0.9000000000E-01   0.0000000000E+00  -0.3780970187E-18   0.5417802406E+01  -0.4412258301E-13  -0.4296875161E-13   0.5198526532E-15   0.1769734778E-14  -0.5179687714E-15   0.0000000000E+00
   0.1180000000E+01   0.9214054915E+00   0.6700354445E-16   0.9000000000E-01  -0.3685082724E-01   0.4009526037E-16   0.9000000000E-01  -0.4174368125E-01   0.2690828408E-16   0.5417802405E+01  -0.4220544236E-13  -0.3498356269E-13  -0.1190832584E-14   0.4820167504E-15  -0.8482457682E-15   0.0000000000E+00
   0.0000000000E+00   0.9214054915E+00   0.7636038347E-16   0.0000000000E+00  -0.3685082724E-01   0.1119340927E-15   0.0000000000E+00  -0.4174368125E-01  -0.3557370928E-16   0.5417802405E+01   0.4648327252E-12   0.4613032034E-12  -0.9111211940E-15  -0.2534152019E-15  -0.3463026456E-15   0.0000000000E+00
   0.0000000000E+00   0.0000000000E+00   0.9214054915E+00   0.0000000000E+00   0.0000000000E+00  -0.3685082724E-01   0.0000000000E+00   0.0000000000E+00  -0.4174368125E-01   0.5417802405E+01   0.4584797078E-12   0.4651344436E-12   0.9155343657E-16  -0.2239820165E-14   0.9014231786E-16   0.0000000000E+00
   0.1180000000E+01   0.0000000000E+00   0.9214054915E+00   0.9000000000E-01   0.0000000000E+00  -0.3685082724E-01   0.9000000000E-01   0.0000000000E+00  -0.4174368125E-01   0.5417802405E+01  -0.3451918688E-13  -0.4013490358E-13  -0.1435071898E-15   0.3767047006E-15   0.8498658543E-15   0.0000000000E+00
   0.1180000000E+01   0.9214054915E+00   0.9214054915E+00   0.9000000000E-01  -0.3685082724E-01  -0.3685082724E-01   0.9000000000E-01  -0.4174368125E-01  -0.4174368125E-01   0.5417802404E+01  -0.4167405409E-13  -0.3895394272E-13  -0.5709975158E-15  -0.1168610441E-14   0.5195888573E-15   0.0000000000E+00
   0.0000000000E+00   0.9214054915E+00   0.9214054915E+00   0.0000000000E+00  -0.3685082724E-01  -0.3685082724E-01   0.0000000000E+00  -0.4174368125E-01  -0.4174368125E-01   0.5417802405E+01   0.4603968484E-12   0.4655369449E-12  -0.1836426308E-15  -0.8616590941E-16  -0.9265927142E-15   0.0000000000E+00
   0.2360000000E+01   0.0000000000E+00   0.1625481317E-15   0.1800000000E+00   0.0000000000E+00   0.1007344621E-15   0.1800000000E+00   0.0000000000E+00   0.6181366956E-16   0.5417802406E+01  -0.5435834688E-12  -0.5408398157E-12   0.2409525824E-17  -0.2389525700E-15   0.1550301799E-16   0.0000000000E+00
   0.2360000000E+01   0.9214054915E+00   0.1650188268E-15   0.1800000000E+00  -0.3685082724E-01   0.6812480701E-16   0.1800000000E+00  -0.4174368125E-01   0.9689401983E-16   0.5417802405E+01  -0.5440971650E-12  -0.5431720358E-12  -0.2484226723E-14   0.2714667154E-14   0.1009043775E-14   0.0000000000E+00
   0.2360000000E+01   0.0000000000E+00   0.9214054915E+00   0.1800000000E+00   0.0000000000E+00  -0.3685082724E-01   0.1800000000E+00   0.0000000000E+00  -0.4174368125E-01   0.5417802405E+01  -0.5467248738E-12  -0.5418118437E-12   0.4035195171E-15   0.8779920610E-15  -0.1126612525E-14   0.0000000000E+00
   0.2360000000E+01   0.9214054915E+00   0.9214054915E+00   0.1800000000E+00  -0.3685082724E-01  -0.3685082724E-01   0.1800000000E+00  -0.4174368125E-01  -0.4174368125E-01   0.5417802404E+01  -0.5448077331E-12  -0.5428472199E-12  -0.1762650676E-15  -0.7538365212E-15  -0.1330717681E-15   0.0000000000E+00
     1     2     3     4     5     6     7     8
     2     9    10     3     6    11    12     7
 VARIABLES = X,Y,Z,DU1,DU2,DU3,U1,U2,U3,S11,S22,S33,S12,S13,S23,MISES
 ZONE, T="0.3000D+01" F=FEPOINT, I=   12 J=    2 ET=BRICK
   0.0000000000E+00   0.0000000000E+00   0.0000000000E+00   0.0000000000E+00   0.0000000000E+00   0.0000000000E+00   0.0000000000E+00   0.0000000000E+00   0.0000000000E+00   0.8196117974E+01   0.5227831101E-13   0.5269248358E-13  -0.8351296953E-16   0.2105927002E-14   0.1473259596E-14   0.0000000000E+00
   0.1270000000E+01   0.0000000000E+00   0.1713086927E-15   0.9000000000E-01   0.0000000000E+00   0.4848225140E-16   0.1800000000E+00   0.0000000000E+00   0.1228264413E-15   0.8196117973E+01   0.5255636399E-13   0.5600004971E-13   0.5834418107E-15   0.2209104246E-14   0.7876129799E-16   0.0000000000E+00
   0.1270000000E+01   0.8885678291E+00   0.1787674147E-15   0.9000000000E-01  -0.3283766243E-01   0.1117638702E-15   0.1800000000E+00  -0.7859450850E-01   0.6700354445E-16   0.8196117972E+01   0.5363752866E-13   0.5708114564E-13  -0.1152551695E-14  -0.2572708129E-15   0.2911631631E-15   0.0000000000E+00
   0.0000000000E+00   0.8885678291E+00   0.1697196962E-15   0.0000000000E+00  -0.3283766243E-01   0.9335931276E-16   0.0000000000E+00  -0.7859450850E-01   0.7636038347E-16   0.8196117973E+01   0.5733659836E-13   0.5548657978E-13  -0.2415819552E-14   0.9875146631E-16   0.9458979249E-15   0.0000000000E+00
   0.0000000000E+00   0.0000000000E+00   0.8885678291E+00   0.0000000000E+00   0.0000000000E+00  -0.3283766243E-01   0.0000000000E+00   0.0000000000E+00  -0.7859450850E-01   0.8196117973E+01   0.5597047766E-13   0.5804246910E-13   0.2408039937E-16  -0.7696569789E-15  -0.6398362179E-15   0.0000000000E+00
   0.1270000000E+01   0.0000000000E+00   0.8885678291E+00   0.9000000000E-01   0.0000000000E+00  -0.3283766243E-01   0.1800000000E+00   0.0000000000E+00  -0.7859450850E-01   0.8196117972E+01   0.5787866150E-13   0.5800670937E-13   0.1811530238E-15  -0.5314666292E-15  -0.3006594604E-15   0.0000000000E+00
   0.1270000000E+01   0.8885678291E+00   0.8885678291E+00   0.9000000000E-01  -0.3283766243E-01  -0.3283766243E-01   0.1800000000E+00  -0.7859450850E-01  -0.7859450850E-01   0.8196117971E+01   0.4971647601E-13   0.5150230844E-13  -0.1080651493E-14  -0.1805454196E-14  -0.8825759526E-16   0.0000000000E+00
   0.0000000000E+00   0.8885678291E+00   0.8885678291E+00   0.0000000000E+00  -0.3283766243E-01  -0.3283766243E-01   0.0000000000E+00  -0.7859450850E-01  -0.7859450850E-01   0.8196117972E+01   0.5369825491E-13   0.5267712858E-13  -0.1348829155E-14   0.5373824117E-15  -0.1167197889E-14   0.0000000000E+00
   0.2540000000E+01   0.0000000000E+00   0.2516348479E-15   0.1800000000E+00   0.0000000000E+00   0.8908671619E-16   0.3600000000E+00   0.0000000000E+00   0.1625481317E-15   0.8196117973E+01   0.5608627611E-13   0.5541549550E-13  -0.3552176019E-15   0.6844418087E-16   0.5359549001E-16   0.0000000000E+00
   0.2540000000E+01   0.8885678291E+00   0.2502664510E-15   0.1800000000E+00  -0.3283766243E-01   0.8524762420E-16   0.3600000000E+00  -0.7859450850E-01   0.1650188268E-15   0.8196117972E+01   0.5459395421E-13   0.5287217120E-13  -0.1494898030E-14   0.1938100788E-14   0.4840710262E-15   0.0000000000E+00
   0.2540000000E+01   0.0000000000E+00   0.8885678291E+00   0.1800000000E+00   0.0000000000E+00  -0.3283766243E-01   0.3600000000E+00   0.0000000000E+00  -0.7859450850E-01   0.8196117972E+01   0.5449587134E-13   0.5548246541E-13  -0.2468453882E-15  -0.2537113588E-14  -0.2953631058E-15   0.0000000000E+00
   0.2540000000E+01   0.8885678291E+00   0.8885678291E+00   0.1800000000E+00  -0.3283766243E-01  -0.3283766243E-01   0.3600000000E+00  -0.7859450850E-01  -0.7859450850E-01   0.8196117971E+01   0.4567150019E-13   0.4975172507E-13  -0.1397544868E-14  -0.1596896923E-14   0.1351124304E-15   0.0000000000E+00
     1     2     3     4     5     6     7     8
     2     9    10     3     6    11    12     7
 VARIABLES = X,Y,Z,DU1,DU2,DU3,U1,U2,U3,S11,S22,S33,S12,S13,S23,MISES
 ZONE, T="0.4000D+01" F=FEPOINT, I=   12 J=    2 ET=BRICK
   0.0000000000E+00   0.0000000000E+00   0.0000000000E+00   0.0000000000E+00   0.0000000000E+00   0.0000000000E+00   0.0000000000E+00   0.0000000000E+00   0.0000000000E+00   0.1104808577E+02   0.6007844667E-12   0.6004347054E-12  -0.2392858975E-16   0.2869436947E-14  -0.5278495216E-15   0.0000000000E+00
   0.1360000000E+01   0.0000000000E+00   0.1702450510E-15   0.9000000000E-01   0.0000000000E+00  -0.1063641698E-17   0.2700000000E+00   0.0000000000E+00   0.1713086927E-15   0.1104808577E+02   0.2682483300E-12   0.2689478527E-12   0.8165209536E-15   0.2158465853E-14  -0.1419819643E-14   0.0000000000E+00
   0.1360000000E+01   0.8590704173E+00   0.3043999470E-17   0.9000000000E-01  -0.2949741182E-01  -0.1757234152E-15   0.2700000000E+00  -0.1114321709E+00   0.1787674147E-15   0.1104808577E+02   0.2641287223E-12   0.2686509529E-12   0.5251342568E-15  -0.4184788258E-15  -0.9595326861E-15   0.0000000000E+00
   0.0000000000E+00   0.8590704173E+00  -0.6380099459E-16   0.0000000000E+00  -0.2949741182E-01  -0.2335206908E-15   0.0000000000E+00  -0.1114321709E+00   0.1697196962E-15   0.1104808577E+02   0.6018878545E-12   0.6008384674E-12  -0.1177232641E-14   0.1122392375E-14   0.3023890891E-15   0.0000000000E+00
   0.0000000000E+00   0.0000000000E+00   0.8590704173E+00   0.0000000000E+00   0.0000000000E+00  -0.2949741182E-01   0.0000000000E+00   0.0000000000E+00  -0.1114321709E+00   0.1104808577E+02   0.6008384674E-12   0.6018878545E-12   0.9650635791E-16  -0.2306949150E-14  -0.2769640008E-15   0.0000000000E+00
   0.1360000000E+01   0.0000000000E+00   0.8590704173E+00   0.9000000000E-01   0.0000000000E+00  -0.2949741182E-01   0.2700000000E+00   0.0000000000E+00  -0.1114321709E+00   0.1104808577E+02   0.2686509529E-12   0.2641287223E-12  -0.1034029416E-14  -0.9641460806E-16   0.5139720780E-15   0.0000000000E+00
   0.1360000000E+01   0.8590704173E+00   0.8590704173E+00   0.9000000000E-01  -0.2949741182E-01  -0.2949741182E-01   0.2700000000E+00  -0.1114321709E+00  -0.1114321709E+00   0.1104808577E+02   0.2689478527E-12   0.2682483300E-12  -0.2535748803E-14  -0.1890683204E-14   0.9742590344E-15   0.0000000000E+00
   0.0000000000E+00   0.8590704173E+00   0.8590704173E+00   0.0000000000E+00  -0.2949741182E-01  -0.2949741182E-01   0.0000000000E+00  -0.1114321709E+00  -0.1114321709E+00   0.1104808577E+02   0.6004347052E-12   0.6007844666E-12  -0.2117742960E-14  -0.7476387703E-15   0.5532746098E-15   0.0000000000E+00
   0.2720000000E+01   0.0000000000E+00   0.1389706926E-15   0.1800000000E+00   0.0000000000E+00  -0.1126641553E-15   0.5400000000E+00   0.0000000000E+00   0.2516348479E-15   0.1104808577E+02  -0.6033952134E-13  -0.6521106900E-13   0.3961186733E-15  -0.3568312061E-14  -0.4505063276E-15   0.0000000000E+00
   0.2720000000E+01   0.8590704173E+00   0.8271721986E-16   0.1800000000E+00  -0.2949741182E-01  -0.1675492312E-15   0.5400000000E+00  -0.1114321709E+00   0.2502664510E-15   0.1104808577E+02  -0.6968123609E-13  -0.6620839256E-13   0.9666493312E-15   0.3827787124E-14  -0.6415094434E-15   0.0000000000E+00
   0.2720000000E+01   0.0000000000E+00   0.8590704173E+00   0.1800000000E+00   0.0000000000E+00  -0.2949741182E-01   0.5400000000E+00   0.0000000000E+00  -0.1114321709E+00   0.1104808577E+02  -0.6620839256E-13  -0.6968123609E-13   0.5346267967E-15  -0.2901686886E-14   0.7296429409E-15   0.0000000000E+00
   0.2720000000E+01   0.8590704173E+00   0.8590704173E+00   0.1800000000E+00  -0.2949741182E-01  -0.2949741182E-01   0.5400000000E+00  -0.1114321709E+00  -0.1114321709E+00   0.1104808577E+02  -0.6521106899E-13  -0.6033952133E-13  -0.2545626609E-15   0.2753409512E-14   0.5386398250E-15   0.0000000000E+00
     1     2     3     4     5     6     7     8
     2     9    10     3     6    11    12     7
 VARIABLES = X,Y,Z,DU1,DU2,DU3,U1,U2,U3,S11,S22,S33,S12,S13,S23,MISES
 ZONE, T="0.5000D+01" F=FEPOINT, I=   12 J=    2 ET=BRICK
   0.0000000000E+00   0.0000000000E+00   0.0000000000E+00   0.0000000000E+00   0.0000000000E+00   0.0000000000E+00   0.0000000000E+00   0.0000000000E+00   0.0000000000E+00   0.1398743099E+02   0.3334166461E-13   0.3855425174E-13  -0.6026283139E-16   0.3590052369E-14   0.1006721981E-14   0.0000000000E+00
   0.1450000000E+01   0.0000000000E+00   0.1811074238E-15   0.9000000000E-01   0.0000000000E+00   0.1086237282E-16   0.3600000000E+00   0.0000000000E+00   0.1702450510E-15   0.1398743099E+02  -0.3835429803E-12  -0.3849396887E-12   0.8597339501E-15   0.1399066873E-14  -0.2212537095E-15   0.0000000000E+00
   0.1450000000E+01   0.8323885354E+00   0.1471557529E-15   0.9000000000E-01  -0.2668188190E-01   0.1441117535E-15   0.3600000000E+00  -0.1409295827E+00   0.3043999470E-17   0.1398743098E+02  -0.2873493955E-12  -0.2866510413E-12   0.1236410644E-14  -0.3118303807E-16   0.2842299838E-16   0.0000000000E+00
   0.0000000000E+00   0.8323885354E+00   0.1403414722E-15   0.0000000000E+00  -0.2668188190E-01   0.2041424668E-15   0.0000000000E+00  -0.1409295827E+00  -0.6380099459E-16   0.1398743098E+02  -0.1024089273E-13  -0.1510430279E-13  -0.7416808795E-15   0.2519859431E-15   0.1801637870E-14   0.0000000000E+00
   0.0000000000E+00   0.0000000000E+00   0.8323885354E+00   0.0000000000E+00   0.0000000000E+00  -0.2668188190E-01   0.0000000000E+00   0.0000000000E+00  -0.1409295827E+00   0.1398743098E+02   0.2070978552E-13   0.2557319558E-13   0.4231594759E-16  -0.3825583187E-15  -0.9543584681E-15   0.0000000000E+00
   0.1450000000E+01   0.0000000000E+00   0.8323885354E+00   0.9000000000E-01   0.0000000000E+00  -0.2668188190E-01   0.3600000000E+00   0.0000000000E+00  -0.1409295827E+00   0.1398743098E+02  -0.3582792210E-12  -0.3589775752E-12  -0.2527365343E-15   0.1670176949E-14  -0.3768027073E-15   0.0000000000E+00
   0.1450000000E+01   0.8323885354E+00   0.8323885354E+00   0.9000000000E-01  -0.2668188190E-01  -0.2668188190E-01   0.3600000000E+00  -0.1409295827E+00  -0.1409295827E+00   0.1398743098E+02  -0.3849396886E-12  -0.3835429802E-12   0.5415350502E-15   0.1237677834E-14  -0.1271259994E-15   0.0000000000E+00
   0.0000000000E+00   0.8323885354E+00   0.8323885354E+00   0.0000000000E+00  -0.2668188190E-01  -0.2668188190E-01   0.0000000000E+00  -0.1409295827E+00  -0.1409295827E+00   0.1398743098E+02   0.3855425174E-13   0.3334166461E-13  -0.5771991165E-15   0.8431351861E-15  -0.1594425784E-15   0.0000000000E+00
   0.2900000000E+01   0.0000000000E+00   0.9233411394E-16   0.1800000000E+00   0.0000000000E+00  -0.4663657867E-16   0.7200000000E+00   0.0000000000E+00   0.1389706926E-15   0.1398743099E+02   0.1656985218E-12   0.1709111089E-12  -0.4046313371E-15  -0.2414397765E-14  -0.1462057382E-16   0.0000000000E+00
   0.2900000000E+01   0.8323885354E+00   0.1048362248E-15   0.1800000000E+00  -0.2668188190E-01   0.2211900498E-16   0.7200000000E+00  -0.1409295827E+00   0.8271721986E-16   0.1398743098E+02  -0.5087177055E-12  -0.5090668826E-12   0.1030140100E-14  -0.1231450933E-14   0.5853421508E-15   0.0000000000E+00
   0.2900000000E+01   0.0000000000E+00   0.8323885354E+00   0.1800000000E+00   0.0000000000E+00  -0.2668188190E-01   0.7200000000E+00   0.0000000000E+00  -0.1409295827E+00   0.1398743098E+02  -0.1024088988E-13  -0.9891712813E-14  -0.3073960569E-15   0.2100433075E-14  -0.3418876578E-15   0.0000000000E+00
   0.2900000000E+01   0.8323885354E+00   0.8323885354E+00   0.1800000000E+00  -0.2668188190E-01  -0.2668188190E-01   0.7200000000E+00  -0.1409295827E+00  -0.1409295827E+00   0.1398743098E+02   0.1709111089E-12   0.1656985218E-12   0.1900662176E-14   0.7151215684E-15   0.2580750669E-15   0.0000000000E+00
     1     2     3     4     5     6     7     8
     2     9    10     3     6    11    12     7
 VARIABLES = X,Y,Z,DU1,DU2,DU3,U1,U2,U3,S11,S22,S33,S12,S13,S23,MISES
 ZONE, T="0.6000D+01" F=FEPOINT, I=   12 J=    2 ET=BRICK
   0.0000000000E+00   0.0000000000E+00   0.0000000000E+00   0.0000000000E+00   0.0000000000E+00   0.0000000000E+00   0.0000000000E+00   0.0000000000E+00   0.0000000000E+00   0.1702432461E+02  -0.1609394491E-12  -0.1637698851E-12   0.4167006605E-16  -0.7502804501E-14  -0.2962399693E-14   0.0000000000E+00
   0.1540000000E+01   0.0000000000E+00  -0.3475425094E-15   0.9000000000E-01   0.0000000000E+00  -0.5286499333E-15   0.4500000000E+00   0.0000000000E+00   0.1811074238E-15   0.1702432461E+02   0.2627291739E-12   0.2602348502E-12  -0.1281820487E-14  -0.2564387631E-14  -0.4312400384E-15   0.0000000000E+00
   0.1540000000E+01   0.8081061614E+00  -0.3916691805E-15   0.9000000000E-01  -0.2428237395E-01  -0.5388249335E-15   0.4500000000E+00  -0.1676114646E+00   0.1471557529E-15   0.1702432461E+02   0.1417278693E-12   0.1431368293E-12  -0.7035391372E-15   0.1708979791E-15   0.1031400290E-14   0.0000000000E+00
   0.0000000000E+00   0.8081061614E+00  -0.3677178080E-15   0.0000000000E+00  -0.2428237395E-01  -0.5080592802E-15   0.0000000000E+00  -0.1676114646E+00   0.1403414722E-15   0.1702432461E+02   0.5277409190E-12   0.5278487845E-12   0.5730335509E-15   0.2187004867E-15  -0.1052095924E-14   0.0000000000E+00
   0.0000000000E+00   0.0000000000E+00   0.8081061614E+00   0.0000000000E+00   0.0000000000E+00  -0.2428237395E-01   0.0000000000E+00   0.0000000000E+00  -0.1676114646E+00   0.1702432461E+02   0.6651256466E-12   0.6576137730E-12  -0.2288141333E-15  -0.1655528100E-14  -0.1475062708E-14   0.0000000000E+00
   0.1540000000E+01   0.0000000000E+00   0.8081061614E+00   0.9000000000E-01   0.0000000000E+00  -0.2428237395E-01   0.4500000000E+00   0.0000000000E+00  -0.1676114646E+00   0.1702432461E+02  -0.1228196691E-12  -0.1278227678E-12   0.2295327583E-14  -0.1989981079E-14  -0.3139912714E-15   0.0000000000E+00
   0.1540000000E+01   0.8081061614E+00   0.8081061614E+00   0.9000000000E-01  -0.2428237395E-01  -0.2428237395E-01   0.4500000000E+00  -0.1676114646E+00  -0.1676114646E+00   0.1702432461E+02   0.3390256257E-12   0.3379258108E-12   0.2329320807E-14   0.1127261791E-14   0.1148649057E-14   0.0000000000E+00
   0.0000000000E+00   0.8081061614E+00   0.8081061614E+00   0.0000000000E+00  -0.2428237395E-01  -0.2428237395E-01   0.0000000000E+00  -0.1676114646E+00  -0.1676114646E+00   0.1702432461E+02  -0.3145247490E-12  -0.3180524394E-12  -0.4998884599E-15   0.2458432683E-14   0.4352410602E-15   0.0000000000E+00
   0.3080000000E+01   0.0000000000E+00  -0.2637824742E-15   0.1800000000E+00   0.0000000000E+00  -0.3561165881E-15   0.9000000000E+00   0.0000000000E+00   0.9233411394E-16   0.1702432461E+02   0.4428466063E-12   0.4434774125E-12  -0.5770441992E-17   0.2203844199E-14  -0.1751245220E-14   0.0000000000E+00
   0.3080000000E+01   0.8081061614E+00  -0.4935482879E-15   0.1800000000E+00  -0.2428237395E-01  -0.5983845128E-15   0.9000000000E+00  -0.1676114646E+00   0.1048362248E-15   0.1702432461E+02  -0.5536516792E-14  -0.9935775340E-14   0.6194287729E-15  -0.5880244481E-15  -0.6389724705E-15   0.0000000000E+00
   0.3080000000E+01   0.0000000000E+00   0.8081061614E+00   0.1800000000E+00   0.0000000000E+00  -0.2428237395E-01   0.9000000000E+00   0.0000000000E+00  -0.1676114646E+00   0.1702432461E+02   0.3680056591E-14   0.6753068632E-15  -0.5374847265E-15  -0.2494619097E-14  -0.4491730286E-17   0.0000000000E+00
   0.3080000000E+01   0.8081061614E+00   0.8081061614E+00   0.1800000000E+00  -0.2428237395E-01  -0.2428237395E-01   0.9000000000E+00  -0.1676114646E+00  -0.1676114646E+00   0.1702432461E+02   0.8102930231E-13   0.7194860617E-13  -0.1984239528E-15  -0.9150290207E-15   0.1107781019E-14   0.0000000000E+00
     1     2     3     4     5     6     7     8
     2     9    10     3     6    11    12     7
 VARIABLES = X,Y,Z,DU1,DU2,DU3,U1,U2,U3,S11,S22,S33,S12,S13,S23,MISES
 ZONE, T="0.7000D+01" F=FEPOINT, I=   12 J=    2 ET=BRICK
   0.0000000000E+00   0.0000000000E+00   0.0000000000E+00   0.0000000000E+00   0.0000000000E+00   0.0000000000E+00   0.0000000000E+00   0.0000000000E+00   0.0000000000E+00   0.2016635058E+02   0.3149087216E-12   0.3152464493E-12  -0.1984537324E-15   0.6010989444E-14   0.2170474074E-14   0.0000000000E+00
   0.1630000000E+01   0.0000000000E+00   0.3005147130E-15   0.9000000000E-01   0.0000000000E+00   0.6480572225E-15   0.5400000000E+00   0.0000000000E+00  -0.3475425094E-15   0.2016635058E+02  -0.3086142887E-12  -0.3109369651E-12   0.4927043830E-15   0.1333028987E-14  -0.1437289419E-14   0.0000000000E+00
   0.1630000000E+01   0.7858886248E+00   0.1235512978E-15   0.9000000000E-01  -0.2221753661E-01   0.5152204783E-15   0.5400000000E+00  -0.1918938386E+00  -0.3916691805E-15   0.2016635057E+02  -0.1858959722E-12  -0.1836269059E-12  -0.8698088287E-15  -0.1287386013E-14  -0.3483316310E-15   0.0000000000E+00
   0.0000000000E+00   0.7858886248E+00   0.2798269942E-15   0.0000000000E+00  -0.2221753661E-01   0.6475448022E-15   0.0000000000E+00  -0.1918938386E+00  -0.3677178080E-15   0.2016635057E+02  -0.7116875130E-12  -0.7185861271E-12  -0.4499327510E-14  -0.4216305692E-14   0.1824089401E-16   0.0000000000E+00
   0.0000000000E+00   0.0000000000E+00   0.7858886248E+00   0.0000000000E+00   0.0000000000E+00  -0.2221753661E-01   0.0000000000E+00   0.0000000000E+00  -0.1918938386E+00   0.2016635057E+02  -0.7148074572E-12  -0.7121729880E-12   0.2401241028E-15   0.2348862641E-14   0.1344884821E-14   0.0000000000E+00
   0.1630000000E+01   0.0000000000E+00   0.7858886248E+00   0.9000000000E-01   0.0000000000E+00  -0.2221753661E-01   0.5400000000E+00   0.0000000000E+00  -0.1918938386E+00   0.2016635057E+02  -0.1829503232E-12  -0.1898660064E-12  -0.1095052614E-14   0.1995150124E-14   0.7831018662E-15   0.0000000000E+00
   0.1630000000E+01   0.7858886248E+00   0.7858886248E+00   0.9000000000E-01  -0.2221753661E-01  -0.2221753661E-01   0.5400000000E+00  -0.1918938386E+00  -0.1918938386E+00   0.2016635057E+02  -0.3021201029E-12  -0.3027957970E-12  -0.5625932560E-15  -0.2402820118E-15   0.1872059654E-14   0.0000000000E+00
   0.0000000000E+00   0.7858886248E+00   0.7858886248E+00   0.0000000000E+00  -0.2221753661E-01  -0.2221753661E-01   0.0000000000E+00  -0.1918938386E+00  -0.1918938386E+00   0.2016635057E+02   0.1916095910E-12   0.1911238276E-12   0.4461752557E-14   0.2279130702E-14  -0.8073483584E-15   0.0000000000E+00
   0.3260000000E+01   0.0000000000E+00   0.2626583141E-15   0.1800000000E+00   0.0000000000E+00   0.5264407883E-15   0.1080000000E+01   0.0000000000E+00  -0.2637824742E-15   0.2016635058E+02  -0.1496466325E-12  -0.1475348927E-12   0.6446612510E-15  -0.2448565605E-14  -0.3330739736E-15   0.0000000000E+00
   0.3260000000E+01   0.7858886248E+00   0.2368625452E-15   0.1800000000E+00  -0.2221753661E-01   0.7304108331E-15   0.1080000000E+01  -0.1918938386E+00  -0.4935482879E-15   0.2016635057E+02  -0.4371774821E-13  -0.4494546118E-13   0.2220508605E-14   0.2387890259E-14  -0.1421226027E-15   0.0000000000E+00
   0.3260000000E+01   0.0000000000E+00   0.7858886248E+00   0.1800000000E+00   0.0000000000E+00  -0.2221753661E-01   0.1080000000E+01   0.0000000000E+00  -0.1918938386E+00   0.2016635057E+02  -0.4458792307E-13  -0.4078232956E-13   0.3588162093E-15   0.2537803473E-14  -0.4592550442E-15   0.0000000000E+00
   0.3260000000E+01   0.7858886248E+00   0.7858886248E+00   0.1800000000E+00  -0.2221753661E-01  -0.2221753661E-01   0.1080000000E+01  -0.1918938386E+00  -0.1918938386E+00   0.2016635057E+02  -0.2982772514E-13  -0.3018570757E-13  -0.2797893529E-14  -0.2013338132E-14  -0.2683036733E-15   0.0000000000E+00
     1     2     3     4     5     6     7     8
     2     9    10     3     6    11    12     7
 VARIABLES = X,Y,Z,DU1,DU2,DU3,U1,U2,U3,S11,S22,S33,S12,S13,S23,MISES
 ZONE, T="0.8000D+01" F=FEPOINT, I=   12 J=    2 ET=BRICK
   0.0000000000E+00   0.0000000000E+00   0.0000000000E+00   0.0000000000E+00   0.0000000000E+00   0.0000000000E+00   0.0000000000E+00   0.0000000000E+00   0.0000000000E+00   0.2341916976E+02   0.2472032315E-12   0.2507685635E-12  -0.2690938423E-15   0.6680924718E-14   0.1768144155E-14   0.0000000000E+00
   0.1720000000E+01   0.0000000000E+00   0.3139603663E-15   0.9000000000E-01   0.0000000000E+00   0.1344565334E-16   0.6300000000E+00   0.0000000000E+00   0.3005147130E-15   0.2341916976E+02  -0.4313627442E-12  -0.4352061869E-12  -0.6368901152E-16   0.2843156639E-14   0.6781617764E-16   0.0000000000E+00
   0.1720000000E+01   0.7654632242E+00   0.3146724161E-15   0.9000000000E-01  -0.2042540058E-01   0.1911211183E-15   0.6300000000E+00  -0.2141113752E+00   0.1235512978E-15   0.2341916976E+02  -0.9447043413E-13  -0.9316133852E-13  -0.4453985335E-14   0.4448418078E-15   0.4230880197E-15   0.0000000000E+00
   0.0000000000E+00   0.7654632242E+00   0.2404207366E-15   0.0000000000E+00  -0.2042540058E-01  -0.3940625758E-16   0.0000000000E+00  -0.2141113752E+00   0.2798269942E-15   0.2341916976E+02   0.2562078912E-12   0.2500201136E-12  -0.7750789962E-14   0.1464377498E-14  -0.1866811775E-14   0.0000000000E+00
   0.0000000000E+00   0.0000000000E+00   0.7654632242E+00   0.0000000000E+00   0.0000000000E+00  -0.2042540058E-01   0.0000000000E+00   0.0000000000E+00  -0.2141113752E+00   0.2341916976E+02   0.2846280887E-12   0.2953875967E-12   0.5834783547E-17  -0.2561843891E-14   0.1692518586E-14   0.0000000000E+00
   0.1720000000E+01   0.0000000000E+00   0.7654632242E+00   0.9000000000E-01   0.0000000000E+00  -0.2042540058E-01   0.6300000000E+00   0.0000000000E+00  -0.2141113752E+00   0.2341916976E+02  -0.1655871159E-12  -0.1703448741E-12  -0.1236218350E-14   0.1794802628E-14   0.1260526169E-14   0.0000000000E+00
   0.1720000000E+01   0.7654632242E+00   0.7654632242E+00   0.9000000000E-01  -0.2042540058E-01  -0.2042540058E-01   0.6300000000E+00  -0.2141113752E+00  -0.2141113752E+00   0.2341916976E+02   0.1719060024E-12   0.1700543298E-12  -0.3049237060E-14  -0.2591549251E-14   0.1615798011E-14   0.0000000000E+00
   0.0000000000E+00   0.7654632242E+00   0.7654632242E+00   0.0000000000E+00  -0.2042540058E-01  -0.2042540058E-01   0.0000000000E+00  -0.2141113752E+00  -0.2141113752E+00   0.2341916976E+02   0.6680789944E-13   0.6893711171E-13   0.2832893069E-14  -0.1018551854E-14  -0.1942437344E-14   0.0000000000E+00
   0.3440000000E+01   0.0000000000E+00   0.3021172856E-15   0.1800000000E+00   0.0000000000E+00   0.3945897151E-16   0.1260000000E+01   0.0000000000E+00   0.2626583141E-15   0.2341916976E+02   0.9186371335E-13   0.9693354482E-13  -0.1780092636E-14  -0.4843686452E-14   0.1121651520E-14   0.0000000000E+00
   0.3440000000E+01   0.7654632242E+00   0.4523709845E-15   0.1800000000E+00  -0.2042540058E-01   0.2155084393E-15   0.1260000000E+01  -0.2141113752E+00   0.2368625452E-15   0.2341916976E+02  -0.5883315860E-12  -0.5907106130E-12  -0.3078989163E-14   0.4735277474E-14   0.4861986832E-15   0.0000000000E+00
   0.3440000000E+01   0.0000000000E+00   0.7654632242E+00   0.1800000000E+00   0.0000000000E+00  -0.2042540058E-01   0.1260000000E+01   0.0000000000E+00  -0.2141113752E+00   0.2341916976E+02  -0.9192248687E-13  -0.8392969693E-13   0.2084998611E-14   0.2302374134E-14  -0.8216772282E-15   0.0000000000E+00
   0.3440000000E+01   0.7654632242E+00   0.7654632242E+00   0.1800000000E+00  -0.2042540058E-01  -0.2042540058E-01   0.1260000000E+01  -0.2141113752E+00  -0.2141113752E+00   0.2341916976E+02  -0.5497835892E-12  -0.5491586013E-12  -0.4368097093E-14   0.1145424708E-14  -0.1457130065E-14   0.0000000000E+00
     1     2     3     4     5     6     7     8
     2     9    10     3     6    11    12     7
 VARIABLES = X,Y,Z,DU1,DU2,DU3,U1,U2,U3,S11,S22,S33,S12,S13,S23,MISES
 ZONE, T="0.9000D+01" F=FEPOINT, I=   12 J=    2 ET=BRICK
   0.0000000000E+00   0.0000000000E+00   0.0000000000E+00   0.0000000000E+00   0.0000000000E+00   0.0000000000E+00   0.0000000000E+00   0.0000000000E+00   0.0000000000E+00   0.2678698660E+02  -0.2319224476E-12  -0.2351006796E-12  -0.5228592352E-16  -0.7558504935E-14  -0.2317617050E-14   0.0000000000E+00
   0.1810000000E+01   0.0000000000E+00  -0.3261647174E-15   0.9000000000E-01   0.0000000000E+00  -0.6401250838E-15   0.7200000000E+00   0.0000000000E+00   0.3139603663E-15   0.2678698660E+02   0.2877911162E-13   0.2519741207E-13   0.2313733295E-14  -0.1165823675E-14   0.3292534377E-16   0.0000000000E+00
   0.1810000000E+01   0.7466052066E+00  -0.3124902449E-15   0.9000000000E-01  -0.1885801760E-01  -0.6271626610E-15   0.7200000000E+00  -0.2345367758E+00   0.3146724161E-15   0.2678698659E+02  -0.2316655667E-12  -0.2371076814E-12   0.2362406855E-14  -0.9519425244E-15   0.2224373610E-15   0.0000000000E+00
   0.0000000000E+00   0.7466052066E+00  -0.3273649980E-15   0.0000000000E+00  -0.1885801760E-01  -0.5677857346E-15   0.0000000000E+00  -0.2345367758E+00   0.2404207366E-15   0.2678698659E+02  -0.8624395261E-13  -0.8543119901E-13   0.2541079939E-14   0.3463425499E-15  -0.4208973696E-15   0.0000000000E+00
   0.0000000000E+00   0.0000000000E+00   0.7466052066E+00   0.0000000000E+00   0.0000000000E+00  -0.1885801760E-01   0.0000000000E+00   0.0000000000E+00  -0.2345367758E+00   0.2678698659E+02  -0.1753045235E-12  -0.1890245409E-12   0.9593306605E-16  -0.2122671754E-14  -0.8715073650E-15   0.0000000000E+00
   0.1810000000E+01   0.0000000000E+00   0.7466052066E+00   0.9000000000E-01   0.0000000000E+00  -0.1885801760E-01   0.7200000000E+00   0.0000000000E+00  -0.2345367758E+00   0.2678698659E+02  -0.4009768976E-13  -0.4216670308E-13  -0.7543918127E-15   0.1466270480E-14   0.2091849296E-16   0.0000000000E+00
   0.1810000000E+01   0.7466052066E+00   0.7466052066E+00   0.9000000000E-01  -0.1885801760E-01  -0.1885801760E-01   0.7200000000E+00  -0.2345367758E+00  -0.2345367758E+00   0.2678698659E+02   0.2968824243E-13   0.2515830749E-13  -0.2979522696E-14   0.1484888608E-15   0.2104305101E-15   0.0000000000E+00
   0.0000000000E+00   0.7466052066E+00   0.7466052066E+00   0.0000000000E+00  -0.1885801760E-01  -0.1885801760E-01   0.0000000000E+00  -0.2345367758E+00  -0.2345367758E+00   0.2678698659E+02  -0.2143389535E-12  -0.2198851718E-12  -0.3203967091E-14   0.1234238334E-14   0.1025212315E-14   0.0000000000E+00
   0.3620000000E+01   0.0000000000E+00  -0.3339765245E-15   0.1800000000E+00   0.0000000000E+00  -0.6360938101E-15   0.1440000000E+01   0.0000000000E+00   0.3021172856E-15   0.2678698659E+02   0.2777217656E-12   0.2784720948E-12   0.2594068294E-15   0.1332955032E-14   0.9748345006E-16   0.0000000000E+00
   0.3620000000E+01   0.7466052066E+00  -0.3245749416E-15   0.1800000000E+00  -0.1885801760E-01  -0.7769459261E-15   0.1440000000E+01  -0.2345367758E+00   0.4523709845E-15   0.2678698659E+02  -0.3813780526E-12  -0.3796968653E-12  -0.2236611912E-14  -0.1721823505E-14   0.3024565925E-15   0.0000000000E+00
   0.3620000000E+01   0.0000000000E+00   0.7466052066E+00   0.1800000000E+00   0.0000000000E+00  -0.1885801760E-01   0.1440000000E+01   0.0000000000E+00  -0.2345367758E+00   0.2678698659E+02   0.1006619591E-12   0.1006561195E-12   0.1306766728E-14   0.1161310162E-14   0.1714175811E-15   0.0000000000E+00
   0.3620000000E+01   0.7466052066E+00   0.7466052066E+00   0.1800000000E+00  -0.1885801760E-01  -0.1885801760E-01   0.1440000000E+01  -0.2345367758E+00  -0.2345367758E+00   0.2678698659E+02   0.2772672002E-12   0.2784916471E-12   0.1564051179E-15  -0.4088565182E-15   0.3763907235E-15   0.0000000000E+00
     1     2     3     4     5     6     7     8
     2     9    10     3     6    11    12     7
 VARIABLES = X,Y,Z,DU1,DU2,DU3,U1,U2,U3,S11,S22,S33,S12,S13,S23,MISES
 ZONE, T="0.1000D+02" F=FEPOINT, I=   12 J=    2 ET=BRICK
   0.0000000000E+00   0.0000000000E+00   0.0000000000E+00   0.0000000000E+00   0.0000000000E+00   0.0000000000E+00   0.0000000000E+00   0.0000000000E+00   0.0000000000E+00   0.3027288369E+02  -0.3583627445E-12  -0.3481317121E-12   0.3467678623E-15  -0.2034836731E-15   0.7467974664E-15   0.0000000000E+00
   0.1900000000E+01   0.0000000000E+00   0.2519866605E-16   0.9000000000E-01   0.0000000000E+00   0.3513633835E-15   0.8100000000E+00   0.0000000000E+00  -0.3261647174E-15   0.3027288369E+02  -0.8270680565E-13  -0.8136872842E-13  -0.1402004568E-14  -0.2325403692E-14   0.1909971865E-14   0.0000000000E+00
   0.1900000000E+01   0.7291274386E+00   0.2978573307E-15   0.9000000000E-01  -0.1747776803E-01   0.6103475756E-15   0.8100000000E+00  -0.2533947934E+00  -0.3124902449E-15   0.3027288369E+02   0.3527102618E-12   0.3527234820E-12   0.1056010739E-14   0.2345029474E-14   0.1162117841E-14   0.0000000000E+00
   0.0000000000E+00   0.7291274386E+00   0.9400006302E-16   0.0000000000E+00  -0.1747776803E-01   0.4213650611E-15   0.0000000000E+00  -0.2533947934E+00  -0.3273649980E-15   0.3027288369E+02  -0.2414429767E-12  -0.2378624206E-12   0.2172128517E-14   0.3914714846E-14  -0.8305906431E-15   0.0000000000E+00
   0.0000000000E+00   0.0000000000E+00   0.7291274386E+00   0.0000000000E+00   0.0000000000E+00  -0.1747776803E-01   0.0000000000E+00   0.0000000000E+00  -0.2533947934E+00   0.3027288369E+02  -0.1975368904E-12  -0.1853551243E-12   0.1251623581E-15  -0.3889002507E-14  -0.3129943897E-15   0.0000000000E+00
   0.1900000000E+01   0.0000000000E+00   0.7291274386E+00   0.9000000000E-01   0.0000000000E+00  -0.1747776803E-01   0.8100000000E+00   0.0000000000E+00  -0.2533947934E+00   0.3027288369E+02   0.6871117297E-14   0.1444773986E-13   0.1407076597E-14  -0.1927634256E-14   0.8255350989E-15   0.0000000000E+00
   0.1900000000E+01   0.7291274386E+00   0.7291274386E+00   0.9000000000E-01  -0.1747776803E-01  -0.1747776803E-01   0.8100000000E+00  -0.2533947934E+00  -0.2533947934E+00   0.3027288368E+02  -0.1877621151E-13  -0.1476296478E-13   0.2565715990E-14   0.1306815563E-15   0.7768107478E-16   0.0000000000E+00
   0.0000000000E+00   0.7291274386E+00   0.7291274386E+00   0.0000000000E+00  -0.1747776803E-01  -0.1747776803E-01   0.0000000000E+00  -0.2533947934E+00  -0.2533947934E+00   0.3027288368E+02  -0.8588432210E-12  -0.8521873400E-12   0.3786941340E-14   0.5823378264E-15  -0.1890382499E-14   0.0000000000E+00
   0.3800000000E+01   0.0000000000E+00   0.1255506251E-15   0.1800000000E+00   0.0000000000E+00   0.4595271496E-15   0.1620000000E+01   0.0000000000E+00  -0.3339765245E-15   0.3027288369E+02   0.5257635317E-12   0.5320718576E-12   0.2132955482E-15   0.1018175761E-14   0.2804273109E-14   0.0000000000E+00
   0.3800000000E+01   0.7291274386E+00   0.4955563466E-15   0.1800000000E+00  -0.1747776803E-01   0.8201312883E-15   0.1620000000E+01  -0.2533947934E+00  -0.3245749416E-15   0.3027288369E+02  -0.3218552422E-12  -0.3225752413E-12   0.3303965509E-14   0.4080197879E-14   0.7963669621E-15   0.0000000000E+00
   0.3800000000E+01   0.0000000000E+00   0.7291274386E+00   0.1800000000E+00   0.0000000000E+00  -0.1747776803E-01   0.1620000000E+01   0.0000000000E+00  -0.2533947934E+00   0.3027288369E+02   0.3057483884E-12   0.3115539839E-12  -0.4361618548E-15   0.5499233465E-14  -0.3071373691E-15   0.0000000000E+00
   0.3800000000E+01   0.7291274386E+00   0.7291274386E+00   0.1800000000E+00  -0.1747776803E-01  -0.1747776803E-01   0.1620000000E+01  -0.2533947934E+00  -0.2533947934E+00   0.3027288368E+02   0.4834360468E-12   0.4822949432E-12  -0.1780662050E-14   0.2983879062E-14  -0.2315043515E-14   0.0000000000E+00
     1     2     3     4     5     6     7     8
     2     9    10     3     6    11    12     7
 VARIABLES = X,Y,Z,DU1,DU2,DU3,U1,U2,U3,S11,S22,S33,S12,S13,S23,MISES
 ZONE, T="0.1100D+02" F=FEPOINT, I=   12 J=    2 ET=BRICK
   0.0000000000E+00   0.0000000000E+00   0.0000000000E+00   0.0000000000E+00   0.0000000000E+00   0.0000000000E+00   0.0000000000E+00   0.0000000000E+00   0.0000000000E+00   0.3027288369E+02   0.3327877679E-08   0.3327883568E-08   0.5053822418E-15   0.1186813500E-13   0.3661159125E-14   0.0000000000E+00
   0.1900000000E+01   0.0000000000E+00   0.5013860627E-15  -0.4697467405E-16   0.0000000000E+00   0.4761873966E-15   0.9000000000E+00   0.0000000000E+00   0.2519866605E-16   0.3027288369E+02   0.3327469153E-08   0.3327467961E-08  -0.2289278466E-14   0.1562238199E-14  -0.2075228306E-15   0.0000000000E+00
   0.1900000000E+01   0.7291274386E+00   0.4789567811E-15  -0.1122452075E-15   0.1179388815E-11   0.1810994504E-15   0.9000000000E+00  -0.2708725614E+00   0.2978573307E-15   0.3027288369E+02   0.3327304318E-08   0.3327304984E-08  -0.5570368057E-15  -0.3037217436E-16  -0.4193841455E-15   0.0000000000E+00
   0.0000000000E+00   0.7291274386E+00   0.5187294202E-15   0.0000000000E+00   0.1179450782E-11   0.4247293572E-15   0.0000000000E+00  -0.2708725614E+00   0.9400006302E-16   0.3027288369E+02   0.3327370259E-08   0.3327368508E-08   0.2779220640E-15  -0.1646387068E-15   0.3405281566E-14   0.0000000000E+00
   0.0000000000E+00   0.0000000000E+00   0.7291274386E+00   0.0000000000E+00   0.0000000000E+00   0.1179271506E-11   0.0000000000E+00   0.0000000000E+00  -0.2708725614E+00   0.3027288369E+02   0.3327242715E-08   0.3327249659E-08  -0.4117200423E-15   0.7868637070E-14   0.2392879398E-14   0.0000000000E+00
   0.1900000000E+01   0.0000000000E+00   0.7291274386E+00   0.2730287727E-15   0.0000000000E+00   0.1179664780E-11   0.9000000000E+00   0.0000000000E+00  -0.2708725614E+00   0.3027288369E+02   0.3327833547E-08   0.3327830245E-08   0.2693849501E-14  -0.8311733414E-15  -0.8618974733E-15   0.0000000000E+00
   0.1900000000E+01   0.7291274386E+00   0.7291274386E+00   0.2852833320E-15   0.1179467398E-11   0.1179435047E-11   0.9000000000E+00  -0.2708725614E+00  -0.2708725614E+00   0.3027288369E+02   0.3327538166E-08   0.3327538958E-08   0.3386357779E-14   0.5069459120E-15  -0.1073758788E-14   0.0000000000E+00
   0.0000000000E+00   0.7291274386E+00   0.7291274386E+00   0.0000000000E+00   0.1179582654E-11   0.1179649108E-11   0.0000000000E+00  -0.2708725614E+00  -0.2708725614E+00   0.3027288369E+02   0.3327374653E-08   0.3327372839E-08   0.1797416642E-14  -0.4733845047E-14   0.2137001839E-14   0.0000000000E+00
   0.3800000000E+01   0.0000000000E+00   0.3369877102E-15  -0.5551115123E-16   0.0000000000E+00   0.2114370851E-15   0.1800000000E+01   0.0000000000E+00   0.1255506251E-15   0.3027288369E+02   0.3327798069E-08   0.3327796601E-08   0.8189196575E-15  -0.5296596046E-14   0.9368118265E-15   0.0000000000E+00
   0.3800000000E+01   0.7291274386E+00   0.4650407395E-15  -0.5551115123E-16   0.1179450122E-11  -0.3051560718E-16   0.1800000000E+01  -0.2708725614E+00   0.4955563466E-15   0.3027288369E+02   0.3327712545E-08   0.3327710528E-08   0.4510863156E-14   0.4841657239E-16  -0.5246620960E-15   0.0000000000E+00
   0.3800000000E+01   0.0000000000E+00   0.7291274386E+00  -0.5551115123E-16   0.0000000000E+00   0.1179186845E-11   0.1800000000E+01   0.0000000000E+00  -0.2708725614E+00   0.3027288369E+02   0.3327560473E-08   0.3327561478E-08  -0.1588988175E-15  -0.6083921201E-14   0.2202306316E-14   0.0000000000E+00
   0.3800000000E+01   0.7291274386E+00   0.7291274386E+00  -0.5551115123E-16   0.1179427954E-11   0.1179535933E-11   0.1800000000E+01  -0.2708725614E+00  -0.2708725614E+00   0.3027288369E+02   0.3327753162E-08   0.3327753539E-08  -0.9830189448E-15   0.5692259084E-14   0.7408323937E-15   0.0000000000E+00
     1     2     3     4     5     6     7     8
     2     9    10     3     6    11    12     7
 VARIABLES = X,Y,Z,DU1,DU2,DU3,U1,U2,U3,S11,S22,S33,S12,S13,S23,MISES
 ZONE, T="0.1200D+02" F=FEPOINT, I=   12 J=    2 ET=BRICK
   0.0000000000E+00   0.0000000000E+00   0.0000000000E+00   0.0000000000E+00   0.0000000000E+00   0.0000000000E+00   0.0000000000E+00   0.0000000000E+00   0.0000000000E+00   0.3027288369E+02   0.2980208624E-12   0.3036466835E-12  -0.3832064055E-15  -0.6180533525E-14  -0.1010199204E-14   0.0000000000E+00
   0.1900000000E+01   0.0000000000E+00  -0.1964359669E-15  -0.7788335571E-15   0.0000000000E+00  -0.6978220296E-15   0.9000000000E+00   0.0000000000E+00   0.5013860627E-15   0.3027288369E+02  -0.1895624534E-12  -0.1837688438E-12   0.2011620284E-14   0.4259989625E-14   0.1720104450E-14   0.0000000000E+00
   0.1900000000E+01   0.7291274386E+00   0.2887163525E-16  -0.3524193536E-15  -0.1179471311E-11  -0.4500851458E-15   0.9000000000E+00  -0.2708725614E+00   0.4789567811E-15   0.3027288369E+02  -0.7118496735E-13  -0.6930116121E-13   0.5860819967E-14   0.4717546004E-15   0.1453971920E-14   0.0000000000E+00
   0.0000000000E+00   0.7291274386E+00  -0.1276226911E-15   0.0000000000E+00  -0.1179535204E-11  -0.6463521113E-15   0.0000000000E+00  -0.2708725614E+00   0.5187294202E-15   0.3027288369E+02  -0.5633706786E-12  -0.5612453962E-12   0.2644226587E-14   0.4437146019E-14   0.6168018441E-15   0.0000000000E+00
   0.0000000000E+00   0.0000000000E+00   0.7291274386E+00   0.0000000000E+00   0.0000000000E+00  -0.1179391493E-11   0.0000000000E+00   0.0000000000E+00  -0.2708725614E+00   0.3027288369E+02  -0.5642858563E-12  -0.5604880989E-12  -0.3178957367E-15  -0.3631808092E-14  -0.2403960766E-14   0.0000000000E+00
   0.1900000000E+01   0.0000000000E+00   0.7291274386E+00   0.2737018675E-16   0.0000000000E+00  -0.1179816179E-11   0.9000000000E+00   0.0000000000E+00  -0.2708725614E+00   0.3027288369E+02  -0.7055372032E-13  -0.6394240543E-13  -0.1190186346E-14   0.1508590063E-14  -0.8533731620E-15   0.0000000000E+00
   0.1900000000E+01   0.7291274386E+00   0.7291274386E+00  -0.5561263222E-15  -0.1179398128E-11  -0.1179824655E-11   0.9000000000E+00  -0.2708725614E+00  -0.2708725614E+00   0.3027288368E+02  -0.1914845340E-12  -0.1881821675E-12  -0.2092347674E-14   0.1185563222E-14  -0.1119505691E-14   0.0000000000E+00
   0.0000000000E+00   0.7291274386E+00   0.7291274386E+00   0.0000000000E+00  -0.1179270788E-11  -0.1180133840E-11   0.0000000000E+00  -0.2708725614E+00  -0.2708725614E+00   0.3027288368E+02   0.3040565902E-12   0.3001808808E-12  -0.9236421178E-15   0.1869629359E-14  -0.7769597173E-15   0.0000000000E+00
   0.3800000000E+01   0.0000000000E+00  -0.9702900329E-16  -0.5551115123E-16   0.0000000000E+00  -0.4340167135E-15   0.1800000000E+01   0.0000000000E+00   0.3369877102E-15   0.3027288369E+02   0.1126646975E-12   0.1108064887E-12  -0.1049895960E-14   0.1928705013E-14   0.9356047978E-15   0.0000000000E+00
   0.3800000000E+01   0.7291274386E+00   0.2489414931E-16  -0.5551115123E-16  -0.1179391744E-11  -0.4401465902E-15   0.1800000000E+01  -0.2708725614E+00   0.4650407395E-15   0.3027288369E+02   0.3095096466E-13   0.2597279567E-13   0.3621070412E-14   0.1326406439E-14  -0.1236069389E-14   0.0000000000E+00
   0.3800000000E+01   0.0000000000E+00   0.7291274386E+00  -0.5551115123E-16   0.0000000000E+00  -0.1179838932E-11   0.1800000000E+01   0.0000000000E+00  -0.2708725614E+00   0.3027288369E+02   0.3312603433E-13   0.3593300994E-13  -0.7674159128E-16  -0.6122819541E-14   0.1909106009E-14   0.0000000000E+00
   0.3800000000E+01   0.7291274386E+00   0.7291274386E+00  -0.5551115123E-16  -0.1179457121E-11  -0.1179879004E-11   0.1800000000E+01  -0.2708725614E+00  -0.2708725614E+00   0.3027288368E+02   0.1060608333E-12   0.1054482460E-12  -0.1275317867E-14   0.5321540342E-14  -0.2625681777E-15   0.0000000000E+00
     1     2     3     4     5     6     7     8
     2     9    10     3     6    11    12     7
 VARIABLES = X,Y,Z,DU1,DU2,DU3,U1,U2,U3,S11,S22,S33,S12,S13,S23,MISES
 ZONE, T="0.1300D+02" F=FEPOINT, I=   12 J=    2 ET=BRICK
   0.0000000000E+00   0.0000000000E+00   0.0000000000E+00   0.0000000000E+00   0.0000000000E+00   0.0000000000E+00   0.0000000000E+00   0.0000000000E+00   0.0000000000E+00   0.3027288369E+02  -0.2412068863E-12  -0.2406173522E-12  -0.9971907072E-16  -0.4756734545E-16  -0.5610465010E-15   0.0000000000E+00
   0.1900000000E+01   0.0000000000E+00   0.6275242334E-17   0.6372289401E-15   0.0000000000E+00   0.2027112092E-15   0.9000000000E+00   0.0000000000E+00  -0.1964359669E-15   0.3027288369E+02   0.2346013985E-12   0.2341826078E-12  -0.2660667868E-14  -0.2568182564E-14   0.8703403002E-15   0.0000000000E+00
   0.1900000000E+01   0.7291274386E+00   0.1329750577E-15   0.8214579353E-16   0.8571523024E-16   0.1041034225E-15   0.9000000000E+00  -0.2708725614E+00   0.2887163525E-16   0.3027288369E+02   0.2976719202E-12   0.2957074927E-12  -0.1786262920E-14   0.3682085012E-15   0.1771940446E-14   0.0000000000E+00
   0.0000000000E+00   0.7291274386E+00  -0.8905548083E-16   0.0000000000E+00   0.4929403065E-15   0.3856721026E-16   0.0000000000E+00  -0.2708725614E+00  -0.1276226911E-15   0.3027288369E+02  -0.6621762669E-13  -0.6829212350E-13  -0.6899535952E-14   0.6341058686E-14  -0.2759741426E-14   0.0000000000E+00
   0.0000000000E+00   0.0000000000E+00   0.7291274386E+00   0.0000000000E+00   0.0000000000E+00  -0.1548491713E-15   0.0000000000E+00   0.0000000000E+00  -0.2708725614E+00   0.3027288369E+02   0.4300473754E-12   0.4322749354E-12   0.1362164333E-15   0.1494806337E-14   0.3262560999E-15   0.0000000000E+00
   0.1900000000E+01   0.0000000000E+00   0.7291274386E+00  -0.2109207052E-15   0.0000000000E+00   0.4716389689E-16   0.9000000000E+00   0.0000000000E+00  -0.2708725614E+00   0.3027288369E+02   0.2302504347E-12   0.2265552436E-12   0.1767898068E-14  -0.2550719542E-14  -0.1236480701E-14   0.0000000000E+00
   0.1900000000E+01   0.7291274386E+00   0.7291274386E+00   0.2177785755E-15   0.2303144851E-15   0.2153252994E-16   0.9000000000E+00  -0.2708725614E+00  -0.2708725614E+00   0.3027288368E+02  -0.3336104351E-13  -0.3860009413E-13   0.2720502019E-14  -0.6867041264E-15  -0.3348805549E-15   0.0000000000E+00
   0.0000000000E+00   0.7291274386E+00   0.7291274386E+00   0.0000000000E+00   0.2005484183E-16   0.2577304760E-15   0.0000000000E+00  -0.2708725614E+00  -0.2708725614E+00   0.3027288368E+02  -0.2371311903E-12  -0.2375677251E-12   0.3770340041E-14  -0.4930331206E-14  -0.1872438825E-14   0.0000000000E+00
   0.3800000000E+01   0.0000000000E+00  -0.7599670559E-16  -0.5551115123E-16   0.0000000000E+00   0.2103229769E-16   0.1800000000E+01   0.0000000000E+00  -0.9702900329E-16   0.3027288369E+02   0.5743062715E-12   0.5689106244E-12   0.2595554876E-16  -0.4550581320E-14   0.2481398423E-15   0.0000000000E+00
   0.3800000000E+01   0.7291274386E+00  -0.4364303873E-16  -0.5551115123E-16   0.1664041913E-15  -0.6853718804E-16   0.1800000000E+01  -0.2708725614E+00   0.2489414931E-16   0.3027288369E+02   0.5405878623E-12   0.5314899002E-12   0.8574582325E-14  -0.1853661830E-14  -0.9740397820E-15   0.0000000000E+00
   0.3800000000E+01   0.0000000000E+00   0.7291274386E+00  -0.5551115123E-16   0.0000000000E+00   0.8887099791E-16   0.1800000000E+01   0.0000000000E+00  -0.2708725614E+00   0.3027288369E+02   0.5714216465E-12   0.5709402245E-12  -0.2302551365E-15  -0.6058028960E-14   0.1117576899E-14   0.0000000000E+00
   0.3800000000E+01   0.7291274386E+00   0.7291274386E+00  -0.5551115123E-16   0.2665710604E-15  -0.1519413252E-16   0.1800000000E+01  -0.2708725614E+00  -0.2708725614E+00   0.3027288368E+02   0.6962474487E-12   0.6920628231E-12  -0.1959170841E-14   0.7307902806E-14  -0.1046027256E-15   0.0000000000E+00
     1     2     3     4     5     6     7     8
     2     9    10     3     6    11    12     7
 VARIABLES = X,Y,Z,DU1,DU2,DU3,U1,U2,U3,S11,S22,S33,S12,S13,S23,MISES
 ZONE, T="0.1400D+02" F=FEPOINT, I=   12 J=    2 ET=BRICK
   0.0000000000E+00   0.0000000000E+00   0.0000000000E+00   0.0000000000E+00   0.0000000000E+00   0.0000000000E+00   0.0000000000E+00   0.0000000000E+00   0.0000000000E+00   0.3027288369E+02  -0.6283486627E-12  -0.6405998148E-12   0.4593038480E-15  -0.1024562636E-13  -0.3985515060E-14   0.0000000000E+00
   0.1900000000E+01   0.0000000000E+00  -0.4419358343E-15  -0.1904007879E-15   0.0000000000E+00  -0.4482110767E-15   0.9000000000E+00   0.0000000000E+00   0.6275242334E-17   0.3027288369E+02  -0.3869391256E-12  -0.3877377802E-12  -0.1220469435E-14  -0.3771472727E-14  -0.8838249058E-15   0.0000000000E+00
   0.1900000000E+01   0.7291274386E+00  -0.5631395659E-15   0.3127896392E-16  -0.2392910060E-15  -0.6961146237E-15   0.9000000000E+00  -0.2708725614E+00   0.1329750577E-15   0.3027288369E+02  -0.1292714499E-12  -0.1237988368E-12  -0.2218962821E-14   0.1137786528E-14   0.5137032516E-15   0.0000000000E+00
   0.0000000000E+00   0.7291274386E+00  -0.5522674938E-15   0.0000000000E+00  -0.2073843424E-15  -0.4632120130E-15   0.0000000000E+00  -0.2708725614E+00  -0.8905548083E-16   0.3027288369E+02  -0.1304792664E-12  -0.1253525312E-12  -0.5912951938E-14  -0.2995828991E-15  -0.3898529088E-14   0.0000000000E+00
   0.0000000000E+00   0.0000000000E+00   0.7291274386E+00   0.0000000000E+00   0.0000000000E+00  -0.5158732938E-15   0.0000000000E+00   0.0000000000E+00  -0.2708725614E+00   0.3027288369E+02  -0.1390970369E-12  -0.1497911890E-12  -0.4273313374E-15  -0.2184603404E-14   0.4225646253E-15   0.0000000000E+00
   0.1900000000E+01   0.0000000000E+00   0.7291274386E+00   0.2227997364E-15   0.0000000000E+00  -0.5832700849E-15   0.9000000000E+00   0.0000000000E+00  -0.2708725614E+00   0.3027288369E+02  -0.1232755573E-12  -0.1279487649E-12   0.6429291203E-15   0.3497823591E-15  -0.6438583061E-15   0.0000000000E+00
   0.1900000000E+01   0.7291274386E+00   0.7291274386E+00   0.7736164566E-16  -0.1424180683E-15  -0.4756883701E-15   0.9000000000E+00  -0.2708725614E+00  -0.2708725614E+00   0.3027288368E+02  -0.1878820970E-12  -0.1862840369E-12  -0.1136604709E-14   0.3452051985E-15   0.7536698511E-15   0.0000000000E+00
   0.0000000000E+00   0.7291274386E+00   0.7291274386E+00   0.0000000000E+00   0.5476012643E-16  -0.4720955325E-15   0.0000000000E+00  -0.2708725614E+00  -0.2708725614E+00   0.3027288368E+02  -0.2660729144E-12  -0.2604268127E-12  -0.2637505937E-15  -0.2986590332E-14   0.5095505970E-15   0.0000000000E+00
   0.3800000000E+01   0.0000000000E+00  -0.4823392997E-15  -0.5551115123E-16   0.0000000000E+00  -0.4063425941E-15   0.1800000000E+01   0.0000000000E+00  -0.7599670559E-16   0.3027288369E+02  -0.5350760126E-12  -0.5347570472E-12  -0.4111896308E-15   0.7854301630E-15   0.1770562619E-15   0.0000000000E+00
   0.3800000000E+01   0.7291274386E+00  -0.4704811564E-15  -0.5551115123E-16  -0.3988606984E-15  -0.4268381176E-15   0.1800000000E+01  -0.2708725614E+00  -0.4364303873E-16   0.3027288369E+02  -0.5089571339E-12  -0.5101948935E-12   0.3964079382E-14   0.4519168415E-14  -0.8960033611E-15   0.0000000000E+00
   0.3800000000E+01   0.0000000000E+00   0.7291274386E+00  -0.5551115123E-16   0.0000000000E+00  -0.3842612186E-15   0.1800000000E+01   0.0000000000E+00  -0.2708725614E+00   0.3027288369E+02  -0.5003561997E-12  -0.4995178678E-12  -0.1458691271E-15   0.9669173791E-15   0.1669659075E-15   0.0000000000E+00
   0.3800000000E+01   0.7291274386E+00   0.7291274386E+00  -0.5551115123E-16  -0.3281077747E-15  -0.5554138249E-15   0.1800000000E+01  -0.2708725614E+00  -0.2708725614E+00   0.3027288368E+02  -0.5090657780E-12  -0.5087465377E-12  -0.3868517528E-14   0.5621013189E-14  -0.9060937154E-15   0.0000000000E+00
     1     2     3     4     5     6     7     8
     2     9    10     3     6    11    12     7
 VARIABLES = X,Y,Z,DU1,DU2,DU3,U1,U2,U3,S11,S22,S33,S12,S13,S23,MISES
 ZONE, T="0.1500D+02" F=FEPOINT, I=   12 J=    2 ET=BRICK
   0.0000000000E+00   0.0000000000E+00   0.0000000000E+00   0.0000000000E+00   0.0000000000E+00   0.0000000000E+00   0.0000000000E+00   0.0000000000E+00   0.0000000000E+00   0.3027288369E+02   0.4556157208E-12   0.4597362923E-12  -0.3647842727E-15   0.4941160042E-14   0.9453286771E-15   0.0000000000E+00
   0.1900000000E+01   0.0000000000E+00   0.2477190216E-15   0.1163964953E-15   0.0000000000E+00   0.6896548559E-15   0.9000000000E+00   0.0000000000E+00  -0.4419358343E-15   0.3027288369E+02  -0.1668260827E-12  -0.1598226149E-12   0.3975917383E-15   0.4937435091E-14  -0.1361660007E-14   0.0000000000E+00
   0.1900000000E+01   0.7291274386E+00   0.6634104455E-16   0.2114506344E-15   0.1343146569E-15   0.6294806105E-15   0.9000000000E+00  -0.2708725614E+00  -0.5631395659E-15   0.3027288369E+02  -0.9871174182E-13  -0.9101624356E-13   0.1003873579E-14  -0.2498329238E-14  -0.8059157940E-15   0.0000000000E+00
   0.0000000000E+00   0.7291274386E+00   0.1295474987E-15   0.0000000000E+00  -0.1826362852E-15   0.6818149925E-15   0.0000000000E+00  -0.2708725614E+00  -0.5522674938E-15   0.3027288369E+02  -0.4696373825E-13  -0.4542497135E-13   0.1876858824E-14  -0.6982152164E-15   0.2179516223E-14   0.0000000000E+00
   0.0000000000E+00   0.0000000000E+00   0.7291274386E+00   0.0000000000E+00   0.0000000000E+00   0.6244646537E-15   0.0000000000E+00   0.0000000000E+00  -0.2708725614E+00   0.3027288369E+02   0.4547997961E-12   0.4603049048E-12   0.6588416642E-16   0.3994049139E-14   0.3074859070E-15   0.0000000000E+00
   0.1900000000E+01   0.0000000000E+00   0.7291274386E+00   0.1873103878E-15   0.0000000000E+00   0.8112938936E-15   0.9000000000E+00   0.0000000000E+00  -0.2708725614E+00   0.3027288369E+02  -0.1607987723E-12  -0.1589606910E-12  -0.9470710022E-15   0.3588000856E-14  -0.6833135275E-15   0.0000000000E+00
   0.1900000000E+01   0.7291274386E+00   0.7291274386E+00  -0.3446607572E-16  -0.7044735896E-17   0.7608840699E-15   0.9000000000E+00  -0.2708725614E+00  -0.2708725614E+00   0.3027288368E+02  -0.8831813307E-13  -0.8578802135E-13  -0.8787337335E-15  -0.3543039000E-14  -0.1275693151E-15   0.0000000000E+00
   0.0000000000E+00   0.7291274386E+00   0.7291274386E+00   0.0000000000E+00  -0.1615863855E-16   0.5848619272E-15   0.0000000000E+00  -0.2708725614E+00  -0.2708725614E+00   0.3027288368E+02  -0.4996281194E-13  -0.4703950785E-13  -0.2363355662E-14   0.1138976194E-14   0.1541673453E-14   0.0000000000E+00
   0.3800000000E+01   0.0000000000E+00   0.2123651639E-15  -0.5551115123E-16   0.0000000000E+00   0.6947044636E-15   0.1800000000E+01   0.0000000000E+00  -0.4823392997E-15   0.3027288369E+02  -0.2412536089E-12  -0.2384240454E-12  -0.5942242670E-16  -0.2331594266E-14  -0.5410076867E-15   0.0000000000E+00
   0.3800000000E+01   0.7291274386E+00   0.1165406193E-15  -0.5551115123E-16  -0.8204023068E-16   0.5870217757E-15   0.1800000000E+01  -0.2708725614E+00  -0.4704811564E-15   0.3027288369E+02  -0.2796770760E-12  -0.2794310944E-12  -0.1088501842E-14   0.1700981440E-14   0.6673649266E-15   0.0000000000E+00
   0.3800000000E+01   0.0000000000E+00   0.7291274386E+00  -0.5551115123E-16   0.0000000000E+00   0.6767279915E-15   0.1800000000E+01   0.0000000000E+00  -0.2708725614E+00   0.3027288369E+02  -0.2524003064E-12  -0.2481871582E-12   0.2340627655E-15  -0.4083351833E-14  -0.8227077526E-15   0.0000000000E+00
   0.3800000000E+01   0.7291274386E+00   0.7291274386E+00  -0.5551115123E-16   0.2587831099E-15   0.5560771037E-15   0.1800000000E+01  -0.2708725614E+00  -0.2708725614E+00   0.3027288368E+02  -0.2799080278E-12  -0.2782784614E-12   0.2799977131E-14  -0.2225629496E-14   0.3856648606E-15   0.0000000000E+00
     1     2     3     4     5     6     7     8
     2     9    10     3     6    11    12     7
 VARIABLES = X,Y,Z,DU1,DU2,DU3,U1,U2,U3,S11,S22,S33,S12,S13,S23,MISES
 ZONE, T="0.1600D+02" F=FEPOINT, I=   12 J=    2 ET=BRICK
   0.0000000000E+00   0.0000000000E+00   0.0000000000E+00   0.0000000000E+00   0.0000000000E+00   0.0000000000E+00   0.0000000000E+00   0.0000000000E+00   0.0000000000E+00   0.3027288369E+02  -0.2529498289E-12  -0.2519404462E-12  -0.1904001427E-16  -0.4039945908E-14  -0.1225381245E-14   0.0000000000E+00
   0.1900000000E+01   0.0000000000E+00  -0.1512415033E-15   0.6144376517E-16   0.0000000000E+00  -0.3989605249E-15   0.9000000000E+00   0.0000000000E+00   0.2477190216E-15   0.3027288369E+02  -0.1807296700E-12  -0.1782733018E-12  -0.8654963579E-15  -0.1352544172E-14  -0.8467150760E-16   0.0000000000E+00
   0.1900000000E+01   0.7291274386E+00  -0.1630839219E-15  -0.1212960505E-16  -0.1093246237E-15  -0.2294249664E-15   0.9000000000E+00  -0.2708725614E+00   0.6634104455E-16   0.3027288369E+02  -0.1122702762E-12  -0.1101600607E-12  -0.2441983932E-14  -0.2764765437E-14   0.1208954633E-14   0.0000000000E+00
   0.0000000000E+00   0.7291274386E+00  -0.1612144685E-15   0.0000000000E+00   0.6694740342E-16  -0.2907619672E-15   0.0000000000E+00  -0.2708725614E+00   0.1295474987E-15   0.3027288369E+02  -0.2871795243E-12  -0.2859970653E-12  -0.2643224013E-14   0.2037841662E-14  -0.9001839764E-15   0.0000000000E+00
   0.0000000000E+00   0.0000000000E+00   0.7291274386E+00   0.0000000000E+00   0.0000000000E+00  -0.3470071428E-15   0.0000000000E+00   0.0000000000E+00  -0.2708725614E+00   0.3027288369E+02  -0.1090322878E-12  -0.1090958259E-12   0.2987684856E-15   0.8104282204E-14   0.1247625824E-14   0.0000000000E+00
   0.1900000000E+01   0.0000000000E+00   0.7291274386E+00  -0.1351758358E-15   0.0000000000E+00  -0.2479005350E-15   0.9000000000E+00   0.0000000000E+00  -0.2708725614E+00   0.3027288369E+02  -0.4477607129E-12  -0.4488327449E-12   0.9777232600E-15  -0.4037569046E-15  -0.2414533889E-14   0.0000000000E+00
   0.1900000000E+01   0.7291274386E+00   0.7291274386E+00   0.1923052888E-15   0.5131794205E-17  -0.4638089415E-15   0.9000000000E+00  -0.2708725614E+00  -0.2708725614E+00   0.3027288368E+02  -0.3749350207E-12  -0.3763532054E-12   0.1415064411E-16  -0.2045850954E-14  -0.1120907749E-14   0.0000000000E+00
   0.0000000000E+00   0.7291274386E+00   0.7291274386E+00   0.0000000000E+00  -0.5857041188E-16  -0.2128882793E-15   0.0000000000E+00  -0.2708725614E+00  -0.2708725614E+00   0.3027288368E+02  -0.1454451322E-12  -0.1453355940E-12   0.2565759665E-15  -0.5276602983E-14   0.1572823092E-14   0.0000000000E+00
   0.3800000000E+01   0.0000000000E+00  -0.9839430013E-16  -0.5551115123E-16   0.0000000000E+00  -0.3107594640E-15   0.1800000000E+01   0.0000000000E+00   0.2123651639E-15   0.3027288369E+02  -0.1078177556E-12  -0.1059907681E-12   0.2385736020E-15   0.2309826802E-14  -0.2515647939E-14   0.0000000000E+00
   0.3800000000E+01   0.7291274386E+00  -0.4594902640E-15  -0.5551115123E-16  -0.1309218623E-15  -0.5760308833E-15   0.1800000000E+01  -0.2708725614E+00   0.1165406193E-15   0.3027288369E+02  -0.6171664968E-12  -0.6129288663E-12  -0.2902175487E-15  -0.6960455000E-14  -0.1410368495E-14   0.0000000000E+00
   0.3800000000E+01   0.0000000000E+00   0.7291274386E+00  -0.5551115123E-16   0.0000000000E+00  -0.3707782567E-15   0.1800000000E+01   0.0000000000E+00  -0.2708725614E+00   0.3027288369E+02  -0.1085735810E-12  -0.1061810257E-12   0.2539253652E-15  -0.7936826775E-14  -0.2947101715E-15   0.0000000000E+00
   0.3800000000E+01   0.7291274386E+00   0.7291274386E+00  -0.5551115123E-16  -0.1607652143E-15  -0.3282828641E-15   0.1800000000E+01  -0.2708725614E+00  -0.2708725614E+00   0.3027288368E+02  -0.6070065764E-12  -0.6022033781E-12  -0.1631027347E-14   0.1791818610E-14   0.8105692728E-15   0.0000000000E+00
     1     2     3     4     5     6     7     8
     2     9    10     3     6    11    12     7
 VARIABLES = X,Y,Z,DU1,DU2,DU3,U1,U2,U3,S11,S22,S33,S12,S13,S23,MISES
 ZONE, T="0.1700D+02" F=FEPOINT, I=   12 J=    2 ET=BRICK
   0.0000000000E+00   0.0000000000E+00   0.0000000000E+00   0.0000000000E+00   0.0000000000E+00   0.0000000000E+00   0.0000000000E+00   0.0000000000E+00   0.0000000000E+00   0.3027288369E+02  -0.1487852491E-12  -0.1563142489E-12  -0.3776306034E-15  -0.5170184433E-14  -0.1575473986E-14   0.0000000000E+00
   0.1900000000E+01   0.0000000000E+00  -0.1747835564E-15  -0.1351521759E-15   0.0000000000E+00  -0.2354205305E-16   0.9000000000E+00   0.0000000000E+00  -0.1512415033E-15   0.3027288369E+02   0.5500493957E-13   0.5343276538E-13   0.1777241707E-14   0.2659099310E-15   0.6707915953E-15   0.0000000000E+00
   0.1900000000E+01   0.7291274386E+00  -0.8609724439E-16   0.1796584643E-15   0.2749433634E-15   0.7698667750E-16   0.9000000000E+00  -0.2708725614E+00  -0.1630839219E-15   0.3027288369E+02  -0.1146676096E-12  -0.1211179199E-12   0.2470896502E-14  -0.2940155353E-14   0.1237888254E-14   0.0000000000E+00
   0.0000000000E+00   0.7291274386E+00  -0.2359174502E-15   0.0000000000E+00   0.1522126289E-15  -0.7470298172E-16   0.0000000000E+00  -0.2708725614E+00  -0.1612144685E-15   0.3027288369E+02   0.4045733119E-12   0.4084318695E-12   0.3160295669E-15   0.5103337338E-14  -0.2101046541E-14   0.0000000000E+00
   0.0000000000E+00   0.0000000000E+00   0.7291274386E+00   0.0000000000E+00   0.0000000000E+00   0.1284228893E-15   0.0000000000E+00   0.0000000000E+00  -0.2708725614E+00   0.3027288369E+02  -0.2441227276E-12  -0.2507235585E-12   0.2544063334E-15  -0.1165744511E-14   0.4743904479E-15   0.0000000000E+00
   0.1900000000E+01   0.0000000000E+00   0.7291274386E+00   0.1440306422E-16   0.0000000000E+00  -0.1540818300E-15   0.9000000000E+00   0.0000000000E+00  -0.2708725614E+00   0.3027288369E+02   0.4947620650E-12   0.4901344446E-12  -0.9474681212E-16   0.1915694623E-14   0.1159833033E-15   0.0000000000E+00
   0.1900000000E+01   0.7291274386E+00   0.7291274386E+00  -0.2583894300E-15   0.2042960710E-15   0.1466940052E-15   0.9000000000E+00  -0.2708725614E+00  -0.2708725614E+00   0.3027288368E+02   0.4480314297E-12   0.4379243419E-12   0.1292514627E-14  -0.2541151141E-14   0.6830799624E-15   0.0000000000E+00
   0.0000000000E+00   0.7291274386E+00   0.7291274386E+00   0.0000000000E+00   0.5816159037E-16   0.1040852960E-16   0.0000000000E+00  -0.2708725614E+00  -0.2708725614E+00   0.3027288368E+02   0.2477648791E-12   0.2528522711E-12   0.3975286640E-14  -0.1672420547E-14  -0.5118210721E-16   0.0000000000E+00
   0.3800000000E+01   0.0000000000E+00  -0.9445082586E-16  -0.5551115123E-16   0.0000000000E+00   0.3943474267E-17   0.1800000000E+01   0.0000000000E+00  -0.9839430013E-16   0.3027288369E+02   0.6325764911E-13   0.6097449852E-13  -0.5326897275E-15   0.3002374903E-14  -0.1171402140E-14   0.0000000000E+00
   0.3800000000E+01   0.7291274386E+00  -0.2780878385E-15  -0.5551115123E-16   0.3075435806E-15   0.1814024256E-15   0.1800000000E+01  -0.2708725614E+00  -0.4594902640E-15   0.3027288369E+02   0.7763524008E-12   0.7812017770E-12   0.1609596917E-15  -0.4896389236E-14  -0.7056725139E-15   0.0000000000E+00
   0.3800000000E+01   0.0000000000E+00   0.7291274386E+00  -0.5551115123E-16   0.0000000000E+00   0.2359735423E-15   0.1800000000E+01   0.0000000000E+00  -0.2708725614E+00   0.3027288369E+02   0.6034881759E-12   0.5962419283E-12  -0.2610954576E-17   0.2297504365E-14  -0.3878651042E-15   0.0000000000E+00
   0.3800000000E+01   0.7291274386E+00   0.7291274386E+00  -0.5551115123E-16   0.2902149210E-15   0.2415345639E-15   0.1800000000E+01  -0.2708725614E+00  -0.2708725614E+00   0.3027288368E+02   0.4604028244E-12   0.4644645232E-12  -0.9489683824E-15   0.2677377072E-14   0.7786452219E-16   0.0000000000E+00
     1     2     3     4     5     6     7     8
     2     9    10     3     6    11    12     7
 VARIABLES = X,Y,Z,DU1,DU2,DU3,U1,U2,U3,S11,S22,S33,S12,S13,S23,MISES
 ZONE, T="0.1800D+02" F=FEPOINT, I=   12 J=    2 ET=BRICK
   0.0000000000E+00   0.0000000000E+00   0.0000000000E+00   0.0000000000E+00   0.0000000000E+00   0.0000000000E+00   0.0000000000E+00   0.0000000000E+00   0.0000000000E+00   0.3027288369E+02   0.5116455952E-12   0.5092716361E-12  -0.1640890023E-15  -0.1727580875E-13  -0.3094180470E-14   0.0000000000E+00
   0.1900000000E+01   0.0000000000E+00  -0.6710664432E-15   0.1004458621E-15   0.0000000000E+00  -0.4962828869E-15   0.9000000000E+00   0.0000000000E+00  -0.1747835564E-15   0.3027288369E+02  -0.5066841966E-13  -0.4686620812E-13  -0.7096528210E-15  -0.2963771466E-14   0.2461211136E-14   0.0000000000E+00
   0.1900000000E+01   0.7291274386E+00  -0.3301478729E-15  -0.2406206625E-15  -0.8177633101E-16  -0.2440506285E-15   0.9000000000E+00  -0.2708725614E+00  -0.8609724439E-16   0.3027288369E+02  -0.5621380747E-13  -0.5111973624E-13   0.8990153905E-15  -0.1218590211E-14   0.9189237639E-15   0.0000000000E+00
   0.0000000000E+00   0.7291274386E+00  -0.4389750412E-15   0.0000000000E+00  -0.1256714574E-15  -0.2030575910E-15   0.0000000000E+00  -0.2708725614E+00  -0.2359174502E-15   0.3027288369E+02  -0.1234088038E-12  -0.1309038261E-12   0.1467297629E-15   0.4457410846E-14  -0.2182812117E-14   0.0000000000E+00
   0.0000000000E+00   0.0000000000E+00   0.7291274386E+00   0.0000000000E+00   0.0000000000E+00  -0.7719554193E-16   0.0000000000E+00   0.0000000000E+00  -0.2708725614E+00   0.3027288369E+02  -0.1410782924E-12  -0.1359546324E-12   0.1692280265E-15  -0.3666019872E-14  -0.1762530900E-14   0.0000000000E+00
   0.1900000000E+01   0.0000000000E+00   0.7291274386E+00   0.2080303455E-15   0.0000000000E+00  -0.2849184151E-15   0.9000000000E+00   0.0000000000E+00  -0.2708725614E+00   0.3027288369E+02   0.2191773921E-12   0.2190115483E-12  -0.5411941923E-15  -0.3597872400E-14  -0.2405102016E-16   0.0000000000E+00
   0.1900000000E+01   0.7291274386E+00   0.7291274386E+00   0.2363836611E-15  -0.3701946960E-15  -0.2806679270E-15   0.9000000000E+00  -0.2708725614E+00  -0.2708725614E+00   0.3027288368E+02   0.2218335686E-12   0.2229595846E-12   0.1119397533E-16   0.6567989185E-15  -0.1566338391E-14   0.0000000000E+00
   0.0000000000E+00   0.7291274386E+00   0.7291274386E+00   0.0000000000E+00   0.6457389674E-16  -0.3595987432E-15   0.0000000000E+00  -0.2708725614E+00  -0.2708725614E+00   0.3027288368E+02   0.2093394739E-13   0.2093654428E-13  -0.7090893863E-14   0.5942095326E-15  -0.8511625478E-15   0.0000000000E+00
   0.3800000000E+01   0.0000000000E+00  -0.4755359926E-15  -0.5551115123E-16   0.0000000000E+00  -0.3810851667E-15   0.1800000000E+01   0.0000000000E+00  -0.9445082586E-16   0.3027288369E+02  -0.4517251631E-12  -0.4603375674E-12  -0.3056028266E-15   0.7799819075E-14  -0.1335682179E-14   0.0000000000E+00
   0.3800000000E+01   0.7291274386E+00  -0.6614652633E-15  -0.5551115123E-16   0.6976922051E-16  -0.3833774248E-15   0.1800000000E+01  -0.2708725614E+00  -0.2780878385E-15   0.3027288369E+02   0.1799037882E-12   0.1757201417E-12   0.2600914831E-14  -0.8572169254E-14  -0.1251972581E-14   0.0000000000E+00
   0.3800000000E+01   0.0000000000E+00   0.7291274386E+00  -0.5551115123E-16   0.0000000000E+00  -0.7171438201E-15   0.1800000000E+01   0.0000000000E+00  -0.2708725614E+00   0.3027288369E+02   0.3400793013E-13   0.2961534285E-13   0.6732979716E-15  -0.7078171664E-14   0.1802925184E-14   0.0000000000E+00
   0.3800000000E+01   0.7291274386E+00   0.7291274386E+00  -0.5551115123E-16  -0.8025108879E-16  -0.3696450758E-15   0.1800000000E+01  -0.2708725614E+00  -0.2708725614E+00   0.3027288368E+02  -0.1358216626E-12  -0.1357854921E-12   0.9038196195E-14  -0.9581896808E-15   0.1886634782E-14   0.0000000000E+00
     1     2     3     4     5     6     7     8
     2     9    10     3     6    11    12     7
 VARIABLES = X,Y,Z,DU1,DU2,DU3,U1,U2,U3,S11,S22,S33,S12,S13,S23,MISES
 ZONE, T="0.1900D+02" F=FEPOINT, I=   12 J=    2 ET=BRICK
   0.0000000000E+00   0.0000000000E+00   0.0000000000E+00   0.0000000000E+00   0.0000000000E+00   0.0000000000E+00   0.0000000000E+00   0.0000000000E+00   0.0000000000E+00   0.3027288369E+02   0.7754431988E-13   0.8178287867E-13  -0.2768963939E-15   0.6109838591E-14   0.1454586761E-14   0.0000000000E+00
   0.1900000000E+01   0.0000000000E+00   0.2727447359E-15   0.1975753459E-15   0.0000000000E+00   0.9438111791E-15   0.9000000000E+00   0.0000000000E+00  -0.6710664432E-15   0.3027288369E+02  -0.1520378551E-12  -0.1499266928E-12  -0.1246898756E-14   0.2474400533E-14  -0.1751529905E-14   0.0000000000E+00
   0.1900000000E+01   0.7291274386E+00   0.4709847953E-17   0.1393526518E-15  -0.1397319438E-15   0.3348577209E-15   0.9000000000E+00  -0.2708725614E+00  -0.3301478729E-15   0.3027288369E+02   0.1193855641E-12   0.1231333371E-12  -0.9750940047E-15  -0.1395175070E-14   0.2417204673E-15   0.0000000000E+00
   0.0000000000E+00   0.7291274386E+00   0.2190412525E-15   0.0000000000E+00   0.2631175390E-17   0.6580162938E-15   0.0000000000E+00  -0.2708725614E+00  -0.4389750412E-15   0.3027288369E+02  -0.5598358416E-13  -0.5480089737E-13  -0.2453631358E-14  -0.5017669440E-14   0.7367646085E-15   0.0000000000E+00
   0.0000000000E+00   0.0000000000E+00   0.7291274386E+00   0.0000000000E+00   0.0000000000E+00   0.2641941044E-15   0.0000000000E+00   0.0000000000E+00  -0.2708725614E+00   0.3027288369E+02   0.1132188959E-12   0.1186691770E-12   0.2556317189E-16   0.1062469159E-14  -0.9647622086E-15   0.0000000000E+00
   0.1900000000E+01   0.0000000000E+00   0.7291274386E+00   0.9548529447E-17   0.0000000000E+00   0.5474903998E-15   0.9000000000E+00   0.0000000000E+00  -0.2708725614E+00   0.3027288369E+02  -0.2166211936E-12  -0.2193316929E-12  -0.3112888250E-15   0.2176445350E-14  -0.6934860395E-15   0.0000000000E+00
   0.1900000000E+01   0.7291274386E+00   0.7291274386E+00   0.2028697441E-16   0.3832282730E-15   0.4263557173E-15   0.9000000000E+00  -0.2708725614E+00  -0.2708725614E+00   0.3027288368E+02   0.5043462625E-13   0.4936251491E-13   0.2745031932E-14   0.1529148238E-14   0.1299764332E-14   0.0000000000E+00
   0.0000000000E+00   0.7291274386E+00   0.7291274386E+00   0.0000000000E+00  -0.1999848083E-15   0.3576807328E-15   0.0000000000E+00  -0.2708725614E+00  -0.2708725614E+00   0.3027288368E+02  -0.2089415560E-13  -0.1850063514E-13   0.7124324343E-14   0.2443299941E-14  -0.1682584361E-14   0.0000000000E+00
   0.3800000000E+01   0.0000000000E+00   0.1604048176E-15  -0.5551115123E-16   0.0000000000E+00   0.6359408102E-15   0.1800000000E+01   0.0000000000E+00  -0.4755359926E-15   0.3027288369E+02  -0.3733461849E-12  -0.3721640618E-12   0.6246641708E-15  -0.3675371122E-14  -0.1081351024E-14   0.0000000000E+00
   0.3800000000E+01   0.7291274386E+00   0.2501732969E-16  -0.5551115123E-16  -0.1848930413E-15   0.6864825930E-15   0.1800000000E+01  -0.2708725614E+00  -0.6614652633E-15   0.3027288369E+02  -0.3829330448E-12  -0.3819703233E-12   0.3345008637E-14   0.1583854452E-14   0.7868419813E-15   0.0000000000E+00
   0.3800000000E+01   0.0000000000E+00   0.7291274386E+00  -0.5551115123E-16   0.0000000000E+00   0.9644831810E-15   0.1800000000E+01   0.0000000000E+00  -0.2708725614E+00   0.3027288369E+02   0.1324869161E-12   0.1326430205E-12   0.3327591289E-15   0.7760879431E-15  -0.1371928497E-14   0.0000000000E+00
   0.3800000000E+01   0.7291274386E+00   0.7291274386E+00  -0.5551115123E-16   0.4215569589E-16   0.5113057986E-15   0.1800000000E+01  -0.2708725614E+00  -0.2708725614E+00   0.3027288368E+02   0.1147500048E-12   0.1146866438E-12  -0.6533605285E-15  -0.2846831280E-16   0.4962645085E-15   0.0000000000E+00
     1     2     3     4     5     6     7     8
     2     9    10     3     6    11    12     7
 VARIABLES = X,Y,Z,DU1,DU2,DU3,U1,U2,U3,S11,S22,S33,S12,S13,S23,MISES
 ZONE, T="0.2000D+02" F=FEPOINT, I=   12 J=    2 ET=BRICK
   0.0000000000E+00   0.0000000000E+00   0.0000000000E+00   0.0000000000E+00   0.0000000000E+00   0.0000000000E+00   0.0000000000E+00   0.0000000000E+00   0.0000000000E+00   0.3027288369E+02   0.4017996999E-12   0.4038337883E-12  -0.4779848337E-15   0.9759069103E-14   0.3860696109E-14   0.0000000000E+00
   0.1900000000E+01   0.0000000000E+00   0.4482585423E-15  -0.3206800405E-15   0.0000000000E+00   0.1755138064E-15   0.9000000000E+00   0.0000000000E+00   0.2727447359E-15   0.3027288369E+02   0.2190373914E-12   0.2198832522E-12   0.1558445482E-14   0.5137027017E-14  -0.1153181997E-14   0.0000000000E+00
   0.1900000000E+01   0.7291274386E+00   0.2897625880E-15  -0.3121373832E-16   0.3406962719E-16   0.2850527401E-15   0.9000000000E+00  -0.2708725614E+00   0.4709847953E-17   0.3027288369E+02  -0.4846855785E-13  -0.5042596911E-13   0.1849907961E-14  -0.3941566124E-14  -0.4708411905E-15   0.0000000000E+00
   0.0000000000E+00   0.7291274386E+00   0.5338113532E-15   0.0000000000E+00   0.1595201186E-15   0.3147701007E-15   0.0000000000E+00  -0.2708725614E+00   0.2190412525E-15   0.3027288369E+02  -0.1060569031E-12  -0.1054582996E-12  -0.6246570870E-14  -0.5181546310E-14   0.2702815926E-14   0.0000000000E+00
   0.0000000000E+00   0.0000000000E+00   0.7291274386E+00   0.0000000000E+00   0.0000000000E+00   0.1489276404E-15   0.0000000000E+00   0.0000000000E+00  -0.2708725614E+00   0.3027288369E+02   0.3665966986E-12   0.3645992942E-12   0.4097523533E-15   0.3853791435E-14   0.5990828003E-15   0.0000000000E+00
   0.1900000000E+01   0.0000000000E+00   0.7291274386E+00  -0.3291676831E-15   0.0000000000E+00   0.2723152379E-15   0.9000000000E+00   0.0000000000E+00  -0.2708725614E+00   0.3027288369E+02  -0.5146051445E-13  -0.4462858440E-13  -0.8471897825E-15   0.2247406680E-14   0.2216094025E-15   0.0000000000E+00
   0.1900000000E+01   0.7291274386E+00   0.7291274386E+00  -0.3650066671E-15  -0.1658029562E-15   0.3851027944E-15   0.9000000000E+00  -0.2708725614E+00  -0.2708725614E+00   0.3027288368E+02   0.1148228058E-13   0.1491186074E-13  -0.2260532053E-14  -0.9837574486E-15   0.9039502089E-15   0.0000000000E+00
   0.0000000000E+00   0.7291274386E+00   0.7291274386E+00   0.0000000000E+00   0.1107074762E-15   0.4505350133E-15   0.0000000000E+00  -0.2708725614E+00  -0.2708725614E+00   0.3027288368E+02  -0.8147824852E-13  -0.8461159890E-13   0.2466028163E-14   0.6435843613E-15  -0.5587973816E-15   0.0000000000E+00
   0.3800000000E+01   0.0000000000E+00   0.4024920638E-15  -0.5551115123E-16   0.0000000000E+00   0.2420872462E-15   0.1800000000E+01   0.0000000000E+00   0.1604048176E-15   0.3027288369E+02   0.3769432150E-13   0.3589869327E-13  -0.1633380635E-15  -0.3100761362E-14   0.5321678413E-16   0.0000000000E+00
   0.3800000000E+01   0.7291274386E+00   0.4028675913E-15  -0.5551115123E-16   0.1790462344E-15   0.3778502616E-15   0.1800000000E+01  -0.2708725614E+00   0.2501732969E-16   0.3027288369E+02  -0.3307150821E-15   0.2332516218E-14   0.6188172930E-14   0.3910715246E-14  -0.2524142585E-14   0.0000000000E+00
   0.3800000000E+01   0.0000000000E+00   0.7291274386E+00  -0.5551115123E-16   0.0000000000E+00   0.1010577994E-15   0.1800000000E+01   0.0000000000E+00  -0.2708725614E+00   0.3027288369E+02  -0.4625881060E-12  -0.4692318053E-12  -0.2614005714E-15  -0.2974724367E-14   0.1934818133E-14   0.0000000000E+00
   0.3800000000E+01   0.7291274386E+00   0.7291274386E+00  -0.5551115123E-16  -0.3923053476E-15   0.5314719612E-15   0.1800000000E+01  -0.2708725614E+00  -0.2708725614E+00   0.3027288368E+02   0.1364365450E-12   0.1384237446E-12  -0.5144360921E-14   0.4001201926E-14  -0.6425412358E-15   0.0000000000E+00
     1     2     3     4     5     6     7     8
     2     9    10     3     6    11    12     7
