 VARIABLES = X,Y,Z,DU1,DU2,DU3,U1,U2,U3,S11,S22,S33,S12,S13,S23,MISES
 ZONE, T="0.1000D+01" F=FEPOINT, I=   12 J=    2 ET=BRICK
   0.0000000000E+00   0.0000000000E+00   0.0000000000E+00   0.0000000000E+00   0.0000000000E+00   0.0000000000E+00   0.0000000000E+00   0.0000000000E+00   0.0000000000E+00   0.2694413814E+01   0.1537683307E-12   0.1510513323E-12   0.3548806100E-16   0.1928827560E-15   0.5782334346E-15   0.0000000000E+00
   0.1090000000E+01   0.0000000000E+00   0.1231871981E-16   0.9000000000E-01   0.0000000000E+00   0.1231871981E-16   0.0000000000E+00   0.0000000000E+00   0.0000000000E+00   0.2694413814E+01   0.3137709119E-12   0.3244507643E-12  -0.4435159494E-15   0.3712126650E-15   0.5769887940E-15   0.0000000000E+00
   0.1090000000E+01   0.9582563187E+00   0.7184487500E-16   0.9000000000E-01  -0.4174368125E-01   0.7184487500E-16   0.0000000000E+00   0.0000000000E+00   0.0000000000E+00   0.2694413814E+01   0.3190166075E-12   0.3197194459E-12  -0.3465346530E-15  -0.1864210080E-15  -0.2432387562E-15   0.0000000000E+00
   0.0000000000E+00   0.9582563187E+00   0.6365242598E-16   0.0000000000E+00  -0.4174368125E-01   0.6365242598E-16   0.0000000000E+00   0.0000000000E+00   0.0000000000E+00   0.2694413814E+01   0.1466025920E-12   0.1521996978E-12   0.1673942254E-14   0.1906663969E-15   0.5086651335E-16   0.0000000000E+00
   0.0000000000E+00   0.0000000000E+00   0.9582563187E+00   0.0000000000E+00   0.0000000000E+00  -0.4174368125E-01   0.0000000000E+00   0.0000000000E+00   0.0000000000E+00   0.2694413814E+01   0.1449397378E-12   0.1505368437E-12  -0.8787220639E-17  -0.3589874194E-15   0.1060719475E-15   0.0000000000E+00
   0.1090000000E+01   0.0000000000E+00   0.9582563187E+00   0.9000000000E-01   0.0000000000E+00  -0.4174368125E-01   0.0000000000E+00   0.0000000000E+00   0.0000000000E+00   0.2694413814E+01   0.3223423158E-12   0.3230451543E-12  -0.6175322073E-15   0.5208285802E-15   0.2995115857E-15   0.0000000000E+00
   0.1090000000E+01   0.9582563187E+00   0.9582563187E+00   0.9000000000E-01  -0.4174368125E-01  -0.4174368125E-01   0.0000000000E+00   0.0000000000E+00   0.0000000000E+00   0.2694413813E+01   0.3218278568E-12   0.3125535404E-12   0.2514768278E-15  -0.4495101371E-15  -0.5207159645E-15   0.0000000000E+00
   0.0000000000E+00   0.9582563187E+00   0.9582563187E+00   0.0000000000E+00  -0.4174368125E-01  -0.4174368125E-01   0.0000000000E+00   0.0000000000E+00   0.0000000000E+00   0.2694413813E+01   0.1464142311E-12   0.1603256524E-12   0.8936403202E-15   0.2243824199E-15  -0.4212949737E-15   0.0000000000E+00
   0.2180000000E+01   0.0000000000E+00   0.7469431045E-17   0.1800000000E+00   0.0000000000E+00   0.7469431045E-17   0.0000000000E+00   0.0000000000E+00   0.0000000000E+00   0.2694413814E+01   0.4975676834E-12   0.4855763404E-12   0.2208132082E-15  -0.3351631597E-15   0.3988955477E-15   0.0000000000E+00
   0.2180000000E+01   0.9582563187E+00   0.5093594593E-16   0.1800000000E+00  -0.4174368125E-01   0.5093594593E-16   0.0000000000E+00   0.0000000000E+00   0.0000000000E+00   0.2694413813E+01   0.4904018333E-12   0.4900504141E-12  -0.1223678392E-14   0.1840219172E-15   0.1159330846E-14   0.0000000000E+00
   0.2180000000E+01   0.0000000000E+00   0.9582563187E+00   0.1800000000E+00   0.0000000000E+00  -0.4174368125E-01   0.0000000000E+00   0.0000000000E+00   0.0000000000E+00   0.2694413813E+01   0.4854132707E-12   0.4850618515E-12  -0.2931127761E-15   0.5159388461E-15  -0.8540734124E-15   0.0000000000E+00
   0.2180000000E+01   0.9582563187E+00   0.9582563187E+00   0.1800000000E+00  -0.4174368125E-01  -0.4174368125E-01   0.0000000000E+00   0.0000000000E+00   0.0000000000E+00   0.2694413813E+01   0.4811274978E-12   0.4924160728E-12   0.5424777532E-15  -0.3758723640E-15  -0.9363811403E-16   0.0000000000E+00
     1     2     3     4     5     6     7     8
     2     9    10     3     6    11    12     7
 VARIABLES = X,Y,Z,DU1,DU2,DU3,U1,U2,U3,S11,S22,S33,S12,S13,S23,MISES
 ZONE, T="0.2000D+01" F=FEPOINT, I=   12 J=    2 ET=BRICK
   0.0000000000E+00   0.0000000000E+00   0.0000000000E+00   0.0000000000E+00   0.0000000000E+00   0.0000000000E+00   0.0000000000E+00   0.0000000000E+00   0.0000000000E+00   0.5417802406E+01   0.4597188819E-12   0.4638596991E-12   0.1365050860E-15   0.3696829103E-15  -0.1377231701E-15   0.0000000000E+00
   0.1180000000E+01   0.0000000000E+00   0.6209925640E-16   0.9000000000E-01   0.0000000000E+00   0.4978053659E-16   0.9000000000E-01   0.0000000000E+00   0.1231871981E-16   0.5417802406E+01  -0.3932064922E-13  -0.3738367768E-13   0.2397411003E-15   0.1169120461E-14  -0.6883153416E-16   0.0000000000E+00
   0.1180000000E+01   0.9214054915E+00   0.5539733873E-16   0.9000000000E-01  -0.3685082724E-01  -0.1644753627E-16   0.9000000000E-01  -0.4174368125E-01   0.7184487500E-16   0.5417802405E+01  -0.4138622791E-13  -0.3909834832E-13  -0.1377318731E-14   0.9374353064E-15  -0.1279318374E-15   0.0000000000E+00
   0.0000000000E+00   0.9214054915E+00  -0.1160642250E-16   0.0000000000E+00  -0.3685082724E-01  -0.7525884848E-16   0.0000000000E+00  -0.4174368125E-01   0.6365242598E-16   0.5417802405E+01   0.4637772292E-12   0.4654745902E-12  -0.1750471224E-15   0.6801064902E-15   0.3210692232E-15   0.0000000000E+00
   0.0000000000E+00   0.0000000000E+00   0.9214054915E+00   0.0000000000E+00   0.0000000000E+00  -0.3685082724E-01   0.0000000000E+00   0.0000000000E+00  -0.4174368125E-01   0.5417802405E+01   0.4605176435E-12   0.4646584372E-12  -0.3198416376E-18  -0.3466746316E-15  -0.2068747861E-15   0.0000000000E+00
   0.1180000000E+01   0.0000000000E+00   0.9214054915E+00   0.9000000000E-01   0.0000000000E+00  -0.3685082724E-01   0.9000000000E-01   0.0000000000E+00  -0.4174368125E-01   0.5417802405E+01  -0.4091817252E-13  -0.3898115404E-13   0.2529233021E-15  -0.1117914553E-14   0.8988878640E-16   0.0000000000E+00
   0.1180000000E+01   0.9214054915E+00   0.9214054915E+00   0.9000000000E-01  -0.3685082724E-01  -0.3685082724E-01   0.9000000000E-01  -0.4174368125E-01  -0.4174368125E-01   0.5417802404E+01  -0.4095817288E-13  -0.3867030587E-13  -0.1310527451E-14  -0.8546331333E-15   0.3078848313E-16   0.0000000000E+00
   0.0000000000E+00   0.9214054915E+00   0.9214054915E+00   0.0000000000E+00  -0.3685082724E-01  -0.3685082724E-01   0.0000000000E+00  -0.4174368125E-01  -0.4174368125E-01   0.5417802405E+01   0.4635632016E-12   0.4652605689E-12  -0.1111602448E-14  -0.8177839788E-17   0.2519176072E-15   0.0000000000E+00
   0.2360000000E+01   0.0000000000E+00   0.2297637821E-15   0.1800000000E+00   0.0000000000E+00   0.2222943511E-15   0.1800000000E+00   0.0000000000E+00   0.7469431045E-17   0.5417802406E+01  -0.5537778716E-12  -0.5514255320E-12   0.2302414484E-15   0.1462533906E-14  -0.6967809934E-15   0.0000000000E+00
   0.2360000000E+01   0.9214054915E+00   0.1547184841E-15   0.1800000000E+00  -0.3685082724E-01   0.1037825381E-15   0.1800000000E+00  -0.4174368125E-01   0.5093594593E-16   0.5417802405E+01  -0.5424185276E-12  -0.5402419455E-12  -0.2692326006E-14   0.1910819824E-14  -0.2658125971E-15   0.0000000000E+00
   0.2360000000E+01   0.0000000000E+00   0.9214054915E+00   0.1800000000E+00   0.0000000000E+00  -0.3685082724E-01   0.1800000000E+00   0.0000000000E+00  -0.4174368125E-01   0.5417802405E+01  -0.5426525552E-12  -0.5403005426E-12   0.2768999423E-15  -0.2395178580E-14   0.1878627084E-15   0.0000000000E+00
   0.2360000000E+01   0.9214054915E+00   0.9214054915E+00   0.1800000000E+00  -0.3685082724E-01  -0.3685082724E-01   0.1800000000E+00  -0.4174368125E-01  -0.4174368125E-01   0.5417802404E+01  -0.5453995466E-12  -0.5432228769E-12  -0.1738718957E-14  -0.9850327249E-15   0.6188311046E-15   0.0000000000E+00
     1     2     3     4     5     6     7     8
     2     9    10     3     6    11    12     7
 VARIABLES = X,Y,Z,DU1,DU2,DU3,U1,U2,U3,S11,S22,S33,S12,S13,S23,MISES
 ZONE, T="0.3000D+01" F=FEPOINT, I=   12 J=    2 ET=BRICK
   0.0000000000E+00   0.0000000000E+00   0.0000000000E+00   0.0000000000E+00   0.0000000000E+00   0.0000000000E+00   0.0000000000E+00   0.0000000000E+00   0.0000000000E+00   0.8196117974E+01   0.4771562643E-13   0.4519831557E-13  -0.8639102754E-16  -0.3151387170E-14  -0.1394596128E-14   0.0000000000E+00
   0.1270000000E+01   0.0000000000E+00  -0.1681926451E-15   0.9000000000E-01   0.0000000000E+00  -0.2302919015E-15   0.1800000000E+00   0.0000000000E+00   0.6209925640E-16   0.8196117973E+01   0.7421088332E-13   0.7070041670E-13   0.8438827760E-15  -0.5236912240E-15   0.6244500988E-15   0.0000000000E+00
   0.1270000000E+01   0.8885678291E+00  -0.1013893791E-15   0.9000000000E-01  -0.3283766243E-01  -0.1567867178E-15   0.1800000000E+00  -0.7859450850E-01   0.5539733873E-16   0.8196117972E+01   0.4803177361E-13   0.4770880338E-13  -0.9272411227E-15   0.7064536773E-16  -0.2033323979E-16   0.0000000000E+00
   0.0000000000E+00   0.8885678291E+00  -0.1515798908E-15   0.0000000000E+00  -0.3283766243E-01  -0.1399734683E-15   0.0000000000E+00  -0.7859450850E-01  -0.1160642250E-16   0.8196117973E+01   0.6080518071E-13   0.5337841499E-13  -0.1644992458E-14   0.6379600592E-15  -0.1782848430E-14   0.0000000000E+00
   0.0000000000E+00   0.0000000000E+00   0.8885678291E+00   0.0000000000E+00   0.0000000000E+00  -0.3283766243E-01   0.0000000000E+00   0.0000000000E+00  -0.7859450850E-01   0.8196117973E+01   0.9633284760E-13   0.9370443468E-13   0.6047269674E-16   0.8057864682E-16   0.4467010063E-15   0.0000000000E+00
   0.1270000000E+01   0.0000000000E+00   0.8885678291E+00   0.9000000000E-01   0.0000000000E+00  -0.3283766243E-01   0.1800000000E+00   0.0000000000E+00  -0.7859450850E-01   0.8196117972E+01  -0.2302356320E-13  -0.2631182569E-13   0.3447013571E-15  -0.4953144689E-15  -0.6141412878E-16   0.0000000000E+00
   0.1270000000E+01   0.8885678291E+00   0.8885678291E+00   0.9000000000E-01  -0.3283766243E-01  -0.3283766243E-01   0.1800000000E+00  -0.7859450850E-01  -0.7859450850E-01   0.8196117971E+01   0.7136283563E-13   0.7186844152E-13  -0.1160503409E-14  -0.1257984652E-14  -0.7061974672E-15   0.0000000000E+00
   0.0000000000E+00   0.8885678291E+00   0.8885678291E+00   0.0000000000E+00  -0.3283766243E-01  -0.3283766243E-01   0.0000000000E+00  -0.7859450850E-01  -0.7859450850E-01   0.8196117972E+01   0.4913965019E-13   0.4129859643E-13  -0.1470669428E-14  -0.8343007816E-15   0.5844870415E-16   0.0000000000E+00
   0.2540000000E+01   0.0000000000E+00  -0.7894179451E-16   0.1800000000E+00   0.0000000000E+00  -0.3087055766E-15   0.3600000000E+00   0.0000000000E+00   0.2297637821E-15   0.8196117973E+01  -0.9656486700E-13  -0.9782196695E-13   0.1842287968E-15   0.2212400956E-14   0.1294325472E-15   0.0000000000E+00
   0.2540000000E+01   0.8885678291E+00  -0.6276365960E-16   0.1800000000E+00  -0.3283766243E-01  -0.2174821437E-15   0.3600000000E+00  -0.7859450850E-01   0.1547184841E-15   0.8196117972E+01   0.9237990170E-13   0.9035846806E-13  -0.1799417570E-14   0.9238409821E-15   0.2791625410E-15   0.0000000000E+00
   0.2540000000E+01   0.0000000000E+00   0.8885678291E+00   0.1800000000E+00   0.0000000000E+00  -0.3283766243E-01   0.3600000000E+00   0.0000000000E+00  -0.7859450850E-01   0.8196117972E+01   0.5872165579E-12   0.5844126561E-12   0.2130179633E-15  -0.9628113496E-15   0.1770585250E-15   0.0000000000E+00
   0.2540000000E+01   0.8885678291E+00   0.8885678291E+00   0.1800000000E+00  -0.3283766243E-01  -0.3283766243E-01   0.3600000000E+00  -0.7859450850E-01  -0.7859450850E-01   0.8196117971E+01  -0.9484635449E-13  -0.1026405050E-12  -0.1266249445E-14  -0.2611582160E-15   0.3267885188E-15   0.0000000000E+00
     1     2     3     4     5     6     7     8
     2     9    10     3     6    11    12     7
 VARIABLES = X,Y,Z,DU1,DU2,DU3,U1,U2,U3,S11,S22,S33,S12,S13,S23,MISES
 ZONE, T="0.4000D+01" F=FEPOINT, I=   12 J=    2 ET=BRICK
   0.0000000000E+00   0.0000000000E+00   0.0000000000E+00   0.0000000000E+00   0.0000000000E+00   0.0000000000E+00   0.0000000000E+00   0.0000000000E+00   0.0000000000E+00   0.1104808577E+02  -0.1352591874E-13  -0.1740768794E-13   0.7852756229E-16  -0.1088905794E-14  -0.7828277058E-15   0.0000000000E+00
   0.1360000000E+01   0.0000000000E+00  -0.1024544505E-15   0.9000000000E-01   0.0000000000E+00   0.6573819463E-16   0.2700000000E+00   0.0000000000E+00  -0.1681926451E-15   0.1104808577E+02   0.1561110090E-12   0.1544557573E-12   0.1159867952E-14  -0.3151718739E-15   0.3565678826E-16   0.0000000000E+00
   0.1360000000E+01   0.8590704173E+00  -0.9953955452E-16   0.9000000000E-01  -0.2949741182E-01   0.1849824555E-17   0.2700000000E+00  -0.1114321709E+00  -0.1013893791E-15   0.1104808577E+02   0.1559638292E-12   0.1530970371E-12   0.2784418369E-14  -0.1963690895E-14   0.1450916655E-15   0.0000000000E+00
   0.0000000000E+00   0.8590704173E+00  -0.9334761757E-16   0.0000000000E+00  -0.2949741182E-01   0.5823227322E-16   0.0000000000E+00  -0.1114321709E+00  -0.1515798908E-15   0.1104808577E+02  -0.1319598561E-13  -0.1768355009E-13   0.1203766588E-14   0.5621498139E-17  -0.1796821379E-15   0.0000000000E+00
   0.0000000000E+00   0.0000000000E+00   0.8590704173E+00   0.0000000000E+00   0.0000000000E+00  -0.2949741182E-01   0.0000000000E+00   0.0000000000E+00  -0.1114321709E+00   0.1104808577E+02  -0.1528703834E-13  -0.1385373683E-13  -0.5811324743E-16   0.1489442250E-14   0.1436854797E-15   0.0000000000E+00
   0.1360000000E+01   0.0000000000E+00   0.8590704173E+00   0.9000000000E-01   0.0000000000E+00  -0.2949741182E-01   0.2700000000E+00   0.0000000000E+00  -0.1114321709E+00   0.1104808577E+02   0.1571299295E-12   0.1514649779E-12  -0.1278538222E-14   0.5020392074E-15  -0.7712483805E-15   0.0000000000E+00
   0.1360000000E+01   0.8590704173E+00   0.8590704173E+00   0.9000000000E-01  -0.2949741182E-01  -0.2949741182E-01   0.2700000000E+00  -0.1114321709E+00  -0.1114321709E+00   0.1104808577E+02   0.1584889749E-12   0.1516121577E-12  -0.9873888748E-15  -0.5220013839E-15  -0.6618135032E-15   0.0000000000E+00
   0.0000000000E+00   0.8590704173E+00   0.8590704173E+00   0.0000000000E+00  -0.2949741182E-01  -0.2949741182E-01   0.0000000000E+00  -0.1114321709E+00  -0.1114321709E+00   0.1104808577E+02  -0.1501117619E-13  -0.1418371353E-13   0.9295196502E-15  -0.1363878880E-14   0.7468310474E-15   0.0000000000E+00
   0.2720000000E+01   0.0000000000E+00  -0.1811316199E-15   0.1800000000E+00   0.0000000000E+00  -0.1021898254E-15   0.5400000000E+00   0.0000000000E+00  -0.7894179451E-16   0.1104808577E+02   0.3247717878E-12   0.3225448255E-12   0.1834454731E-17  -0.1407904636E-14   0.2105826156E-15   0.0000000000E+00
   0.2720000000E+01   0.8590704173E+00  -0.1606409610E-15   0.1800000000E+00  -0.2949741182E-01  -0.9787730141E-16   0.5400000000E+00  -0.1114321709E+00  -0.6276365960E-16   0.1104808577E+02   0.3293671640E-12   0.3187025618E-12   0.2125696263E-14  -0.4766260732E-15  -0.8253473497E-15   0.0000000000E+00
   0.2720000000E+01   0.0000000000E+00   0.8590704173E+00   0.1800000000E+00   0.0000000000E+00  -0.2949741182E-01   0.5400000000E+00   0.0000000000E+00  -0.1114321709E+00   0.1104808577E+02   0.3227543250E-12   0.3270546057E-12   0.4067691471E-15  -0.2351830517E-14   0.1610060075E-14   0.0000000000E+00
   0.2720000000E+01   0.8590704173E+00   0.8590704173E+00   0.1800000000E+00  -0.2949741182E-01  -0.2949741182E-01   0.5400000000E+00  -0.1114321709E+00  -0.1114321709E+00   0.1104808577E+02   0.3265965886E-12   0.3224586225E-12   0.1434942703E-17   0.3776253326E-14   0.5741301099E-15   0.0000000000E+00
     1     2     3     4     5     6     7     8
     2     9    10     3     6    11    12     7
 VARIABLES = X,Y,Z,DU1,DU2,DU3,U1,U2,U3,S11,S22,S33,S12,S13,S23,MISES
 ZONE, T="0.5000D+01" F=FEPOINT, I=   12 J=    2 ET=BRICK
   0.0000000000E+00   0.0000000000E+00   0.0000000000E+00   0.0000000000E+00   0.0000000000E+00   0.0000000000E+00   0.0000000000E+00   0.0000000000E+00   0.0000000000E+00   0.1398743099E+02  -0.3783787049E-12  -0.3792786513E-12  -0.2616460223E-16   0.2085059938E-14   0.2143200242E-15   0.0000000000E+00
   0.1450000000E+01   0.0000000000E+00   0.1004529437E-15   0.9000000000E-01   0.0000000000E+00   0.2029073942E-15   0.3600000000E+00   0.0000000000E+00  -0.1024544505E-15   0.1398743099E+02  -0.2814057431E-12  -0.2815137896E-12   0.4624122286E-15  -0.2034505231E-15  -0.9315830613E-15   0.0000000000E+00
   0.1450000000E+01   0.8323885354E+00   0.1492174763E-17   0.9000000000E-01  -0.2668188190E-01   0.1010317293E-15   0.3600000000E+00  -0.1409295827E+00  -0.9953955452E-16   0.1398743098E+02  -0.4045154108E-12  -0.4053217611E-12  -0.1530963513E-15   0.9137155572E-15  -0.1413622651E-15   0.0000000000E+00
   0.0000000000E+00   0.8323885354E+00   0.1383642105E-16   0.0000000000E+00  -0.2668188190E-01   0.1071840386E-15   0.0000000000E+00  -0.1409295827E+00  -0.9334761757E-16   0.1398743098E+02  -0.3168238736E-12  -0.3173746681E-12  -0.1049825124E-14  -0.8955970048E-15   0.6748382440E-16   0.0000000000E+00
   0.0000000000E+00   0.0000000000E+00   0.8323885354E+00   0.0000000000E+00   0.0000000000E+00  -0.2668188190E-01   0.0000000000E+00   0.0000000000E+00  -0.1409295827E+00   0.1398743098E+02   0.4478184120E-13   0.4779131009E-13   0.1800227316E-15   0.2453346555E-14   0.6712805147E-15   0.0000000000E+00
   0.1450000000E+01   0.0000000000E+00   0.8323885354E+00   0.9000000000E-01   0.0000000000E+00  -0.2668188190E-01   0.3600000000E+00   0.0000000000E+00  -0.1409295827E+00   0.1398743098E+02  -0.2107314893E-12  -0.2096299002E-12   0.3273872333E-15   0.5410950913E-16  -0.8681922719E-16   0.0000000000E+00
   0.1450000000E+01   0.8323885354E+00   0.8323885354E+00   0.9000000000E-01  -0.2668188190E-01  -0.2668188190E-01   0.3600000000E+00  -0.1409295827E+00  -0.1409295827E+00   0.1398743098E+02  -0.8692346746E-13  -0.8652042032E-13   0.1715699816E-16   0.1195588904E-14   0.7034015688E-15   0.0000000000E+00
   0.0000000000E+00   0.8323885354E+00   0.8323885354E+00   0.0000000000E+00  -0.2668188190E-01  -0.2668188190E-01   0.0000000000E+00  -0.1409295827E+00  -0.1409295827E+00   0.1398743098E+02  -0.1712216708E-13  -0.1376342723E-13   0.7720230835E-15  -0.6433927530E-15   0.5244443149E-15   0.0000000000E+00
   0.2900000000E+01   0.0000000000E+00   0.9480614622E-16   0.1800000000E+00   0.0000000000E+00   0.2759377661E-15   0.7200000000E+00   0.0000000000E+00  -0.1811316199E-15   0.1398743099E+02  -0.5725117677E-12  -0.5746212303E-12   0.3555722905E-15  -0.2588408382E-15  -0.5895087662E-15   0.0000000000E+00
   0.2900000000E+01   0.8323885354E+00   0.2103071563E-16   0.1800000000E+00  -0.2668188190E-01   0.1816716766E-15   0.7200000000E+00  -0.1409295827E+00  -0.1606409610E-15   0.1398743098E+02   0.2848365897E-12   0.2875901868E-12   0.1482156523E-15  -0.4147991383E-15  -0.1661076876E-15   0.0000000000E+00
   0.2900000000E+01   0.0000000000E+00   0.8323885354E+00   0.1800000000E+00   0.0000000000E+00  -0.2668188190E-01   0.7200000000E+00   0.0000000000E+00  -0.1409295827E+00   0.1398743098E+02   0.3107987178E-12   0.3138079303E-12   0.6121681020E-15  -0.1120073907E-15   0.1978504639E-16   0.0000000000E+00
   0.2900000000E+01   0.8323885354E+00   0.8323885354E+00   0.1800000000E+00  -0.2668188190E-01  -0.2668188190E-01   0.7200000000E+00  -0.1409295827E+00  -0.1409295827E+00   0.1398743098E+02  -0.5514130497E-12  -0.5435391193E-12  -0.6002927200E-15  -0.1032566963E-15   0.4431861248E-15   0.0000000000E+00
     1     2     3     4     5     6     7     8
     2     9    10     3     6    11    12     7
 VARIABLES = X,Y,Z,DU1,DU2,DU3,U1,U2,U3,S11,S22,S33,S12,S13,S23,MISES
 ZONE, T="0.6000D+01" F=FEPOINT, I=   12 J=    2 ET=BRICK
   0.0000000000E+00   0.0000000000E+00   0.0000000000E+00   0.0000000000E+00   0.0000000000E+00   0.0000000000E+00   0.0000000000E+00   0.0000000000E+00   0.0000000000E+00   0.1702432461E+02  -0.6776683104E-12  -0.6721116917E-12   0.1224579769E-15   0.4339802279E-14   0.2083128965E-14   0.0000000000E+00
   0.1540000000E+01   0.0000000000E+00   0.1927390206E-15   0.9000000000E-01   0.0000000000E+00   0.9228607692E-16   0.4500000000E+00   0.0000000000E+00   0.1004529437E-15   0.1702432461E+02   0.1605977058E-12   0.1601484386E-12  -0.4439073342E-16   0.1254705986E-14  -0.1538674605E-14   0.0000000000E+00
   0.1540000000E+01   0.8081061614E+00   0.7754479537E-18   0.9000000000E-01  -0.2428237395E-01  -0.7167268098E-18   0.4500000000E+00  -0.1676114646E+00   0.1492174763E-17   0.1702432461E+02  -0.1494797007E-12  -0.1448521961E-12   0.7374187875E-15  -0.6959112610E-15  -0.8585043709E-15   0.0000000000E+00
   0.0000000000E+00   0.8081061614E+00   0.2563005125E-15   0.0000000000E+00  -0.2428237395E-01   0.2424640915E-15   0.0000000000E+00  -0.1676114646E+00   0.1383642105E-16   0.1702432461E+02  -0.2020296023E-13  -0.2334157318E-13  -0.3669455637E-15  -0.5109792574E-14   0.8508285235E-15   0.0000000000E+00
   0.0000000000E+00   0.0000000000E+00   0.8081061614E+00   0.0000000000E+00   0.0000000000E+00  -0.2428237395E-01   0.0000000000E+00   0.0000000000E+00  -0.1676114646E+00   0.1702432461E+02  -0.5147110734E-12  -0.5078704563E-12  -0.3457899932E-15  -0.1609931239E-14  -0.5824743069E-15   0.0000000000E+00
   0.1540000000E+01   0.0000000000E+00   0.8081061614E+00   0.9000000000E-01   0.0000000000E+00  -0.2428237395E-01   0.4500000000E+00   0.0000000000E+00  -0.1676114646E+00   0.1702432461E+02  -0.7476179235E-13  -0.7898673690E-13  -0.3133426371E-15  -0.5419378806E-15   0.2032224809E-15   0.0000000000E+00
   0.1540000000E+01   0.8081061614E+00   0.8081061614E+00   0.9000000000E-01  -0.2428237395E-01  -0.2428237395E-01   0.4500000000E+00  -0.1676114646E+00  -0.1676114646E+00   0.1702432461E+02  -0.5032424202E-12  -0.5029944330E-12   0.9696476849E-15   0.1654843977E-15   0.8833927145E-15   0.0000000000E+00
   0.0000000000E+00   0.8081061614E+00   0.8081061614E+00   0.0000000000E+00  -0.2428237395E-01  -0.2428237395E-01   0.0000000000E+00  -0.1676114646E+00  -0.1676114646E+00   0.1702432461E+02  -0.9442131132E-14  -0.1099482563E-13   0.3675055656E-14   0.6691938442E-15  -0.1814774748E-14   0.0000000000E+00
   0.3080000000E+01   0.0000000000E+00   0.3600687544E-16   0.1800000000E+00   0.0000000000E+00  -0.5879927078E-16   0.9000000000E+00   0.0000000000E+00   0.9480614622E-16   0.1702432461E+02  -0.1423305203E-12  -0.1445337626E-12   0.1211396572E-15  -0.3774380526E-14   0.7466013824E-15   0.0000000000E+00
   0.3080000000E+01   0.8081061614E+00   0.1354084776E-15   0.1800000000E+00  -0.2428237395E-01   0.1143777620E-15   0.9000000000E+00  -0.1676114646E+00   0.2103071563E-16   0.1702432461E+02  -0.3240603501E-12  -0.3284191587E-12   0.2174162239E-14   0.3760906550E-14   0.1593173822E-15   0.0000000000E+00
   0.3080000000E+01   0.0000000000E+00   0.8081061614E+00   0.1800000000E+00   0.0000000000E+00  -0.2428237395E-01   0.9000000000E+00   0.0000000000E+00  -0.1676114646E+00   0.1702432461E+02  -0.3602116224E-12  -0.3625595671E-12   0.3719926180E-15  -0.1417934742E-14   0.1174522142E-14   0.0000000000E+00
   0.3080000000E+01   0.8081061614E+00   0.8081061614E+00   0.1800000000E+00  -0.2428237395E-01  -0.2428237395E-01   0.9000000000E+00  -0.1676114646E+00  -0.1676114646E+00   0.1702432461E+02   0.5304573449E-12   0.5301590374E-12  -0.1082872387E-14  -0.2952885499E-15   0.5872381414E-15   0.0000000000E+00
     1     2     3     4     5     6     7     8
     2     9    10     3     6    11    12     7
 VARIABLES = X,Y,Z,DU1,DU2,DU3,U1,U2,U3,S11,S22,S33,S12,S13,S23,MISES
 ZONE, T="0.7000D+01" F=FEPOINT, I=   12 J=    2 ET=BRICK
   0.0000000000E+00   0.0000000000E+00   0.0000000000E+00   0.0000000000E+00   0.0000000000E+00   0.0000000000E+00   0.0000000000E+00   0.0000000000E+00   0.0000000000E+00   0.2016635058E+02  -0.1106193661E-12  -0.1046906295E-12   0.4172529873E-15   0.2334396912E-16  -0.1016527464E-14   0.0000000000E+00
   0.1630000000E+01   0.0000000000E+00  -0.4760072495E-17   0.9000000000E-01   0.0000000000E+00  -0.1974990931E-15   0.5400000000E+00   0.0000000000E+00   0.1927390206E-15   0.2016635058E+02  -0.2115450185E-12  -0.2130375343E-12  -0.2226675200E-14  -0.1274791515E-14  -0.8984913708E-15   0.0000000000E+00
   0.1630000000E+01   0.7858886248E+00  -0.1311957092E-15   0.9000000000E-01  -0.2221753661E-01  -0.1319711571E-15   0.5400000000E+00  -0.1918938386E+00   0.7754479537E-18   0.2016635057E+02  -0.2835911399E-12  -0.2848631212E-12  -0.3085852416E-14   0.1074067598E-14   0.4130454727E-15   0.0000000000E+00
   0.0000000000E+00   0.7858886248E+00  -0.1079324185E-15   0.0000000000E+00  -0.2221753661E-01  -0.3642329310E-15   0.0000000000E+00  -0.1918938386E+00   0.2563005125E-15   0.2016635057E+02   0.1021517535E-12   0.1030892063E-12   0.1025389660E-14  -0.8844267742E-16   0.7948011712E-15   0.0000000000E+00
   0.0000000000E+00   0.0000000000E+00   0.7858886248E+00   0.0000000000E+00   0.0000000000E+00  -0.2221753661E-01   0.0000000000E+00   0.0000000000E+00  -0.1918938386E+00   0.2016635057E+02   0.7959249546E-13   0.7940562686E-13  -0.3115600305E-15  -0.2271379809E-15  -0.2299425183E-15   0.0000000000E+00
   0.1630000000E+01   0.0000000000E+00   0.7858886248E+00   0.9000000000E-01   0.0000000000E+00  -0.2221753661E-01   0.5400000000E+00   0.0000000000E+00  -0.1918938386E+00   0.2016635057E+02  -0.4729052337E-12  -0.4764263338E-12   0.1524124458E-14  -0.2414855263E-14  -0.6261337864E-15   0.0000000000E+00
   0.1630000000E+01   0.7858886248E+00   0.7858886248E+00   0.9000000000E-01  -0.2221753661E-01  -0.2221753661E-01   0.5400000000E+00  -0.1918938386E+00  -0.1918938386E+00   0.2016635057E+02  -0.2090713901E-12  -0.2129754938E-12   0.4346497477E-15   0.1059788932E-14   0.6854030570E-15   0.0000000000E+00
   0.0000000000E+00   0.7858886248E+00   0.7858886248E+00   0.0000000000E+00  -0.2221753661E-01  -0.2221753661E-01   0.0000000000E+00  -0.1918938386E+00  -0.1918938386E+00   0.2016635057E+02  -0.1045041587E-12  -0.1104263133E-12  -0.1360080496E-14  -0.1568574976E-15   0.1581386117E-14   0.0000000000E+00
   0.3260000000E+01   0.0000000000E+00   0.1235045318E-16   0.1800000000E+00   0.0000000000E+00  -0.2365642226E-16   0.1080000000E+01   0.0000000000E+00   0.3600687544E-16   0.2016635058E+02   0.6581600820E-13   0.6824321677E-13   0.2950693464E-15   0.1776706127E-15  -0.1473285393E-14   0.0000000000E+00
   0.3260000000E+01   0.7858886248E+00  -0.1679832918E-15   0.1800000000E+00  -0.2221753661E-01  -0.3033917694E-15   0.1080000000E+01  -0.1918938386E+00   0.1354084776E-15   0.2016635057E+02  -0.2895480466E-12  -0.2927743764E-12  -0.2031421759E-14  -0.1337228055E-14   0.1745105433E-15   0.0000000000E+00
   0.3260000000E+01   0.0000000000E+00   0.7858886248E+00   0.1800000000E+00   0.0000000000E+00  -0.2221753661E-01   0.1080000000E+01   0.0000000000E+00  -0.1918938386E+00   0.2016635057E+02  -0.6401187710E-12  -0.6434260787E-12  -0.3873914840E-15  -0.1851974935E-14  -0.5691681664E-16   0.0000000000E+00
   0.3260000000E+01   0.7858886248E+00   0.7858886248E+00   0.1800000000E+00  -0.2221753661E-01  -0.2221753661E-01   0.1080000000E+01  -0.1918938386E+00  -0.1918938386E+00   0.2016635057E+02   0.7123393416E-13   0.6751580376E-13  -0.1517820439E-14  -0.1297370566E-14   0.1590879120E-14   0.0000000000E+00
     1     2     3     4     5     6     7     8
     2     9    10     3     6    11    12     7
 VARIABLES = X,Y,Z,DU1,DU2,DU3,U1,U2,U3,S11,S22,S33,S12,S13,S23,MISES
 ZONE, T="0.8000D+01" F=FEPOINT, I=   12 J=    2 ET=BRICK
   0.0000000000E+00   0.0000000000E+00   0.0000000000E+00   0.0000000000E+00   0.0000000000E+00   0.0000000000E+00   0.0000000000E+00   0.0000000000E+00   0.0000000000E+00   0.2341916976E+02   0.8565482926E-12   0.8558233181E-12   0.3171238913E-15  -0.5009359813E-14  -0.2117402510E-14   0.0000000000E+00
   0.1720000000E+01   0.0000000000E+00  -0.2501123032E-15   0.9000000000E-01   0.0000000000E+00  -0.2453522308E-15   0.6300000000E+00   0.0000000000E+00  -0.4760072495E-17   0.2341916976E+02  -0.1072508538E-11  -0.1076498292E-11  -0.7697263087E-15  -0.1701031942E-14   0.2600766436E-15   0.0000000000E+00
   0.1720000000E+01   0.7654632242E+00  -0.2189440975E-15   0.9000000000E-01  -0.2042540058E-01  -0.8774838835E-16   0.6300000000E+00  -0.2141113752E+00  -0.1311957092E-15   0.2341916976E+02  -0.3467574813E-12  -0.3516622015E-12   0.2979809838E-15   0.2124441132E-14  -0.8888242883E-15   0.0000000000E+00
   0.0000000000E+00   0.7654632242E+00  -0.2815915953E-15   0.0000000000E+00  -0.2042540058E-01  -0.1736591768E-15   0.0000000000E+00  -0.2141113752E+00  -0.1079324185E-15   0.2341916976E+02  -0.5909243776E-12  -0.5844555014E-12   0.5375480086E-14   0.1324243530E-14   0.3580823220E-16   0.0000000000E+00
   0.0000000000E+00   0.0000000000E+00   0.7654632242E+00   0.0000000000E+00   0.0000000000E+00  -0.2042540058E-01   0.0000000000E+00   0.0000000000E+00  -0.2141113752E+00   0.2341916976E+02  -0.2341810774E-12  -0.2413727098E-12  -0.4612460358E-16  -0.6720052691E-14  -0.1166570099E-14   0.0000000000E+00
   0.1720000000E+01   0.0000000000E+00   0.7654632242E+00   0.9000000000E-01   0.0000000000E+00  -0.2042540058E-01   0.6300000000E+00   0.0000000000E+00  -0.2141113752E+00   0.2341916976E+02   0.1067161366E-12   0.1090818021E-12   0.6663771518E-16  -0.1802510162E-14   0.1287561242E-14   0.0000000000E+00
   0.1720000000E+01   0.7654632242E+00   0.7654632242E+00   0.9000000000E-01  -0.2042540058E-01  -0.2042540058E-01   0.6300000000E+00  -0.2141113752E+00  -0.2141113752E+00   0.2341916976E+02  -0.3354808216E-12  -0.3362759243E-12  -0.2326653234E-14  -0.1688184830E-14   0.1386603105E-15   0.0000000000E+00
   0.0000000000E+00   0.7654632242E+00   0.7654632242E+00   0.0000000000E+00  -0.2042540058E-01  -0.2042540058E-01   0.0000000000E+00  -0.2141113752E+00  -0.2141113752E+00   0.2341916976E+02  -0.3020563612E-12  -0.3009297027E-12  -0.4236299693E-14  -0.6292967587E-15   0.9866406430E-15   0.0000000000E+00
   0.3440000000E+01   0.0000000000E+00  -0.3209170427E-15   0.1800000000E+00   0.0000000000E+00  -0.3332674959E-15   0.1260000000E+01   0.0000000000E+00   0.1235045318E-16   0.2341916976E+02   0.1806465131E-13   0.1435253429E-13   0.1458806218E-14  -0.2117458817E-14   0.1040602675E-14   0.0000000000E+00
   0.3440000000E+01   0.7654632242E+00  -0.1840127369E-15   0.1800000000E+00  -0.2042540058E-01  -0.1602944504E-16   0.1260000000E+01  -0.2141113752E+00  -0.1679832918E-15   0.2341916976E+02  -0.7431161109E-12  -0.7439049442E-12  -0.1464135391E-14   0.4845200242E-14   0.2990714361E-15   0.0000000000E+00
   0.3440000000E+01   0.0000000000E+00   0.7654632242E+00   0.1800000000E+00   0.0000000000E+00  -0.2042540058E-01   0.1260000000E+01   0.0000000000E+00  -0.2141113752E+00   0.2341916976E+02  -0.8457271201E-12  -0.8511933161E-12  -0.1398480043E-14  -0.6097223784E-15  -0.7058097388E-16   0.0000000000E+00
   0.3440000000E+01   0.7654632242E+00   0.7654632242E+00   0.1800000000E+00  -0.2042540058E-01  -0.2042540058E-01   0.1260000000E+01  -0.2141113752E+00  -0.2141113752E+00   0.2341916976E+02  -0.6856788370E-12  -0.6881410182E-12  -0.1994886852E-14  -0.8265113935E-15  -0.8121122130E-15   0.0000000000E+00
     1     2     3     4     5     6     7     8
     2     9    10     3     6    11    12     7
 VARIABLES = X,Y,Z,DU1,DU2,DU3,U1,U2,U3,S11,S22,S33,S12,S13,S23,MISES
 ZONE, T="0.9000D+01" F=FEPOINT, I=   12 J=    2 ET=BRICK
   0.0000000000E+00   0.0000000000E+00   0.0000000000E+00   0.0000000000E+00   0.0000000000E+00   0.0000000000E+00   0.0000000000E+00   0.0000000000E+00   0.0000000000E+00   0.2678698660E+02  -0.3361412838E-12  -0.3409816525E-12   0.6616559296E-16  -0.7052074209E-14  -0.2641761986E-14   0.0000000000E+00
   0.1810000000E+01   0.0000000000E+00  -0.2875653927E-15   0.9000000000E-01   0.0000000000E+00  -0.3745308942E-16   0.7200000000E+00   0.0000000000E+00  -0.2501123032E-15   0.2678698660E+02   0.5312491631E-12   0.5329098217E-12  -0.1147694626E-14  -0.2434302476E-14   0.1273225869E-14   0.0000000000E+00
   0.1810000000E+01   0.7466052066E+00  -0.1094712596E-15   0.9000000000E-01  -0.1885801760E-01   0.1094728379E-15   0.7200000000E+00  -0.2345367758E+00  -0.2189440975E-15   0.2678698659E+02  -0.1717778380E-12  -0.1754790732E-12  -0.6937764750E-15   0.9927251991E-15   0.9722790393E-15   0.0000000000E+00
   0.0000000000E+00   0.7466052066E+00  -0.3511066808E-15   0.0000000000E+00  -0.1885801760E-01  -0.6951508549E-16   0.0000000000E+00  -0.2345367758E+00  -0.2815915953E-15   0.2678698659E+02  -0.1536182522E-12  -0.1496530399E-12   0.1923778196E-14   0.6006061809E-14  -0.2133721966E-14   0.0000000000E+00
   0.0000000000E+00   0.0000000000E+00   0.7466052066E+00   0.0000000000E+00   0.0000000000E+00  -0.1885801760E-01   0.0000000000E+00   0.0000000000E+00  -0.2345367758E+00   0.2678698659E+02  -0.1897347085E-12  -0.1950951815E-12  -0.1308658398E-15  -0.1454026344E-14  -0.2867091357E-15   0.0000000000E+00
   0.1810000000E+01   0.0000000000E+00   0.7466052066E+00   0.9000000000E-01   0.0000000000E+00  -0.1885801760E-01   0.7200000000E+00   0.0000000000E+00  -0.2345367758E+00   0.2678698659E+02  -0.1007459354E-12  -0.9684405509E-13  -0.3352676789E-16  -0.2291146516E-14   0.8184124202E-15   0.0000000000E+00
   0.1810000000E+01   0.7466052066E+00   0.7466052066E+00   0.9000000000E-01  -0.1885801760E-01  -0.1885801760E-01   0.7200000000E+00  -0.2345367758E+00  -0.2345367758E+00   0.2678698659E+02  -0.8478281066E-14  -0.9938770751E-14  -0.2816101123E-16   0.1197603564E-14   0.5174655907E-15   0.0000000000E+00
   0.0000000000E+00   0.7466052066E+00   0.7466052066E+00   0.0000000000E+00  -0.1885801760E-01  -0.1885801760E-01   0.0000000000E+00  -0.2345367758E+00  -0.2345367758E+00   0.2678698659E+02  -0.1905876839E-12  -0.1871423378E-12   0.7213332103E-15   0.2361723521E-14   0.2213308831E-15   0.0000000000E+00
   0.3620000000E+01   0.0000000000E+00  -0.1780671298E-15   0.1800000000E+00   0.0000000000E+00   0.1428499129E-15   0.1440000000E+01   0.0000000000E+00  -0.3209170427E-15   0.2678698659E+02   0.1259458085E-12   0.1183908516E-12  -0.1226388339E-14   0.1023967683E-14  -0.4987632641E-15   0.0000000000E+00
   0.3620000000E+01   0.7466052066E+00  -0.2394443811E-15   0.1800000000E+00  -0.1885801760E-01  -0.5543164423E-16   0.1440000000E+01  -0.2345367758E+00  -0.1840127369E-15   0.2678698659E+02   0.1542079174E-12   0.1599401332E-12  -0.2176164639E-14  -0.1982868424E-14  -0.1225865039E-14   0.0000000000E+00
   0.3620000000E+01   0.0000000000E+00   0.7466052066E+00   0.1800000000E+00   0.0000000000E+00  -0.1885801760E-01   0.1440000000E+01   0.0000000000E+00  -0.2345367758E+00   0.2678698659E+02  -0.3577940051E-12  -0.3636285956E-12   0.1486700912E-14  -0.4287768261E-14   0.1238831536E-14   0.0000000000E+00
   0.3620000000E+01   0.7466052066E+00   0.7466052066E+00   0.1800000000E+00  -0.1885801760E-01  -0.1885801760E-01   0.1440000000E+01  -0.2345367758E+00  -0.2345367758E+00   0.2678698659E+02   0.2736333443E-12   0.2810892430E-12   0.6452333749E-15   0.2071226593E-14   0.5117297608E-15   0.0000000000E+00
     1     2     3     4     5     6     7     8
     2     9    10     3     6    11    12     7
 VARIABLES = X,Y,Z,DU1,DU2,DU3,U1,U2,U3,S11,S22,S33,S12,S13,S23,MISES
 ZONE, T="0.1000D+02" F=FEPOINT, I=   12 J=    2 ET=BRICK
   0.0000000000E+00   0.0000000000E+00   0.0000000000E+00   0.0000000000E+00   0.0000000000E+00   0.0000000000E+00   0.0000000000E+00   0.0000000000E+00   0.0000000000E+00   0.3027288369E+02  -0.2489178510E-12  -0.2364291058E-12  -0.2389714778E-15  -0.4568600886E-14  -0.4908568460E-15   0.0000000000E+00
   0.1900000000E+01   0.0000000000E+00  -0.1673857732E-15   0.9000000000E-01   0.0000000000E+00   0.1201796195E-15   0.8100000000E+00   0.0000000000E+00  -0.2875653927E-15   0.3027288369E+02  -0.1762243358E-12  -0.1755317123E-12   0.1461162089E-14  -0.3771917973E-16   0.1113913678E-14   0.0000000000E+00
   0.1900000000E+01   0.7291274386E+00  -0.4662935207E-17   0.9000000000E-01  -0.1747776803E-01   0.1048083243E-15   0.8100000000E+00  -0.2533947934E+00  -0.1094712596E-15   0.3027288369E+02   0.1687324127E-12   0.1671869934E-12   0.4891758461E-14   0.2021927028E-14  -0.7885665210E-15   0.0000000000E+00
   0.0000000000E+00   0.7291274386E+00  -0.8215070941E-16   0.0000000000E+00  -0.1747776803E-01   0.2689559714E-15   0.0000000000E+00  -0.2533947934E+00  -0.3511066808E-15   0.3027288369E+02  -0.4105274268E-12  -0.4056480470E-12   0.7123105611E-14   0.1706438091E-14   0.7825776301E-15   0.0000000000E+00
   0.0000000000E+00   0.0000000000E+00   0.7291274386E+00   0.0000000000E+00   0.0000000000E+00  -0.1747776803E-01   0.0000000000E+00   0.0000000000E+00  -0.2533947934E+00   0.3027288369E+02  -0.2744616283E-12  -0.2699861766E-12   0.1256896803E-15  -0.1958902952E-14  -0.2741344025E-14   0.0000000000E+00
   0.1900000000E+01   0.0000000000E+00   0.7291274386E+00   0.9000000000E-01   0.0000000000E+00  -0.1747776803E-01   0.8100000000E+00   0.0000000000E+00  -0.2533947934E+00   0.3027288369E+02  -0.1069965214E-12  -0.9726340846E-13   0.7307287268E-15  -0.3685030135E-14  -0.4223658161E-15   0.0000000000E+00
   0.1900000000E+01   0.7291274386E+00   0.7291274386E+00   0.9000000000E-01  -0.1747776803E-01  -0.1747776803E-01   0.8100000000E+00  -0.2533947934E+00  -0.2533947934E+00   0.3027288368E+02  -0.1201889165E-12  -0.1126928940E-12  -0.1076203913E-14   0.3087922134E-14  -0.2324846015E-14   0.0000000000E+00
   0.0000000000E+00   0.7291274386E+00   0.7291274386E+00   0.0000000000E+00  -0.1747776803E-01  -0.1747776803E-01   0.0000000000E+00  -0.2533947934E+00  -0.2533947934E+00   0.3027288368E+02  -0.2844230449E-12  -0.2836849343E-12  -0.3146348046E-14   0.4070143966E-14  -0.1467909549E-14   0.0000000000E+00
   0.3800000000E+01   0.0000000000E+00  -0.1649853810E-15   0.1800000000E+00   0.0000000000E+00   0.1308174874E-16   0.1620000000E+01   0.0000000000E+00  -0.1780671298E-15   0.3027288369E+02   0.3186645339E-13   0.3058692523E-13  -0.8328859187E-15   0.8521371392E-15   0.1570623299E-14   0.0000000000E+00
   0.3800000000E+01   0.7291274386E+00   0.6048404029E-16   0.1800000000E+00  -0.1747776803E-01   0.2999284214E-15   0.1620000000E+01  -0.2533947934E+00  -0.2394443811E-15   0.3027288369E+02   0.1845564324E-12   0.1896907156E-12  -0.1333770263E-14   0.9659212708E-15  -0.1194293321E-14   0.0000000000E+00
   0.3800000000E+01   0.0000000000E+00   0.7291274386E+00   0.1800000000E+00   0.0000000000E+00  -0.1747776803E-01   0.1620000000E+01   0.0000000000E+00  -0.2533947934E+00   0.3027288369E+02   0.2026479147E-12   0.2045401964E-12   0.5890098287E-16  -0.9052182705E-14   0.2950229484E-14   0.0000000000E+00
   0.3800000000E+01   0.7291274386E+00   0.7291274386E+00   0.1800000000E+00  -0.1747776803E-01  -0.1747776803E-01   0.1620000000E+01  -0.2533947934E+00  -0.2533947934E+00   0.3027288368E+02  -0.4672146249E-12  -0.4627876653E-12  -0.2829265701E-15   0.7342056088E-15   0.1853128641E-15   0.0000000000E+00
     1     2     3     4     5     6     7     8
     2     9    10     3     6    11    12     7
 VARIABLES = X,Y,Z,DU1,DU2,DU3,U1,U2,U3,S11,S22,S33,S12,S13,S23,MISES
 ZONE, T="0.1100D+02" F=FEPOINT, I=   12 J=    2 ET=BRICK
   0.0000000000E+00   0.0000000000E+00   0.0000000000E+00   0.0000000000E+00   0.0000000000E+00   0.0000000000E+00   0.0000000000E+00   0.0000000000E+00   0.0000000000E+00   0.3027288369E+02   0.3327366190E-08   0.3327363411E-08   0.1623579674E-15  -0.7678451375E-14  -0.1858250906E-14   0.0000000000E+00
   0.1900000000E+01   0.0000000000E+00  -0.3168128263E-15   0.1475701875E-15   0.0000000000E+00  -0.1494270531E-15   0.9000000000E+00   0.0000000000E+00  -0.1673857732E-15   0.3027288369E+02   0.3327571623E-08   0.3327571231E-08  -0.1237381337E-14  -0.2320014622E-14   0.1357281264E-15   0.0000000000E+00
   0.1900000000E+01   0.7291274386E+00  -0.2892799551E-15  -0.1248662313E-15   0.1179351403E-11  -0.2846170199E-15   0.9000000000E+00  -0.2708725614E+00  -0.4662935207E-17   0.3027288369E+02   0.3327540598E-08   0.3327540079E-08  -0.2299041460E-14  -0.1344320681E-14   0.1209883813E-14   0.0000000000E+00
   0.0000000000E+00   0.7291274386E+00  -0.2733751556E-15   0.0000000000E+00   0.1179732691E-11  -0.1912244462E-15   0.0000000000E+00  -0.2708725614E+00  -0.8215070941E-16   0.3027288369E+02   0.3327390672E-08   0.3327393249E-08  -0.9854387568E-15   0.2910674210E-15  -0.1292818739E-14   0.0000000000E+00
   0.0000000000E+00   0.0000000000E+00   0.7291274386E+00   0.0000000000E+00   0.0000000000E+00   0.1178896786E-11   0.0000000000E+00   0.0000000000E+00  -0.2708725614E+00   0.3027288369E+02   0.3327427126E-08   0.3327423384E-08   0.8903577935E-17  -0.1706203180E-14   0.2120561518E-17   0.0000000000E+00
   0.1900000000E+01   0.0000000000E+00   0.7291274386E+00  -0.3650480274E-16   0.0000000000E+00   0.1178979104E-11   0.9000000000E+00   0.0000000000E+00  -0.2708725614E+00   0.3027288369E+02   0.3327472162E-08   0.3327468460E-08  -0.8042049833E-15  -0.3161446597E-15  -0.8367132188E-15   0.0000000000E+00
   0.1900000000E+01   0.7291274386E+00   0.7291274386E+00  -0.2851862476E-15   0.1179733942E-11   0.1178940955E-11   0.9000000000E+00  -0.2708725614E+00  -0.2708725614E+00   0.3027288369E+02   0.3327571644E-08   0.3327568415E-08  -0.7661649115E-15  -0.3734527271E-14   0.2374424679E-15   0.0000000000E+00
   0.0000000000E+00   0.7291274386E+00   0.7291274386E+00   0.0000000000E+00   0.1179616701E-11   0.1179268913E-11   0.0000000000E+00  -0.2708725614E+00  -0.2708725614E+00   0.3027288369E+02   0.3327372146E-08   0.3327369584E-08  -0.2202805515E-14  -0.2506379710E-14   0.5675527283E-15   0.0000000000E+00
   0.3800000000E+01   0.0000000000E+00  -0.3100421962E-15  -0.5551115123E-16   0.0000000000E+00  -0.1450568151E-15   0.1800000000E+01   0.0000000000E+00  -0.1649853810E-15   0.3027288369E+02   0.3327571199E-08   0.3327572248E-08  -0.1480053925E-15   0.1121233549E-14   0.1644163722E-15   0.0000000000E+00
   0.3800000000E+01   0.7291274386E+00  -0.3057514306E-15  -0.5551115123E-16   0.1179197127E-11  -0.3662354708E-15   0.1800000000E+01  -0.2708725614E+00   0.6048404029E-16   0.3027288369E+02   0.3327745683E-08   0.3327742322E-08  -0.1123528915E-14   0.2147539332E-14   0.1510995454E-14   0.0000000000E+00
   0.3800000000E+01   0.0000000000E+00   0.7291274386E+00  -0.5551115123E-16   0.0000000000E+00   0.1179357284E-11   0.1800000000E+01   0.0000000000E+00  -0.2708725614E+00   0.3027288369E+02   0.3328252855E-08   0.3328252724E-08  -0.2931365948E-15  -0.8432747208E-15  -0.1178079948E-14   0.0000000000E+00
   0.3800000000E+01   0.7291274386E+00   0.7291274386E+00  -0.5551115123E-16   0.1179807491E-11   0.1178791361E-11   0.1800000000E+01  -0.2708725614E+00  -0.2708725614E+00   0.3027288369E+02   0.3327574024E-08   0.3327569181E-08   0.1994652641E-14   0.1645732823E-15   0.1684991335E-15   0.0000000000E+00
     1     2     3     4     5     6     7     8
     2     9    10     3     6    11    12     7
 VARIABLES = X,Y,Z,DU1,DU2,DU3,U1,U2,U3,S11,S22,S33,S12,S13,S23,MISES
 ZONE, T="0.1200D+02" F=FEPOINT, I=   12 J=    2 ET=BRICK
   0.0000000000E+00   0.0000000000E+00   0.0000000000E+00   0.0000000000E+00   0.0000000000E+00   0.0000000000E+00   0.0000000000E+00   0.0000000000E+00   0.0000000000E+00   0.3027288369E+02  -0.6889709877E-13  -0.7566878190E-13  -0.3577581766E-15  -0.6846522478E-14  -0.1740889275E-14   0.0000000000E+00
   0.1900000000E+01   0.0000000000E+00  -0.2710605728E-15   0.7905856930E-16   0.0000000000E+00   0.4575225343E-16   0.9000000000E+00   0.0000000000E+00  -0.3168128263E-15   0.3027288369E+02   0.5708253624E-12   0.5714521832E-12  -0.1335362787E-14  -0.9298481064E-15   0.1400562787E-15   0.0000000000E+00
   0.1900000000E+01   0.7291274386E+00  -0.2616458498E-15  -0.3413803175E-16  -0.1179234818E-11   0.2763410533E-16   0.9000000000E+00  -0.2708725614E+00  -0.2892799551E-15   0.3027288369E+02   0.2288561848E-12   0.2273708387E-12  -0.1145673233E-14  -0.4113870065E-16   0.1218652889E-16   0.0000000000E+00
   0.0000000000E+00   0.7291274386E+00  -0.2241411130E-15   0.0000000000E+00  -0.1179207594E-11   0.4923404268E-16   0.0000000000E+00  -0.2708725614E+00  -0.2733751556E-15   0.3027288369E+02   0.6078210518E-12   0.6082185979E-12  -0.1063574175E-14  -0.1846307661E-15  -0.1423036079E-14   0.0000000000E+00
   0.0000000000E+00   0.0000000000E+00   0.7291274386E+00   0.0000000000E+00   0.0000000000E+00  -0.1179169732E-11   0.0000000000E+00   0.0000000000E+00  -0.2708725614E+00   0.3027288369E+02   0.5545830164E-12   0.5477016073E-12   0.3532108847E-15  -0.3936746271E-14  -0.1193900591E-14   0.0000000000E+00
   0.1900000000E+01   0.0000000000E+00   0.7291274386E+00   0.1172659178E-15   0.0000000000E+00  -0.1179298391E-11   0.9000000000E+00   0.0000000000E+00  -0.2708725614E+00   0.3027288369E+02   0.5712818550E-12   0.5721281279E-12  -0.5612308973E-15  -0.1577589630E-14  -0.4968268449E-15   0.0000000000E+00
   0.1900000000E+01   0.7291274386E+00   0.7291274386E+00   0.1990385713E-15  -0.1179318364E-11  -0.1179208573E-11   0.9000000000E+00  -0.2708725614E+00  -0.2708725614E+00   0.3027288368E+02   0.2315201300E-12   0.2308550911E-12  -0.7469867719E-15  -0.1080753616E-14  -0.6246965945E-15   0.0000000000E+00
   0.0000000000E+00   0.7291274386E+00   0.7291274386E+00   0.0000000000E+00  -0.1179317551E-11  -0.1179314806E-11   0.0000000000E+00  -0.2708725614E+00  -0.2708725614E+00   0.3027288368E+02   0.4393669491E-12   0.4393543416E-12  -0.1651874185E-14   0.4616594022E-15  -0.8760473956E-15   0.0000000000E+00
   0.3800000000E+01   0.0000000000E+00  -0.2080691478E-15  -0.5551115123E-16   0.0000000000E+00   0.1019730484E-15   0.1800000000E+01   0.0000000000E+00  -0.3100421962E-15   0.3027288369E+02   0.5398177483E-12   0.5386409073E-12  -0.4801224226E-15   0.2010106959E-14  -0.3059063005E-15   0.0000000000E+00
   0.3800000000E+01   0.7291274386E+00  -0.2678147311E-15  -0.5551115123E-16  -0.1179153473E-11   0.3793669944E-16   0.1800000000E+01  -0.2708725614E+00  -0.3057514306E-15   0.3027288369E+02   0.5205585573E-12   0.5190179382E-12   0.6050726830E-15   0.2330249534E-14  -0.2202309387E-15   0.0000000000E+00
   0.3800000000E+01   0.0000000000E+00   0.7291274386E+00  -0.5551115123E-16   0.0000000000E+00  -0.1179350499E-11   0.1800000000E+01   0.0000000000E+00  -0.2708725614E+00   0.3027288369E+02  -0.9907829664E-13  -0.1017860262E-12   0.3376400469E-15  -0.2195152294E-14  -0.4600247342E-15   0.0000000000E+00
   0.3800000000E+01   0.7291274386E+00   0.7291274386E+00  -0.5551115123E-16  -0.1179344762E-11  -0.1179240896E-11   0.1800000000E+01  -0.2708725614E+00  -0.2708725614E+00   0.3027288368E+02   0.7139454904E-12   0.7067018793E-12   0.1971213367E-14  -0.3952704651E-15  -0.3743493724E-15   0.0000000000E+00
     1     2     3     4     5     6     7     8
     2     9    10     3     6    11    12     7
 VARIABLES = X,Y,Z,DU1,DU2,DU3,U1,U2,U3,S11,S22,S33,S12,S13,S23,MISES
 ZONE, T="0.1300D+02" F=FEPOINT, I=   12 J=    2 ET=BRICK
   0.0000000000E+00   0.0000000000E+00   0.0000000000E+00   0.0000000000E+00   0.0000000000E+00   0.0000000000E+00   0.0000000000E+00   0.0000000000E+00   0.0000000000E+00   0.3027288369E+02   0.2894100588E-12   0.2806420661E-12  -0.5440454153E-15  -0.1061747832E-13  -0.1676816958E-14   0.0000000000E+00
   0.1900000000E+01   0.0000000000E+00  -0.4525416450E-15  -0.3335170293E-15   0.0000000000E+00  -0.1814810722E-15   0.9000000000E+00   0.0000000000E+00  -0.2710605728E-15   0.3027288369E+02   0.4018152060E-12   0.4045450097E-12   0.5072495810E-15  -0.1602888772E-14   0.1726101985E-14   0.0000000000E+00
   0.1900000000E+01   0.7291274386E+00  -0.2184709446E-15  -0.9529333953E-16  -0.2512154421E-16   0.4317490517E-16   0.9000000000E+00  -0.2708725614E+00  -0.2616458498E-15   0.3027288369E+02   0.3233699914E-12   0.3250613370E-12   0.2992337061E-14  -0.2362916175E-14   0.7704209984E-15   0.0000000000E+00
   0.0000000000E+00   0.7291274386E+00  -0.2525039666E-15   0.0000000000E+00  -0.1558345605E-15  -0.2836285362E-16   0.0000000000E+00  -0.2708725614E+00  -0.2241411130E-15   0.3027288369E+02   0.1540857121E-12   0.1547847874E-12   0.2458671652E-14   0.2946968263E-14  -0.9494848738E-15   0.0000000000E+00
   0.0000000000E+00   0.0000000000E+00   0.7291274386E+00   0.0000000000E+00   0.0000000000E+00  -0.1169000597E-15   0.0000000000E+00   0.0000000000E+00  -0.2708725614E+00   0.3027288369E+02  -0.3622539410E-12  -0.3659373854E-12   0.4163648367E-16  -0.2744747996E-14   0.1060702489E-15   0.0000000000E+00
   0.1900000000E+01   0.0000000000E+00   0.7291274386E+00  -0.1565378975E-16   0.0000000000E+00  -0.1289083291E-15   0.9000000000E+00   0.0000000000E+00  -0.2708725614E+00   0.3027288369E+02   0.4037997466E-12   0.4029076478E-12  -0.4393677331E-15  -0.2295726162E-15   0.8340547436E-15   0.0000000000E+00
   0.1900000000E+01   0.7291274386E+00   0.7291274386E+00  -0.1467390071E-15  -0.1311140632E-15   0.2777219661E-16   0.9000000000E+00  -0.2708725614E+00  -0.2708725614E+00   0.3027288368E+02   0.3340879536E-12   0.3321573966E-12  -0.1392828606E-14  -0.2937215760E-14  -0.1216262430E-15   0.0000000000E+00
   0.0000000000E+00   0.7291274386E+00   0.7291274386E+00   0.0000000000E+00  -0.8077899539E-16   0.1145477308E-15   0.0000000000E+00  -0.2708725614E+00  -0.2708725614E+00   0.3027288368E+02   0.3134318523E-12   0.3192185542E-12  -0.2606165400E-14  -0.9247992903E-15   0.8334023324E-15   0.0000000000E+00
   0.3800000000E+01   0.0000000000E+00  -0.5670545582E-15  -0.5551115123E-16   0.0000000000E+00  -0.3589854105E-15   0.1800000000E+01   0.0000000000E+00  -0.2080691478E-15   0.3027288369E+02  -0.1033886213E-13  -0.1299613681E-13  -0.6608739970E-15  -0.1778478251E-14   0.7757143411E-15   0.0000000000E+00
   0.3800000000E+01   0.7291274386E+00  -0.4506829950E-15  -0.5551115123E-16   0.8630724975E-16  -0.1828682639E-15   0.1800000000E+01  -0.2708725614E+00  -0.2678147311E-15   0.3027288369E+02   0.6453179044E-12   0.6409447199E-12   0.1306583895E-14  -0.3500443521E-14  -0.9177609955E-15   0.0000000000E+00
   0.3800000000E+01   0.0000000000E+00   0.7291274386E+00  -0.5551115123E-16   0.0000000000E+00  -0.2745959921E-15   0.1800000000E+01   0.0000000000E+00  -0.2708725614E+00   0.3027288369E+02   0.6179947947E-12   0.6193866884E-12   0.7297286816E-16  -0.6904576257E-14   0.1736388080E-14   0.0000000000E+00
   0.3800000000E+01   0.7291274386E+00   0.7291274386E+00  -0.5551115123E-16  -0.1846885525E-15  -0.9010838533E-17   0.1800000000E+01  -0.2708725614E+00  -0.2708725614E+00   0.3027288368E+02   0.4801127712E-12   0.4797856767E-12   0.8138530065E-15  -0.7772751395E-15   0.4291274348E-16   0.0000000000E+00
     1     2     3     4     5     6     7     8
     2     9    10     3     6    11    12     7
 VARIABLES = X,Y,Z,DU1,DU2,DU3,U1,U2,U3,S11,S22,S33,S12,S13,S23,MISES
 ZONE, T="0.1400D+02" F=FEPOINT, I=   12 J=    2 ET=BRICK
   0.0000000000E+00   0.0000000000E+00   0.0000000000E+00   0.0000000000E+00   0.0000000000E+00   0.0000000000E+00   0.0000000000E+00   0.0000000000E+00   0.0000000000E+00   0.3027288369E+02   0.4848428579E-12   0.4887091895E-12   0.2779327534E-15   0.1571698613E-13   0.3746303342E-14   0.0000000000E+00
   0.1900000000E+01   0.0000000000E+00   0.6841635451E-15   0.2141703957E-15   0.0000000000E+00   0.1136705190E-14   0.9000000000E+00   0.0000000000E+00  -0.4525416450E-15   0.3027288369E+02   0.4212803309E-13   0.3887152943E-13   0.1820784571E-15   0.6510532263E-14  -0.1746950048E-14   0.0000000000E+00
   0.1900000000E+01   0.7291274386E+00   0.4362552331E-15   0.3762022653E-15  -0.1041896307E-15   0.6547261777E-15   0.9000000000E+00  -0.2708725614E+00  -0.2184709446E-15   0.3027288369E+02   0.1391706184E-12   0.1397897944E-12   0.4457908178E-15  -0.2748256429E-14  -0.6085442054E-15   0.0000000000E+00
   0.0000000000E+00   0.7291274386E+00   0.5325755758E-15   0.0000000000E+00   0.1931681825E-17   0.7850795423E-15   0.0000000000E+00  -0.2708725614E+00  -0.2525039666E-15   0.3027288369E+02  -0.1911723248E-12  -0.1902829418E-12   0.6099931164E-16  -0.1934534866E-14   0.4214059248E-14   0.0000000000E+00
   0.0000000000E+00   0.0000000000E+00   0.7291274386E+00   0.0000000000E+00   0.0000000000E+00   0.5441914349E-15   0.0000000000E+00   0.0000000000E+00  -0.2708725614E+00   0.3027288369E+02  -0.1863421042E-12  -0.1826050889E-12  -0.2264991523E-15   0.2015916352E-14  -0.4476877020E-16   0.0000000000E+00
   0.1900000000E+01   0.0000000000E+00   0.7291274386E+00  -0.1282221688E-15   0.0000000000E+00   0.8071913626E-15   0.9000000000E+00   0.0000000000E+00  -0.2708725614E+00   0.3027288369E+02   0.1426382351E-12   0.1384364001E-12   0.3975769378E-16   0.3568993570E-14  -0.6253263924E-15   0.0000000000E+00
   0.1900000000E+01   0.7291274386E+00   0.7291274386E+00  -0.8431262721E-16   0.1758540006E-15   0.6151829505E-15   0.9000000000E+00  -0.2708725614E+00  -0.2708725614E+00   0.3027288368E+02   0.1146083973E-12   0.1142817657E-12   0.4949080522E-15  -0.1576489549E-14   0.5130794502E-15   0.0000000000E+00
   0.0000000000E+00   0.7291274386E+00   0.7291274386E+00   0.0000000000E+00  -0.7334594412E-16   0.5205204641E-15   0.0000000000E+00  -0.2708725614E+00  -0.2708725614E+00   0.3027288368E+02  -0.1175337675E-13  -0.1098999364E-13   0.2980729375E-14  -0.6559138266E-15   0.4229871358E-15   0.0000000000E+00
   0.3800000000E+01   0.0000000000E+00   0.5832830342E-15  -0.5551115123E-16   0.0000000000E+00   0.1150337592E-14   0.1800000000E+01   0.0000000000E+00  -0.5670545582E-15   0.3027288369E+02   0.3315001791E-12   0.3326555773E-12   0.2801274817E-15  -0.5336326176E-14  -0.4190786036E-15   0.0000000000E+00
   0.3800000000E+01   0.7291274386E+00   0.5349480680E-15  -0.5551115123E-16  -0.1519785970E-15   0.9856310630E-15   0.1800000000E+01  -0.2708725614E+00  -0.4506829950E-15   0.3027288369E+02   0.2796884564E-12   0.2817431358E-12   0.1024485645E-14   0.2633190495E-14  -0.3760515012E-15   0.0000000000E+00
   0.3800000000E+01   0.0000000000E+00   0.7291274386E+00  -0.5551115123E-16   0.0000000000E+00   0.1222662223E-14   0.1800000000E+01   0.0000000000E+00  -0.2708725614E+00   0.3027288369E+02   0.2817908672E-12   0.2811813645E-12  -0.8142818009E-15   0.2481666216E-14  -0.2059523581E-15   0.0000000000E+00
   0.3800000000E+01   0.7291274386E+00   0.7291274386E+00  -0.5551115123E-16   0.3062388703E-16   0.9201355069E-15   0.1800000000E+01  -0.2708725614E+00  -0.2708725614E+00   0.3027288368E+02   0.2870955397E-12   0.2873855562E-12  -0.3111209611E-14   0.3698103213E-14  -0.1629252558E-15   0.0000000000E+00
     1     2     3     4     5     6     7     8
     2     9    10     3     6    11    12     7
 VARIABLES = X,Y,Z,DU1,DU2,DU3,U1,U2,U3,S11,S22,S33,S12,S13,S23,MISES
 ZONE, T="0.1500D+02" F=FEPOINT, I=   12 J=    2 ET=BRICK
   0.0000000000E+00   0.0000000000E+00   0.0000000000E+00   0.0000000000E+00   0.0000000000E+00   0.0000000000E+00   0.0000000000E+00   0.0000000000E+00   0.0000000000E+00   0.3027288369E+02   0.2031145890E-12   0.2076103019E-12   0.3109652240E-16  -0.5070956084E-15   0.8121630440E-16   0.0000000000E+00
   0.1900000000E+01   0.0000000000E+00  -0.4073991683E-17   0.1554736932E-15   0.0000000000E+00  -0.6882375368E-15   0.9000000000E+00   0.0000000000E+00   0.6841635451E-15   0.3027288369E+02  -0.6976173843E-13  -0.6961616673E-13   0.6680368295E-16   0.6580190163E-15   0.5374439153E-15   0.0000000000E+00
   0.1900000000E+01   0.7291274386E+00   0.8235180029E-16   0.4171251066E-16   0.5349304032E-16  -0.3539034328E-15   0.9000000000E+00  -0.2708725614E+00   0.4362552331E-15   0.3027288369E+02   0.2845993635E-13   0.2825973090E-13   0.2513632788E-14  -0.1566063894E-14   0.7193284765E-15   0.0000000000E+00
   0.0000000000E+00   0.7291274386E+00  -0.6321684940E-17   0.0000000000E+00  -0.1292735944E-15  -0.5388972607E-15   0.0000000000E+00  -0.2708725614E+00   0.5325755758E-15   0.3027288369E+02  -0.4809112321E-12  -0.4740074917E-12   0.3143248421E-14   0.3384786057E-14   0.6554614677E-15   0.0000000000E+00
   0.0000000000E+00   0.0000000000E+00   0.7291274386E+00   0.0000000000E+00   0.0000000000E+00  -0.4084258317E-15   0.0000000000E+00   0.0000000000E+00  -0.2708725614E+00   0.3027288369E+02  -0.4776815829E-12  -0.4764181347E-12  -0.1364645025E-15  -0.9097090776E-15   0.7147612517E-15   0.0000000000E+00
   0.1900000000E+01   0.0000000000E+00   0.7291274386E+00   0.1144010562E-15   0.0000000000E+00  -0.5051175636E-15   0.9000000000E+00   0.0000000000E+00  -0.2708725614E+00   0.3027288369E+02   0.2647577123E-13   0.2860588362E-13   0.1270315152E-14   0.3118284629E-14  -0.4060614281E-15   0.0000000000E+00
   0.1900000000E+01   0.7291274386E+00   0.7291274386E+00   0.3634727602E-15  -0.1370751383E-15  -0.4472054566E-15   0.9000000000E+00  -0.2708725614E+00  -0.2708725614E+00   0.3027288368E+02   0.1573562117E-15   0.1941215245E-14   0.8454793308E-15  -0.7945311643E-15  -0.2241768668E-15   0.0000000000E+00
   0.0000000000E+00   0.7291274386E+00   0.7291274386E+00   0.0000000000E+00  -0.3987432106E-16  -0.2740979685E-15   0.0000000000E+00  -0.2708725614E+00  -0.2708725614E+00   0.3027288368E+02  -0.2943974403E-12  -0.2907226482E-12   0.1319810421E-14  -0.4030252949E-14   0.1289006415E-14   0.0000000000E+00
   0.3800000000E+01   0.0000000000E+00  -0.1018535533E-15  -0.5551115123E-16   0.0000000000E+00  -0.6851365875E-15   0.1800000000E+01   0.0000000000E+00   0.5832830342E-15   0.3027288369E+02   0.3846388463E-12   0.3874959329E-12  -0.2339383179E-15  -0.2381736552E-14   0.5165143403E-15   0.0000000000E+00
   0.3800000000E+01   0.7291274386E+00  -0.3949579355E-16  -0.5551115123E-16   0.4894296195E-16  -0.5744438616E-15   0.1800000000E+01  -0.2708725614E+00   0.5349480680E-15   0.3027288369E+02   0.3355280110E-12   0.3385579861E-12   0.1547567995E-14  -0.2929582893E-14  -0.4653033220E-15   0.0000000000E+00
   0.3800000000E+01   0.0000000000E+00   0.7291274386E+00  -0.5551115123E-16   0.0000000000E+00  -0.5154965680E-15   0.1800000000E+01   0.0000000000E+00  -0.2708725614E+00   0.3027288369E+02   0.3381581060E-12   0.3383849097E-12  -0.1692593142E-16   0.2941408143E-14   0.4960318842E-15   0.0000000000E+00
   0.3800000000E+01   0.7291274386E+00   0.7291274386E+00  -0.5551115123E-16  -0.7328645063E-16  -0.4085167654E-15   0.1800000000E+01  -0.2708725614E+00  -0.2708725614E+00   0.3027288368E+02   0.3513173129E-12   0.3517172433E-12  -0.2322872496E-14   0.6028521570E-14  -0.4857857780E-15   0.0000000000E+00
     1     2     3     4     5     6     7     8
     2     9    10     3     6    11    12     7
 VARIABLES = X,Y,Z,DU1,DU2,DU3,U1,U2,U3,S11,S22,S33,S12,S13,S23,MISES
 ZONE, T="0.1600D+02" F=FEPOINT, I=   12 J=    2 ET=BRICK
   0.0000000000E+00   0.0000000000E+00   0.0000000000E+00   0.0000000000E+00   0.0000000000E+00   0.0000000000E+00   0.0000000000E+00   0.0000000000E+00   0.0000000000E+00   0.3027288369E+02   0.5937039746E-12   0.5983244418E-12   0.3086692530E-15   0.1417464374E-13   0.5092423861E-14   0.0000000000E+00
   0.1900000000E+01   0.0000000000E+00   0.6121360871E-15   0.2399697810E-15   0.0000000000E+00   0.6162100788E-15   0.9000000000E+00   0.0000000000E+00  -0.4073991683E-17   0.3027288369E+02   0.2808526054E-13   0.3245242690E-13  -0.6737289032E-15   0.5219466230E-14  -0.4935820622E-15   0.0000000000E+00
   0.1900000000E+01   0.7291274386E+00   0.5398534716E-15   0.1734664890E-15  -0.2229829248E-16   0.4575016713E-15   0.9000000000E+00  -0.2708725614E+00   0.8235180029E-16   0.3027288369E+02  -0.1415598483E-12  -0.1387374669E-12   0.1354481226E-15  -0.1624430628E-14  -0.1942390950E-14   0.0000000000E+00
   0.0000000000E+00   0.7291274386E+00   0.7210293924E-15   0.0000000000E+00  -0.2573689802E-16   0.7273510773E-15   0.0000000000E+00  -0.2708725614E+00  -0.6321684940E-17   0.3027288369E+02  -0.8702696778E-13  -0.8506852979E-13   0.4478652575E-14  -0.5239572922E-14   0.4289916945E-14   0.0000000000E+00
   0.0000000000E+00   0.0000000000E+00   0.7291274386E+00   0.0000000000E+00   0.0000000000E+00   0.3434467622E-15   0.0000000000E+00   0.0000000000E+00  -0.2708725614E+00   0.3027288369E+02  -0.9868475756E-13  -0.9165556216E-13  -0.6629036286E-16   0.3315433426E-14   0.1169392756E-14   0.0000000000E+00
   0.1900000000E+01   0.0000000000E+00   0.7291274386E+00   0.1107576789E-15   0.0000000000E+00   0.5432476695E-15   0.9000000000E+00   0.0000000000E+00  -0.2708725614E+00   0.3027288369E+02   0.1283645103E-12   0.1323857988E-12  -0.6116627537E-15   0.3887969120E-14   0.1016646739E-14   0.0000000000E+00
   0.1900000000E+01   0.7291274386E+00   0.7291274386E+00  -0.1014512311E-15  -0.2105907080E-15   0.7661431888E-15   0.9000000000E+00  -0.2708725614E+00  -0.2708725614E+00   0.3027288368E+02  -0.1711883381E-12  -0.1687118346E-12   0.9885729231E-15  -0.1046390684E-14  -0.4321621490E-15   0.0000000000E+00
   0.0000000000E+00   0.7291274386E+00   0.7291274386E+00   0.0000000000E+00  -0.2285294415E-15   0.4030953778E-15   0.0000000000E+00  -0.2708725614E+00  -0.2708725614E+00   0.3027288368E+02   0.9704251712E-13   0.1014096834E-12   0.1300963612E-15   0.5914663303E-14   0.3668858408E-15   0.0000000000E+00
   0.3800000000E+01   0.0000000000E+00   0.6062520990E-15  -0.5551115123E-16   0.0000000000E+00   0.7081056524E-15   0.1800000000E+01   0.0000000000E+00  -0.1018535533E-15   0.3027288369E+02  -0.3319316843E-12  -0.3240364932E-12   0.6745099464E-16  -0.2306733337E-14   0.1170168472E-14   0.0000000000E+00
   0.3800000000E+01   0.7291274386E+00   0.7642018592E-15  -0.5551115123E-16  -0.1772373492E-15   0.8036976527E-15   0.1800000000E+01  -0.2708725614E+00  -0.3949579355E-16   0.3027288369E+02  -0.2503064388E-12  -0.2461122112E-12  -0.2484178275E-14   0.6534645990E-14   0.1512981069E-14   0.0000000000E+00
   0.3800000000E+01   0.0000000000E+00   0.7291274386E+00  -0.5551115123E-16   0.0000000000E+00   0.7071117053E-15   0.1800000000E+01   0.0000000000E+00  -0.2708725614E+00   0.3027288369E+02  -0.3793023603E-12  -0.3712342302E-12   0.2484879335E-15   0.5889482754E-14  -0.1463886246E-14   0.0000000000E+00
   0.3800000000E+01   0.7291274386E+00   0.7291274386E+00  -0.5551115123E-16  -0.1182647110E-16   0.4613932409E-15   0.1800000000E+01  -0.2708725614E+00  -0.2708725614E+00   0.3027288368E+02  -0.2458260457E-12  -0.2414588793E-12   0.3252572563E-14  -0.3463510348E-14  -0.1121073650E-14   0.0000000000E+00
     1     2     3     4     5     6     7     8
     2     9    10     3     6    11    12     7
 VARIABLES = X,Y,Z,DU1,DU2,DU3,U1,U2,U3,S11,S22,S33,S12,S13,S23,MISES
 ZONE, T="0.1700D+02" F=FEPOINT, I=   12 J=    2 ET=BRICK
   0.0000000000E+00   0.0000000000E+00   0.0000000000E+00   0.0000000000E+00   0.0000000000E+00   0.0000000000E+00   0.0000000000E+00   0.0000000000E+00   0.0000000000E+00   0.3027288369E+02  -0.2250954739E-12  -0.2196731708E-12  -0.1032143718E-15   0.3633581837E-14   0.1481200274E-14   0.0000000000E+00
   0.1900000000E+01   0.0000000000E+00   0.1895482986E-15  -0.3904836178E-15   0.0000000000E+00  -0.4225877885E-15   0.9000000000E+00   0.0000000000E+00   0.6121360871E-15   0.3027288369E+02  -0.2179921599E-12  -0.2166809742E-12   0.3424262952E-14   0.4061093745E-14   0.4266030251E-15   0.0000000000E+00
   0.1900000000E+01   0.7291274386E+00   0.2472911105E-15  -0.4798383343E-16  -0.7826106848E-16  -0.2925623610E-15   0.9000000000E+00  -0.2708725614E+00   0.5398534716E-15   0.3027288369E+02  -0.2151169805E-12  -0.2148439780E-12   0.5580800445E-14  -0.3405744099E-14  -0.1977202777E-16   0.0000000000E+00
   0.0000000000E+00   0.7291274386E+00   0.2101408314E-15   0.0000000000E+00   0.3749317261E-16  -0.5108885610E-15   0.0000000000E+00  -0.2708725614E+00   0.7210293924E-15   0.3027288369E+02  -0.2237649416E-12  -0.2178235469E-12   0.1225280221E-15   0.1228001551E-14   0.1144182036E-14   0.0000000000E+00
   0.0000000000E+00   0.0000000000E+00   0.7291274386E+00   0.0000000000E+00   0.0000000000E+00  -0.3647380823E-15   0.0000000000E+00   0.0000000000E+00  -0.2708725614E+00   0.3027288369E+02  -0.2155944188E-12  -0.2121557677E-12  -0.8397396619E-16   0.4708169367E-14   0.1076184961E-14   0.0000000000E+00
   0.1900000000E+01   0.0000000000E+00   0.7291274386E+00  -0.2232817701E-15   0.0000000000E+00  -0.3860885189E-15   0.9000000000E+00   0.0000000000E+00  -0.2708725614E+00   0.3027288369E+02  -0.2175318326E-12  -0.2110542342E-12   0.1278006887E-15   0.3598808001E-14  -0.8738419872E-15   0.0000000000E+00
   0.1900000000E+01   0.7291274386E+00   0.7291274386E+00  -0.8872269732E-16   0.1339424845E-15  -0.6587407665E-15   0.9000000000E+00  -0.2708725614E+00  -0.2708725614E+00   0.3027288368E+02  -0.2249874257E-12  -0.2195480105E-12   0.1001224052E-14  -0.2461041274E-14  -0.1320217040E-14   0.0000000000E+00
   0.0000000000E+00   0.7291274386E+00   0.7291274386E+00   0.0000000000E+00   0.1236838849E-15  -0.3940296282E-15   0.0000000000E+00  -0.2708725614E+00  -0.2708725614E+00   0.3027288368E+02  -0.2221973953E-12  -0.2182396526E-12   0.8034805815E-15  -0.1152683913E-14   0.7391667229E-15   0.0000000000E+00
   0.3800000000E+01   0.0000000000E+00   0.2695213565E-15  -0.5551115123E-16   0.0000000000E+00  -0.3367307426E-15   0.1800000000E+01   0.0000000000E+00   0.6062520990E-15   0.3027288369E+02  -0.2116439876E-12  -0.2137516137E-12  -0.7412959147E-15   0.9652226652E-15  -0.2961920837E-15   0.0000000000E+00
   0.3800000000E+01   0.7291274386E+00   0.2217519044E-15  -0.5551115123E-16   0.2049897934E-15  -0.5424499548E-15   0.1800000000E+01  -0.2708725614E+00   0.7642018592E-15   0.3027288369E+02  -0.2169699602E-12  -0.2118475721E-12   0.3346036678E-14  -0.1407343510E-15  -0.1585822689E-14   0.0000000000E+00
   0.3800000000E+01   0.0000000000E+00   0.7291274386E+00  -0.5551115123E-16   0.0000000000E+00  -0.6899359021E-15   0.1800000000E+01   0.0000000000E+00  -0.2708725614E+00   0.3027288369E+02  -0.2190518393E-12  -0.2219444853E-12  -0.2599020018E-15  -0.1033936352E-14   0.4435828175E-15   0.0000000000E+00
   0.3800000000E+01   0.7291274386E+00   0.7291274386E+00  -0.5551115123E-16  -0.1879284766E-16  -0.3766926955E-15   0.1800000000E+01  -0.2708725614E+00  -0.2708725614E+00   0.3027288368E+02  -0.2219805482E-12  -0.2176431799E-12   0.5994901778E-15   0.4129356762E-14  -0.8460477881E-15   0.0000000000E+00
     1     2     3     4     5     6     7     8
     2     9    10     3     6    11    12     7
 VARIABLES = X,Y,Z,DU1,DU2,DU3,U1,U2,U3,S11,S22,S33,S12,S13,S23,MISES
 ZONE, T="0.1800D+02" F=FEPOINT, I=   12 J=    2 ET=BRICK
   0.0000000000E+00   0.0000000000E+00   0.0000000000E+00   0.0000000000E+00   0.0000000000E+00   0.0000000000E+00   0.0000000000E+00   0.0000000000E+00   0.0000000000E+00   0.3027288369E+02   0.5398996509E-12   0.5413434764E-12   0.8048669035E-16   0.7669439858E-14   0.4920465412E-15   0.0000000000E+00
   0.1900000000E+01   0.0000000000E+00   0.3563834164E-15   0.1647870325E-15   0.0000000000E+00   0.1668351179E-15   0.9000000000E+00   0.0000000000E+00   0.1895482986E-15   0.3027288369E+02   0.7205334296E-13   0.7389142362E-13   0.1138278001E-14   0.4524247680E-14  -0.1749135556E-14   0.0000000000E+00
   0.1900000000E+01   0.7291274386E+00   0.1085358503E-15  -0.1373250772E-15  -0.1340975506E-15  -0.1387552602E-15   0.9000000000E+00  -0.2708725614E+00   0.2472911105E-15   0.3027288369E+02   0.5599301559E-12   0.5594379185E-12   0.1418282517E-14  -0.4931514602E-15   0.7993529855E-15   0.0000000000E+00
   0.0000000000E+00   0.7291274386E+00   0.5511182962E-16   0.0000000000E+00   0.2024777752E-15  -0.1550290018E-15   0.0000000000E+00  -0.2708725614E+00   0.2101408314E-15   0.3027288369E+02   0.4660868683E-12   0.4680962986E-12  -0.7301767938E-14   0.1106127825E-15   0.6916926329E-15   0.0000000000E+00
   0.0000000000E+00   0.0000000000E+00   0.7291274386E+00   0.0000000000E+00   0.0000000000E+00   0.2747643837E-15   0.0000000000E+00   0.0000000000E+00  -0.2708725614E+00   0.3027288369E+02   0.4465477104E-12   0.4458022597E-12  -0.2421036919E-15   0.2623868290E-14  -0.1249191957E-14   0.0000000000E+00
   0.1900000000E+01   0.0000000000E+00   0.7291274386E+00  -0.4884280360E-16   0.0000000000E+00   0.1587316526E-15   0.9000000000E+00   0.0000000000E+00  -0.2708725614E+00   0.3027288369E+02   0.3675304574E-12   0.3680764032E-12  -0.9244916716E-15   0.1610938391E-14  -0.1325374532E-14   0.0000000000E+00
   0.1900000000E+01   0.7291274386E+00   0.7291274386E+00  -0.2015456513E-15   0.3456979795E-15   0.6133456111E-16   0.9000000000E+00  -0.2708725614E+00  -0.2708725614E+00   0.3027288368E+02  -0.1980779416E-12  -0.2026994343E-12  -0.1409170855E-14  -0.1545922707E-14   0.1223114009E-14   0.0000000000E+00
   0.0000000000E+00   0.7291274386E+00   0.7291274386E+00   0.0000000000E+00   0.2576932228E-15   0.2768312994E-16   0.0000000000E+00  -0.2708725614E+00  -0.2708725614E+00   0.3027288368E+02   0.6837668830E-12   0.6850055972E-12   0.3523023420E-14  -0.1572703421E-15  -0.1049545866E-14   0.0000000000E+00
   0.3800000000E+01   0.0000000000E+00   0.3589001801E-15  -0.5551115123E-16   0.0000000000E+00   0.8937882360E-16   0.1800000000E+01   0.0000000000E+00   0.2695213565E-15   0.3027288369E+02   0.4437811306E-12   0.4406584727E-12  -0.8186793313E-16  -0.1765778473E-14   0.7311583885E-15   0.0000000000E+00
   0.3800000000E+01   0.7291274386E+00   0.4720331736E-15  -0.5551115123E-16   0.1093433901E-16   0.2502812692E-15   0.1800000000E+01  -0.2708725614E+00   0.2217519044E-15   0.3027288369E+02   0.6906269259E-13   0.6814365210E-13   0.7860395725E-14   0.8573737706E-14   0.5036609544E-15   0.0000000000E+00
   0.3800000000E+01   0.0000000000E+00   0.7291274386E+00  -0.5551115123E-16   0.0000000000E+00   0.4022701478E-16   0.1800000000E+01   0.0000000000E+00  -0.2708725614E+00   0.3027288369E+02  -0.3016593225E-12  -0.3075725880E-12  -0.4727954149E-15  -0.2546825482E-14   0.1006367799E-14   0.0000000000E+00
   0.3800000000E+01   0.7291274386E+00   0.7291274386E+00  -0.5551115123E-16   0.1166315511E-15   0.1505351003E-15   0.1800000000E+01  -0.2708725614E+00  -0.2708725614E+00   0.3027288368E+02   0.4510695034E-12   0.4516155362E-12  -0.5207280893E-14   0.6736078335E-14   0.7788703654E-15   0.0000000000E+00
     1     2     3     4     5     6     7     8
     2     9    10     3     6    11    12     7
 VARIABLES = X,Y,Z,DU1,DU2,DU3,U1,U2,U3,S11,S22,S33,S12,S13,S23,MISES
 ZONE, T="0.1900D+02" F=FEPOINT, I=   12 J=    2 ET=BRICK
   0.0000000000E+00   0.0000000000E+00   0.0000000000E+00   0.0000000000E+00   0.0000000000E+00   0.0000000000E+00   0.0000000000E+00   0.0000000000E+00   0.0000000000E+00   0.3027288369E+02  -0.6469830043E-13  -0.6428890580E-13  -0.2354417791E-15   0.5412374972E-14   0.1541267985E-14   0.0000000000E+00
   0.1900000000E+01   0.0000000000E+00   0.2891645660E-15   0.2722867224E-15   0.0000000000E+00  -0.6721885040E-16   0.9000000000E+00   0.0000000000E+00   0.3563834164E-15   0.3027288369E+02   0.1627489852E-12   0.1638216098E-12  -0.2796343456E-14   0.1718264379E-14  -0.9507651745E-15   0.0000000000E+00
   0.1900000000E+01   0.7291274386E+00   0.1477071150E-15  -0.3878475740E-15   0.7973277402E-16   0.3917126465E-16   0.9000000000E+00  -0.2708725614E+00   0.1085358503E-15   0.3027288369E+02   0.3025837743E-13   0.3460600077E-13  -0.4510147877E-14  -0.3661897014E-15   0.9531932543E-15   0.0000000000E+00
   0.0000000000E+00   0.7291274386E+00   0.2246238248E-15   0.0000000000E+00  -0.1558981326E-16   0.1695119952E-15   0.0000000000E+00  -0.2708725614E+00   0.5511182962E-16   0.3027288369E+02  -0.4417474167E-14  -0.7883145485E-14  -0.5100292790E-14  -0.2272138252E-14   0.7770127191E-15   0.0000000000E+00
   0.0000000000E+00   0.0000000000E+00   0.7291274386E+00   0.0000000000E+00   0.0000000000E+00  -0.2136935478E-15   0.0000000000E+00   0.0000000000E+00  -0.2708725614E+00   0.3027288369E+02   0.3539940034E-13   0.3662793864E-13  -0.1808544836E-15   0.6837067830E-14   0.8311283136E-17   0.0000000000E+00
   0.1900000000E+01   0.0000000000E+00   0.7291274386E+00  -0.3851951258E-15   0.0000000000E+00  -0.2076391415E-16   0.9000000000E+00   0.0000000000E+00  -0.2708725614E+00   0.3027288369E+02  -0.3305096384E-13  -0.3481573505E-13   0.2258607596E-14   0.6697127481E-15  -0.1886193745E-14   0.0000000000E+00
   0.1900000000E+01   0.7291274386E+00   0.7291274386E+00   0.1316385805E-15  -0.8199389254E-16  -0.4502081960E-16   0.9000000000E+00  -0.2708725614E+00  -0.2708725614E+00   0.3027288368E+02   0.4329640528E-12   0.4328375689E-12   0.3863845216E-14   0.2342443033E-14   0.1776468319E-16   0.0000000000E+00
   0.0000000000E+00   0.7291274386E+00   0.7291274386E+00   0.0000000000E+00  -0.1262941477E-15  -0.8553210599E-16   0.0000000000E+00  -0.2708725614E+00  -0.2708725614E+00   0.3027288368E+02  -0.2035725728E-12  -0.2054007448E-12   0.3961673001E-14   0.5517684133E-15  -0.7559439824E-15   0.0000000000E+00
   0.3800000000E+01   0.0000000000E+00   0.4260234852E-15  -0.5551115123E-16   0.0000000000E+00   0.6712330509E-16   0.1800000000E+01   0.0000000000E+00   0.3589001801E-15   0.3027288369E+02   0.1467405775E-12   0.1498610430E-12   0.7544493068E-16  -0.3783765347E-15  -0.8554099611E-15   0.0000000000E+00
   0.3800000000E+01   0.7291274386E+00   0.2890334288E-15  -0.5551115123E-16  -0.2138452292E-15  -0.1829997448E-15   0.1800000000E+01  -0.2708725614E+00   0.4720331736E-15   0.3027288369E+02   0.3085135414E-12   0.3122309958E-12   0.1512687097E-14   0.6599392498E-14   0.8808509160E-15   0.0000000000E+00
   0.3800000000E+01   0.0000000000E+00   0.7291274386E+00  -0.5551115123E-16   0.0000000000E+00   0.1148819933E-15   0.1800000000E+01   0.0000000000E+00  -0.2708725614E+00   0.3027288369E+02   0.8247609598E-12   0.8246635147E-12  -0.8854285538E-15  -0.3900172654E-14  -0.6144209569E-16   0.0000000000E+00
   0.3800000000E+01   0.7291274386E+00   0.7291274386E+00  -0.5551115123E-16   0.1265306720E-15  -0.5423664979E-16   0.1800000000E+01  -0.2708725614E+00  -0.2708725614E+00   0.3027288368E+02   0.1368125622E-12   0.1332203278E-12  -0.1817480797E-14   0.9192751301E-14   0.1674818781E-14   0.0000000000E+00
     1     2     3     4     5     6     7     8
     2     9    10     3     6    11    12     7
 VARIABLES = X,Y,Z,DU1,DU2,DU3,U1,U2,U3,S11,S22,S33,S12,S13,S23,MISES
 ZONE, T="0.2000D+02" F=FEPOINT, I=   12 J=    2 ET=BRICK
   0.0000000000E+00   0.0000000000E+00   0.0000000000E+00   0.0000000000E+00   0.0000000000E+00   0.0000000000E+00   0.0000000000E+00   0.0000000000E+00   0.0000000000E+00   0.3027288369E+02   0.3522099675E-12   0.3522197679E-12   0.5257852299E-15   0.2221438721E-14   0.1296506830E-14   0.0000000000E+00
   0.1900000000E+01   0.0000000000E+00   0.1044189512E-15   0.7578485147E-16   0.0000000000E+00  -0.1847456148E-15   0.9000000000E+00   0.0000000000E+00   0.2891645660E-15   0.3027288369E+02  -0.2806162992E-12  -0.2818350083E-12  -0.4134080931E-14  -0.1087681830E-14  -0.1168448057E-14   0.0000000000E+00
   0.1900000000E+01   0.7291274386E+00  -0.7303923496E-16  -0.4648895763E-16   0.1109348067E-15  -0.2207463499E-15   0.9000000000E+00  -0.2708725614E+00   0.1477071150E-15   0.3027288369E+02   0.8324301059E-13   0.8684558760E-13  -0.3010173818E-14   0.1382627879E-14  -0.1241458944E-14   0.0000000000E+00
   0.0000000000E+00   0.7291274386E+00   0.1763678384E-15   0.0000000000E+00  -0.1502606651E-15  -0.4825598643E-16   0.0000000000E+00  -0.2708725614E+00   0.2246238248E-15   0.3027288369E+02   0.3395869276E-12   0.3383851935E-12   0.8403233909E-15  -0.5991397150E-14   0.1675355782E-14   0.0000000000E+00
   0.0000000000E+00   0.0000000000E+00   0.7291274386E+00   0.0000000000E+00   0.0000000000E+00  -0.2740743563E-16   0.0000000000E+00   0.0000000000E+00  -0.2708725614E+00   0.3027288369E+02   0.3429611427E-12   0.3454279617E-12  -0.5416078500E-15   0.4071898350E-15   0.7400969804E-15   0.0000000000E+00
   0.1900000000E+01   0.0000000000E+00   0.7291274386E+00   0.3129639157E-15   0.0000000000E+00  -0.3369219860E-15   0.9000000000E+00   0.0000000000E+00  -0.2708725614E+00   0.3027288369E+02   0.8834836483E-13   0.8549164342E-13   0.3063747037E-14  -0.1738740640E-14   0.2738400909E-15   0.0000000000E+00
   0.1900000000E+01   0.7291274386E+00   0.7291274386E+00   0.4255209728E-15  -0.1907541703E-15   0.1110036314E-16   0.9000000000E+00  -0.2708725614E+00  -0.2708725614E+00   0.3027288368E+02  -0.1034653911E-13  -0.8381974498E-14   0.3471233527E-14   0.2424098495E-15   0.2008292039E-15   0.0000000000E+00
   0.0000000000E+00   0.7291274386E+00   0.7291274386E+00   0.0000000000E+00   0.2556016565E-16   0.1141788192E-15   0.0000000000E+00  -0.2708725614E+00  -0.2708725614E+00   0.3027288368E+02   0.3469430297E-12   0.3481983142E-12   0.2962986094E-15  -0.9779638929E-15   0.1118945933E-14   0.0000000000E+00
   0.3800000000E+01   0.0000000000E+00   0.1119116712E-15  -0.5551115123E-16   0.0000000000E+00  -0.3141118139E-15   0.1800000000E+01   0.0000000000E+00   0.4260234852E-15   0.3027288369E+02  -0.1805565076E-12  -0.1823114205E-12   0.2873174296E-15  -0.1003533011E-15  -0.1061351787E-15   0.0000000000E+00
   0.3800000000E+01   0.7291274386E+00   0.8175694846E-16  -0.5551115123E-16   0.1849210533E-15  -0.2072764803E-15   0.1800000000E+01  -0.2708725614E+00   0.2890334288E-15   0.3027288369E+02  -0.3653232756E-12  -0.3660521564E-12   0.2220593492E-14   0.7162379834E-14  -0.6310059055E-15   0.0000000000E+00
   0.3800000000E+01   0.0000000000E+00   0.7291274386E+00  -0.5551115123E-16   0.0000000000E+00  -0.3573798799E-15   0.1800000000E+01   0.0000000000E+00  -0.2708725614E+00   0.3027288369E+02  -0.3650388317E-12  -0.3659747385E-12  -0.1408670646E-15   0.4117779649E-15  -0.5208914607E-15   0.0000000000E+00
   0.3800000000E+01   0.7291274386E+00   0.7291274386E+00  -0.5551115123E-16  -0.1458379355E-15  -0.3849418544E-15   0.1800000000E+01  -0.2708725614E+00  -0.2708725614E+00   0.3027288368E+02  -0.3185285027E-12  -0.3184383773E-12  -0.1638005443E-15  -0.1314894814E-15  -0.1045762187E-14   0.0000000000E+00
     1     2     3     4     5     6     7     8
     2     9    10     3     6    11    12     7
