 VARIABLES = X,Y,Z,DU1,DU2,DU3,U1,U2,U3,S11,S22,S33,S12,S13,S23,Vf,SMISES
 ZONE, T="0.1000D-01" F=FEPOINT, I=   12 J=    2 ET=BRICK
   0.0000000000E+00   0.0000000000E+00   0.0000000000E+00   0.0000000000E+00   0.0000000000E+00   0.0000000000E+00   0.0000000000E+00   0.0000000000E+00   0.0000000000E+00   0.0000000000E+00   0.0000000000E+00   0.0000000000E+00   0.0000000000E+00   0.0000000000E+00   0.0000000000E+00   0.0000000000E+00   0.0000000000E+00
   0.1000000000E+01   0.0000000000E+00   0.0000000000E+00   0.0000000000E+00   0.0000000000E+00   0.0000000000E+00   0.0000000000E+00   0.0000000000E+00   0.0000000000E+00   0.0000000000E+00   0.0000000000E+00   0.0000000000E+00   0.0000000000E+00   0.0000000000E+00   0.0000000000E+00   0.0000000000E+00   0.0000000000E+00
   0.1000000000E+01   0.1000000000E+01   0.0000000000E+00   0.0000000000E+00   0.0000000000E+00   0.0000000000E+00   0.0000000000E+00   0.0000000000E+00   0.0000000000E+00   0.0000000000E+00   0.0000000000E+00   0.0000000000E+00   0.0000000000E+00   0.0000000000E+00   0.0000000000E+00   0.0000000000E+00   0.0000000000E+00
   0.0000000000E+00   0.1000000000E+01   0.0000000000E+00   0.0000000000E+00   0.0000000000E+00   0.0000000000E+00   0.0000000000E+00   0.0000000000E+00   0.0000000000E+00   0.0000000000E+00   0.0000000000E+00   0.0000000000E+00   0.0000000000E+00   0.0000000000E+00   0.0000000000E+00   0.0000000000E+00   0.0000000000E+00
   0.0000000000E+00   0.0000000000E+00   0.1000000000E+01   0.0000000000E+00   0.0000000000E+00   0.0000000000E+00   0.0000000000E+00   0.0000000000E+00   0.0000000000E+00   0.0000000000E+00   0.0000000000E+00   0.0000000000E+00   0.0000000000E+00   0.0000000000E+00   0.0000000000E+00   0.0000000000E+00   0.0000000000E+00
   0.1000000000E+01   0.0000000000E+00   0.1000000000E+01   0.0000000000E+00   0.0000000000E+00   0.0000000000E+00   0.0000000000E+00   0.0000000000E+00   0.0000000000E+00   0.0000000000E+00   0.0000000000E+00   0.0000000000E+00   0.0000000000E+00   0.0000000000E+00   0.0000000000E+00   0.0000000000E+00   0.0000000000E+00
   0.1000000000E+01   0.1000000000E+01   0.1000000000E+01   0.0000000000E+00   0.0000000000E+00   0.0000000000E+00   0.0000000000E+00   0.0000000000E+00   0.0000000000E+00   0.0000000000E+00   0.0000000000E+00   0.0000000000E+00   0.0000000000E+00   0.0000000000E+00   0.0000000000E+00   0.0000000000E+00   0.0000000000E+00
   0.0000000000E+00   0.1000000000E+01   0.1000000000E+01   0.0000000000E+00   0.0000000000E+00   0.0000000000E+00   0.0000000000E+00   0.0000000000E+00   0.0000000000E+00   0.0000000000E+00   0.0000000000E+00   0.0000000000E+00   0.0000000000E+00   0.0000000000E+00   0.0000000000E+00   0.0000000000E+00   0.0000000000E+00
   0.2000100000E+01   0.0000000000E+00   0.0000000000E+00   0.1000000000E-03   0.0000000000E+00   0.0000000000E+00   0.0000000000E+00   0.0000000000E+00   0.0000000000E+00   0.0000000000E+00   0.0000000000E+00   0.0000000000E+00   0.0000000000E+00   0.0000000000E+00   0.0000000000E+00   0.0000000000E+00   0.0000000000E+00
   0.2000100000E+01   0.1000000000E+01   0.0000000000E+00   0.1000000000E-03   0.0000000000E+00   0.0000000000E+00   0.0000000000E+00   0.0000000000E+00   0.0000000000E+00   0.0000000000E+00   0.0000000000E+00   0.0000000000E+00   0.0000000000E+00   0.0000000000E+00   0.0000000000E+00   0.0000000000E+00   0.0000000000E+00
   0.2000100000E+01   0.0000000000E+00   0.1000000000E+01   0.1000000000E-03   0.0000000000E+00   0.0000000000E+00   0.0000000000E+00   0.0000000000E+00   0.0000000000E+00   0.0000000000E+00   0.0000000000E+00   0.0000000000E+00   0.0000000000E+00   0.0000000000E+00   0.0000000000E+00   0.0000000000E+00   0.0000000000E+00
   0.2000100000E+01   0.1000000000E+01   0.1000000000E+01   0.1000000000E-03   0.0000000000E+00   0.0000000000E+00   0.0000000000E+00   0.0000000000E+00   0.0000000000E+00   0.0000000000E+00   0.0000000000E+00   0.0000000000E+00   0.0000000000E+00   0.0000000000E+00   0.0000000000E+00   0.0000000000E+00   0.0000000000E+00
     1     2     3     4     5     6     7     8
     2     9    10     3     6    11    12     7
 VARIABLES = X,Y,Z,DU1,DU2,DU3,U1,U2,U3,S11,S22,S33,S12,S13,S23,Vf,SMISES
 ZONE, T="0.2000D-01" F=FEPOINT, I=   12 J=    2 ET=BRICK
   0.0000000000E+00   0.0000000000E+00   0.0000000000E+00   0.0000000000E+00   0.0000000000E+00   0.0000000000E+00   0.0000000000E+00   0.0000000000E+00   0.0000000000E+00   0.0000000000E+00   0.0000000000E+00   0.0000000000E+00   0.0000000000E+00   0.0000000000E+00   0.0000000000E+00   0.0000000000E+00   0.0000000000E+00
   0.1000002222E+01   0.1094593658E-05   0.1094593658E-05   0.2222245708E-05   0.1094593658E-05   0.1094593658E-05   0.0000000000E+00   0.0000000000E+00   0.0000000000E+00   0.7407856067E-01   0.3648645525E-01   0.3648645525E-01  -0.1941048611E-18  -0.9507566601E-19   0.0000000000E+00   0.0000000000E+00   0.3759210541E-01
   0.1000002222E+01   0.9999989054E+00   0.1094593658E-05   0.2222245708E-05  -0.1094593658E-05   0.1094593658E-05   0.0000000000E+00   0.0000000000E+00   0.0000000000E+00   0.7407856066E-01   0.3648645525E-01   0.3648645525E-01  -0.1941048611E-18  -0.1917035160E-18   0.0000000000E+00   0.0000000000E+00   0.3759210541E-01
   0.0000000000E+00   0.1000000000E+01   0.0000000000E+00   0.0000000000E+00   0.0000000000E+00   0.0000000000E+00   0.0000000000E+00   0.0000000000E+00   0.0000000000E+00   0.0000000000E+00   0.0000000000E+00   0.0000000000E+00   0.0000000000E+00   0.0000000000E+00   0.0000000000E+00   0.0000000000E+00   0.0000000000E+00
   0.0000000000E+00   0.0000000000E+00   0.1000000000E+01   0.0000000000E+00   0.0000000000E+00   0.0000000000E+00   0.0000000000E+00   0.0000000000E+00   0.0000000000E+00   0.0000000000E+00   0.0000000000E+00   0.0000000000E+00   0.0000000000E+00   0.0000000000E+00   0.0000000000E+00   0.0000000000E+00   0.0000000000E+00
   0.1000002222E+01   0.1094593658E-05   0.9999989054E+00   0.2222245708E-05   0.1094593658E-05  -0.1094593658E-05   0.0000000000E+00   0.0000000000E+00   0.0000000000E+00   0.7407856066E-01   0.3648645525E-01   0.3648645525E-01  -0.2182383097E-18  -0.9507566601E-19   0.0000000000E+00   0.0000000000E+00   0.3759210541E-01
   0.1000002222E+01   0.9999989054E+00   0.9999989054E+00   0.2222245707E-05  -0.1094593658E-05  -0.1094593658E-05   0.0000000000E+00   0.0000000000E+00   0.0000000000E+00   0.7407856066E-01   0.3648645525E-01   0.3648645525E-01  -0.2182383096E-18  -0.1917035160E-18   0.0000000000E+00   0.0000000000E+00   0.3759210541E-01
   0.0000000000E+00   0.1000000000E+01   0.1000000000E+01   0.0000000000E+00   0.0000000000E+00   0.0000000000E+00   0.0000000000E+00   0.0000000000E+00   0.0000000000E+00   0.0000000000E+00   0.0000000000E+00   0.0000000000E+00   0.0000000000E+00   0.0000000000E+00   0.0000000000E+00   0.0000000000E+00   0.0000000000E+00
   0.2000200000E+01   0.2189187315E-05   0.2189187315E-05   0.1000000000E-03   0.2189187315E-05   0.2189187315E-05   0.1000000000E-03   0.0000000000E+00   0.0000000000E+00   0.1481571213E+00   0.7297291050E-01   0.7297291050E-01  -0.4364766193E-18  -0.3834070320E-18   0.0000000000E+00   0.0000000000E+00   0.7518421082E-01
   0.2000200000E+01   0.9999978108E+00   0.2189187315E-05   0.1000000000E-03  -0.2189187315E-05   0.2189187315E-05   0.1000000000E-03   0.0000000000E+00   0.0000000000E+00   0.1481571213E+00   0.7297291050E-01   0.7297291050E-01  -0.4364766193E-18  -0.6357441052E-18   0.0000000000E+00   0.0000000000E+00   0.7518421082E-01
   0.2000200000E+01   0.2189187315E-05   0.9999978108E+00   0.1000000000E-03   0.2189187315E-05  -0.2189187315E-05   0.1000000000E-03   0.0000000000E+00   0.0000000000E+00   0.1481571213E+00   0.7297291050E-01   0.7297291050E-01  -0.6499640588E-18  -0.3834070319E-18   0.0000000000E+00   0.0000000000E+00   0.7518421082E-01
   0.2000200000E+01   0.9999978108E+00   0.9999978108E+00   0.1000000000E-03  -0.2189187315E-05  -0.2189187315E-05   0.1000000000E-03   0.0000000000E+00   0.0000000000E+00   0.1481571213E+00   0.7297291050E-01   0.7297291050E-01  -0.6499640587E-18  -0.6357441052E-18   0.0000000000E+00   0.0000000000E+00   0.7518421082E-01
     1     2     3     4     5     6     7     8
     2     9    10     3     6    11    12     7
 VARIABLES = X,Y,Z,DU1,DU2,DU3,U1,U2,U3,S11,S22,S33,S12,S13,S23,Vf,SMISES
 ZONE, T="0.3000D-01" F=FEPOINT, I=   12 J=    2 ET=BRICK
   0.0000000000E+00  -0.1710807829E-07  -0.1710807829E-07   0.0000000000E+00  -0.1710807829E-07  -0.1710807829E-07   0.0000000000E+00   0.0000000000E+00   0.0000000000E+00   0.1512092579E-02  -0.7074358122E-03  -0.7074358122E-03   0.1371670179E-03   0.1371670179E-03  -0.3541650617E-14   0.0000000000E+00   0.2296302983E-02
   0.1000008001E+01   0.3868173095E-05   0.3868173095E-05   0.5778649588E-05   0.2773579437E-05   0.2773579437E-05   0.2222245708E-05   0.1094593658E-05   0.1094593658E-05   0.1449548489E+00   0.6812822391E-01   0.6812822391E-01   0.1371638414E-03   0.1371638414E-03  -0.9374220171E-14   0.0000000000E+00   0.7685815081E-01
   0.1000008001E+01   0.9999961318E+00   0.3868173095E-05   0.5778649587E-05  -0.2773579437E-05   0.2773579437E-05   0.2222245708E-05  -0.1094593658E-05   0.1094593658E-05   0.1449548489E+00   0.6812822391E-01   0.6812822391E-01  -0.1371638414E-03   0.1371638414E-03  -0.1250761373E-14   0.0000000000E+00   0.7685815080E-01
   0.0000000000E+00   0.1000000017E+01  -0.1710807829E-07   0.0000000000E+00   0.1710807829E-07  -0.1710807829E-07   0.0000000000E+00   0.0000000000E+00   0.0000000000E+00   0.1512092579E-02  -0.7074358121E-03  -0.7074358121E-03  -0.1371670179E-03   0.1371670179E-03  -0.1336770256E-20   0.0000000000E+00   0.2296302983E-02
   0.0000000000E+00  -0.1710807829E-07   0.1000000017E+01   0.0000000000E+00  -0.1710807829E-07   0.1710807829E-07   0.0000000000E+00   0.0000000000E+00   0.0000000000E+00   0.1512092579E-02  -0.7074358121E-03  -0.7074358121E-03   0.1371670179E-03  -0.1371670179E-03  -0.2359161530E-19   0.0000000000E+00   0.2296302983E-02
   0.1000008001E+01   0.3868173095E-05   0.9999961318E+00   0.5778649587E-05   0.2773579437E-05  -0.2773579437E-05   0.2222245708E-05   0.1094593658E-05  -0.1094593658E-05   0.1449548489E+00   0.6812822391E-01   0.6812822391E-01   0.1371638414E-03  -0.1371638414E-03  -0.1250847129E-14   0.0000000000E+00   0.7685815080E-01
   0.1000008001E+01   0.9999961318E+00   0.9999961318E+00   0.5778649587E-05  -0.2773579437E-05  -0.2773579437E-05   0.2222245707E-05  -0.1094593658E-05  -0.1094593658E-05   0.1449548489E+00   0.6812822391E-01   0.6812822391E-01  -0.1371638414E-03  -0.1371638414E-03   0.1187562797E-13   0.0000000000E+00   0.7685815080E-01
   0.0000000000E+00   0.1000000017E+01   0.1000000017E+01   0.0000000000E+00   0.1710807829E-07   0.1710807829E-07   0.0000000000E+00   0.0000000000E+00   0.0000000000E+00   0.1512092579E-02  -0.7074358121E-03  -0.7074358121E-03  -0.1371670179E-03  -0.1371670179E-03   0.3541625688E-14   0.0000000000E+00   0.2296302982E-02
   0.2000300000E+01   0.7753453257E-05   0.7753453257E-05   0.1000000000E-03   0.5564265941E-05   0.5564265941E-05   0.2000000000E-03   0.2189187315E-05   0.2189187315E-05   0.2883976060E+00   0.1369638832E+00   0.1369638832E+00   0.1371606649E-03   0.1371606649E-03  -0.1520688568E-13   0.0000000000E+00   0.1514348409E+00
   0.2000300000E+01   0.9999922465E+00   0.7753453256E-05   0.1000000000E-03  -0.5564265941E-05   0.5564265941E-05   0.2000000000E-03  -0.2189187315E-05   0.2189187315E-05   0.2883976060E+00   0.1369638832E+00   0.1369638832E+00  -0.1371606649E-03   0.1371606649E-03  -0.2501546440E-14   0.0000000000E+00   0.1514348409E+00
   0.2000300000E+01   0.7753453256E-05   0.9999922465E+00   0.1000000000E-03   0.5564265941E-05  -0.5564265941E-05   0.2000000000E-03   0.2189187315E-05  -0.2189187315E-05   0.2883976060E+00   0.1369638832E+00   0.1369638832E+00   0.1371606649E-03  -0.1371606649E-03  -0.2501740477E-14   0.0000000000E+00   0.1514348409E+00
   0.2000300000E+01   0.9999922465E+00   0.9999922465E+00   0.1000000000E-03  -0.5564265941E-05  -0.5564265941E-05   0.2000000000E-03  -0.2189187315E-05  -0.2189187315E-05   0.2883976060E+00   0.1369638832E+00   0.1369638832E+00  -0.1371606649E-03  -0.1371606649E-03   0.2020963866E-13   0.0000000000E+00   0.1514348409E+00
     1     2     3     4     5     6     7     8
     2     9    10     3     6    11    12     7
 VARIABLES = X,Y,Z,DU1,DU2,DU3,U1,U2,U3,S11,S22,S33,S12,S13,S23,Vf,SMISES
 ZONE, T="0.4000D-01" F=FEPOINT, I=   12 J=    2 ET=BRICK
   0.0000000000E+00  -0.8449610628E-07  -0.8449610628E-07   0.0000000000E+00  -0.6738802799E-07  -0.6738802799E-07   0.0000000000E+00  -0.1710807829E-07  -0.1710807829E-07   0.5584514283E-02  -0.2352957941E-02  -0.2352957941E-02   0.4868770355E-03   0.4868770355E-03   0.1275845184E-09   0.0000000000E+00   0.8207939499E-02
   0.1000018486E+01   0.8730720793E-05   0.8730720793E-05   0.1048544020E-04   0.4862547698E-05   0.4862547698E-05   0.8000895295E-05   0.3868173095E-05   0.3868173095E-05   0.2109237040E+00   0.9234095840E-01   0.9234095840E-01   0.4868677330E-03   0.4868677330E-03   0.1275589670E-09   0.0000000000E+00   0.1186966724E+00
   0.1000018486E+01   0.9999912693E+00   0.8730720793E-05   0.1048544020E-04  -0.4862547698E-05   0.4862547698E-05   0.8000895295E-05  -0.3868173095E-05   0.3868173095E-05   0.2109237040E+00   0.9234095839E-01   0.9234095839E-01  -0.4868677331E-03   0.4868677330E-03  -0.1275963283E-09   0.0000000000E+00   0.1186966724E+00
   0.0000000000E+00   0.1000000084E+01  -0.8449610628E-07   0.0000000000E+00   0.6738802799E-07  -0.6738802799E-07   0.0000000000E+00   0.1710807829E-07  -0.1710807829E-07   0.5584514283E-02  -0.2352957941E-02  -0.2352957941E-02  -0.4868770355E-03   0.4868770354E-03  -0.1275967927E-09   0.0000000000E+00   0.8207939499E-02
   0.0000000000E+00  -0.8449610628E-07   0.1000000084E+01   0.0000000000E+00  -0.6738802799E-07   0.6738802799E-07   0.0000000000E+00  -0.1710807829E-07   0.1710807829E-07   0.5584514283E-02  -0.2352957941E-02  -0.2352957941E-02   0.4868770354E-03  -0.4868770355E-03  -0.1275967928E-09   0.0000000000E+00   0.8207939499E-02
   0.1000018486E+01   0.8730720793E-05   0.9999912693E+00   0.1048544020E-04   0.4862547698E-05  -0.4862547698E-05   0.8000895295E-05   0.3868173095E-05  -0.3868173095E-05   0.2109237040E+00   0.9234095839E-01   0.9234095839E-01   0.4868677330E-03  -0.4868677331E-03  -0.1275963284E-09   0.0000000000E+00   0.1186966724E+00
   0.1000018486E+01   0.9999912693E+00   0.9999912693E+00   0.1048544020E-04  -0.4862547698E-05  -0.4862547698E-05   0.8000895295E-05  -0.3868173095E-05  -0.3868173095E-05   0.2109237040E+00   0.9234095839E-01   0.9234095839E-01  -0.4868677331E-03  -0.4868677331E-03   0.1276336892E-09   0.0000000000E+00   0.1186966724E+00
   0.0000000000E+00   0.1000000084E+01   0.1000000084E+01   0.0000000000E+00   0.6738802798E-07   0.6738802798E-07   0.0000000000E+00   0.1710807829E-07   0.1710807829E-07   0.5584514283E-02  -0.2352957941E-02  -0.2352957941E-02  -0.4868770354E-03  -0.4868770354E-03   0.1276090671E-09   0.0000000000E+00   0.8207939498E-02
   0.2000400000E+01   0.1754592719E-04   0.1754592719E-04   0.1000000000E-03   0.9792473932E-05   0.9792473932E-05   0.3000000000E-03   0.7753453257E-05   0.7753453257E-05   0.4162629035E+00   0.1870348699E+00   0.1870348699E+00   0.4868584305E-03   0.4868584305E-03   0.1275334151E-09   0.0000000000E+00   0.2292373402E+00
   0.2000400000E+01   0.9999824541E+00   0.1754592719E-04   0.1000000000E-03  -0.9792473932E-05   0.9792473932E-05   0.3000000000E-03  -0.7753453256E-05   0.7753453256E-05   0.4162629035E+00   0.1870348698E+00   0.1870348698E+00  -0.4868584305E-03   0.4868584305E-03  -0.1275958639E-09   0.0000000000E+00   0.2292373401E+00
   0.2000400000E+01   0.1754592719E-04   0.9999824541E+00   0.1000000000E-03   0.9792473932E-05  -0.9792473932E-05   0.3000000000E-03   0.7753453256E-05  -0.7753453256E-05   0.4162629035E+00   0.1870348698E+00   0.1870348698E+00   0.4868584305E-03  -0.4868584305E-03  -0.1275958642E-09   0.0000000000E+00   0.2292373401E+00
   0.2000400000E+01   0.9999824541E+00   0.9999824541E+00   0.1000000000E-03  -0.9792473932E-05  -0.9792473932E-05   0.3000000000E-03  -0.7753453256E-05  -0.7753453256E-05   0.4162629035E+00   0.1870348698E+00   0.1870348698E+00  -0.4868584305E-03  -0.4868584305E-03   0.1276583116E-09   0.0000000000E+00   0.2292373401E+00
     1     2     3     4     5     6     7     8
     2     9    10     3     6    11    12     7
 VARIABLES = X,Y,Z,DU1,DU2,DU3,U1,U2,U3,S11,S22,S33,S12,S13,S23,Vf,SMISES
 ZONE, T="0.5000D-01" F=FEPOINT, I=   12 J=    2 ET=BRICK
   0.0000000000E+00  -0.2468863703E-06  -0.2468863703E-06   0.0000000000E+00  -0.1623902640E-06  -0.1623902640E-06   0.0000000000E+00  -0.8449610628E-07  -0.8449610628E-07   0.1329757829E-01  -0.4893397380E-02  -0.4893397380E-02   0.1104664294E-02   0.1104664294E-02   0.9276585813E-09   0.0000000000E+00   0.1879846034E-01
   0.1000034603E+01   0.1588927167E-04   0.1588927167E-04   0.1611695509E-04   0.7158550875E-05   0.7158550875E-05   0.1848633550E-04   0.8730720793E-05   0.8730720793E-05   0.2707892551E+00   0.1073117053E+00   0.1073117053E+00   0.1104650613E-02   0.1104650613E-02   0.9275373548E-09   0.0000000000E+00   0.1637413840E+00
   0.1000034603E+01   0.9999841107E+00   0.1588927167E-04   0.1611695509E-04  -0.7158550875E-05   0.7158550875E-05   0.1848633550E-04  -0.8730720793E-05   0.8730720793E-05   0.2707892551E+00   0.1073117053E+00   0.1073117053E+00  -0.1104650613E-02   0.1104650613E-02  -0.9276211362E-09   0.0000000000E+00   0.1637413840E+00
   0.0000000000E+00   0.1000000247E+01  -0.2468863703E-06   0.0000000000E+00   0.1623902640E-06  -0.1623902640E-06   0.0000000000E+00   0.8449610628E-07  -0.8449610628E-07   0.1329757829E-01  -0.4893397380E-02  -0.4893397380E-02  -0.1104664294E-02   0.1104664294E-02  -0.9276856053E-09   0.0000000000E+00   0.1879846033E-01
   0.0000000000E+00  -0.2468863703E-06   0.1000000247E+01   0.0000000000E+00  -0.1623902640E-06   0.1623902640E-06   0.0000000000E+00  -0.8449610628E-07   0.8449610628E-07   0.1329757829E-01  -0.4893397380E-02  -0.4893397380E-02   0.1104664294E-02  -0.1104664294E-02  -0.9276856053E-09   0.0000000000E+00   0.1879846033E-01
   0.1000034603E+01   0.1588927167E-04   0.9999841107E+00   0.1611695509E-04   0.7158550875E-05  -0.7158550875E-05   0.1848633550E-04   0.8730720793E-05  -0.8730720793E-05   0.2707892551E+00   0.1073117053E+00   0.1073117053E+00   0.1104650613E-02  -0.1104650613E-02  -0.9276211364E-09   0.0000000000E+00   0.1637413840E+00
   0.1000034603E+01   0.9999841107E+00   0.9999841107E+00   0.1611695509E-04  -0.7158550874E-05  -0.7158550874E-05   0.1848633550E-04  -0.8730720793E-05  -0.8730720793E-05   0.2707892551E+00   0.1073117053E+00   0.1073117053E+00  -0.1104650613E-02  -0.1104650613E-02   0.9277049181E-09   0.0000000000E+00   0.1637413839E+00
   0.0000000000E+00   0.1000000247E+01   0.1000000247E+01   0.0000000000E+00   0.1623902640E-06   0.1623902640E-06   0.0000000000E+00   0.8449610627E-07   0.8449610627E-07   0.1329757829E-01  -0.4893397379E-02  -0.4893397379E-02  -0.1104664294E-02  -0.1104664294E-02   0.9277126297E-09   0.0000000000E+00   0.1879846033E-01
   0.2000500000E+01   0.3202538183E-04   0.3202538183E-04   0.1000000000E-03   0.1447945464E-04   0.1447945464E-04   0.4000000000E-03   0.1754592719E-04   0.1754592719E-04   0.5282809803E+00   0.2195167839E+00   0.2195167839E+00   0.1104636931E-02   0.1104636931E-02   0.9274161251E-09   0.0000000000E+00   0.3087997657E+00
   0.2000500000E+01   0.9999679746E+00   0.3202538182E-04   0.1000000000E-03  -0.1447945464E-04   0.1447945464E-04   0.4000000000E-03  -0.1754592719E-04   0.1754592719E-04   0.5282809803E+00   0.2195167838E+00   0.2195167838E+00  -0.1104636931E-02   0.1104636931E-02  -0.9275566662E-09   0.0000000000E+00   0.3087997657E+00
   0.2000500000E+01   0.3202538182E-04   0.9999679746E+00   0.1000000000E-03   0.1447945464E-04  -0.1447945464E-04   0.4000000000E-03   0.1754592719E-04  -0.1754592719E-04   0.5282809803E+00   0.2195167838E+00   0.2195167838E+00   0.1104636931E-02  -0.1104636931E-02  -0.9275566668E-09   0.0000000000E+00   0.3087997657E+00
   0.2000500000E+01   0.9999679746E+00   0.9999679746E+00   0.1000000000E-03  -0.1447945464E-04  -0.1447945464E-04   0.4000000000E-03  -0.1754592719E-04  -0.1754592719E-04   0.5282809803E+00   0.2195167838E+00   0.2195167838E+00  -0.1104636931E-02  -0.1104636931E-02   0.9276972059E-09   0.0000000000E+00   0.3087997657E+00
     1     2     3     4     5     6     7     8
     2     9    10     3     6    11    12     7
 VARIABLES = X,Y,Z,DU1,DU2,DU3,U1,U2,U3,S11,S22,S33,S12,S13,S23,Vf,SMISES
 ZONE, T="0.6000D-01" F=FEPOINT, I=   12 J=    2 ET=BRICK
   0.0000000000E+00  -0.5504901001E-06  -0.5504901001E-06   0.0000000000E+00  -0.3036037298E-06  -0.3036037298E-06   0.0000000000E+00  -0.2468863703E-06  -0.2468863703E-06   0.2574213097E-01  -0.7992001625E-02  -0.7992001625E-02   0.2022080399E-02   0.2022080399E-02   0.3623341680E-08   0.0000000000E+00   0.3483167635E-01
   0.1000057022E+01   0.2533857746E-04   0.2533857746E-04   0.2241902584E-04   0.9449305795E-05   0.9449305795E-05   0.3460329059E-04   0.1588927167E-04   0.1588927167E-04   0.3239480538E+00   0.1121250125E+00   0.1121250125E+00   0.2022074847E-02   0.2022074847E-02   0.3622859636E-08   0.0000000000E+00   0.2123163447E+00
   0.1000057022E+01   0.9999746614E+00   0.2533857746E-04   0.2241902584E-04  -0.9449305795E-05   0.9449305795E-05   0.3460329059E-04  -0.1588927167E-04   0.1588927167E-04   0.3239480537E+00   0.1121250125E+00   0.1121250125E+00  -0.2022074847E-02   0.2022074847E-02  -0.3623010875E-08   0.0000000000E+00   0.2123163447E+00
   0.0000000000E+00   0.1000000550E+01  -0.5504901001E-06   0.0000000000E+00   0.3036037298E-06  -0.3036037298E-06   0.0000000000E+00   0.2468863703E-06  -0.2468863703E-06   0.2574213097E-01  -0.7992001625E-02  -0.7992001625E-02  -0.2022080399E-02   0.2022080399E-02  -0.3623389388E-08   0.0000000000E+00   0.3483167635E-01
   0.0000000000E+00  -0.5504901001E-06   0.1000000550E+01   0.0000000000E+00  -0.3036037298E-06   0.3036037298E-06   0.0000000000E+00  -0.2468863703E-06   0.2468863703E-06   0.2574213097E-01  -0.7992001625E-02  -0.7992001625E-02   0.2022080399E-02  -0.2022080399E-02  -0.3623389388E-08   0.0000000000E+00   0.3483167635E-01
   0.1000057022E+01   0.2533857746E-04   0.9999746614E+00   0.2241902584E-04   0.9449305795E-05  -0.9449305795E-05   0.3460329059E-04   0.1588927167E-04  -0.1588927167E-04   0.3239480537E+00   0.1121250125E+00   0.1121250125E+00   0.2022074847E-02  -0.2022074847E-02  -0.3623010875E-08   0.0000000000E+00   0.2123163447E+00
   0.1000057022E+01   0.9999746614E+00   0.9999746614E+00   0.2241902584E-04  -0.9449305795E-05  -0.9449305795E-05   0.3460329058E-04  -0.1588927167E-04  -0.1588927167E-04   0.3239480537E+00   0.1121250125E+00   0.1121250125E+00  -0.2022074847E-02  -0.2022074847E-02   0.3623162113E-08   0.0000000000E+00   0.2123163447E+00
   0.0000000000E+00   0.1000000550E+01   0.1000000550E+01   0.0000000000E+00   0.3036037298E-06   0.3036037298E-06   0.0000000000E+00   0.2468863703E-06   0.2468863703E-06   0.2574213096E-01  -0.7992001624E-02  -0.7992001624E-02  -0.2022080399E-02  -0.2022080399E-02   0.3623437097E-08   0.0000000000E+00   0.3483167635E-01
   0.2000600000E+01   0.5122749702E-04   0.5122749702E-04   0.1000000000E-03   0.1920211519E-04   0.1920211519E-04   0.5000000000E-03   0.3202538183E-04   0.3202538183E-04   0.6221541346E+00   0.2322419475E+00   0.2322419475E+00   0.2022069293E-02   0.2022069293E-02   0.3622377573E-08   0.0000000000E+00   0.3900065737E+00
   0.2000600000E+01   0.9999487725E+00   0.5122749701E-04   0.1000000000E-03  -0.1920211519E-04   0.1920211519E-04   0.5000000000E-03  -0.3202538182E-04   0.3202538182E-04   0.6221541345E+00   0.2322419475E+00   0.2322419475E+00  -0.2022069293E-02   0.2022069293E-02  -0.3622632348E-08   0.0000000000E+00   0.3900065737E+00
   0.2000600000E+01   0.5122749701E-04   0.9999487725E+00   0.1000000000E-03   0.1920211519E-04  -0.1920211519E-04   0.5000000000E-03   0.3202538182E-04  -0.3202538182E-04   0.6221541345E+00   0.2322419475E+00   0.2322419475E+00   0.2022069293E-02  -0.2022069293E-02  -0.3622632349E-08   0.0000000000E+00   0.3900065737E+00
   0.2000600000E+01   0.9999487725E+00   0.9999487725E+00   0.1000000000E-03  -0.1920211519E-04  -0.1920211519E-04   0.5000000000E-03  -0.3202538182E-04  -0.3202538182E-04   0.6221541345E+00   0.2322419475E+00   0.2322419475E+00  -0.2022069293E-02  -0.2022069293E-02   0.3622887119E-08   0.0000000000E+00   0.3900065736E+00
     1     2     3     4     5     6     7     8
     2     9    10     3     6    11    12     7
 VARIABLES = X,Y,Z,DU1,DU2,DU3,U1,U2,U3,S11,S22,S33,S12,S13,S23,Vf,SMISES
 ZONE, T="0.7000D-01" F=FEPOINT, I=   12 J=    2 ET=BRICK
   0.0000000000E+00  -0.1028348009E-05  -0.1028348009E-05   0.0000000000E+00  -0.4778579091E-06  -0.4778579091E-06   0.0000000000E+00  -0.5504901001E-06  -0.5504901001E-06   0.4397945109E-01  -0.1104248295E-01  -0.1104248295E-01   0.3244263836E-02   0.3244263836E-02   0.1019690964E-07   0.0000000000E+00   0.5675392220E-01
   0.1000086146E+01   0.3687094682E-04   0.3687094682E-04   0.2912336534E-04   0.1153236936E-04   0.1153236936E-04   0.5702231643E-04   0.2533857746E-04   0.2533857746E-04   0.3704161870E+00   0.1068041576E+00   0.1068041576E+00   0.3244295627E-02   0.3244295627E-02   0.1019546237E-07   0.0000000000E+00   0.2644196601E+00
   0.1000086146E+01   0.9999631291E+00   0.3687094682E-04   0.2912336534E-04  -0.1153236936E-04   0.1153236936E-04   0.5702231642E-04  -0.2533857746E-04   0.2533857746E-04   0.3704161870E+00   0.1068041576E+00   0.1068041576E+00  -0.3244295628E-02   0.3244295627E-02  -0.1019570114E-07   0.0000000000E+00   0.2644196601E+00
   0.0000000000E+00   0.1000001028E+01  -0.1028348009E-05   0.0000000000E+00   0.4778579090E-06  -0.4778579090E-06   0.0000000000E+00   0.5504901001E-06  -0.5504901001E-06   0.4397945109E-01  -0.1104248295E-01  -0.1104248295E-01  -0.3244263836E-02   0.3244263836E-02  -0.1019698301E-07   0.0000000000E+00   0.5675392219E-01
   0.0000000000E+00  -0.1028348009E-05   0.1000001028E+01   0.0000000000E+00  -0.4778579090E-06   0.4778579090E-06   0.0000000000E+00  -0.5504901001E-06   0.5504901001E-06   0.4397945109E-01  -0.1104248295E-01  -0.1104248295E-01   0.3244263836E-02  -0.3244263836E-02  -0.1019698301E-07   0.0000000000E+00   0.5675392219E-01
   0.1000086146E+01   0.3687094682E-04   0.9999631291E+00   0.2912336534E-04   0.1153236936E-04  -0.1153236936E-04   0.5702231642E-04   0.2533857746E-04  -0.2533857746E-04   0.3704161870E+00   0.1068041576E+00   0.1068041576E+00   0.3244295627E-02  -0.3244295628E-02  -0.1019570114E-07   0.0000000000E+00   0.2644196601E+00
   0.1000086146E+01   0.9999631291E+00   0.9999631291E+00   0.2912336534E-04  -0.1153236936E-04  -0.1153236936E-04   0.5702231642E-04  -0.2533857746E-04  -0.2533857746E-04   0.3704161870E+00   0.1068041576E+00   0.1068041576E+00  -0.3244295628E-02  -0.3244295628E-02   0.1019593991E-07   0.0000000000E+00   0.2644196601E+00
   0.0000000000E+00   0.1000001028E+01   0.1000001028E+01   0.0000000000E+00   0.4778579090E-06   0.4778579090E-06   0.0000000000E+00   0.5504901001E-06   0.5504901001E-06   0.4397945108E-01  -0.1104248295E-01  -0.1104248295E-01  -0.3244263836E-02  -0.3244263836E-02   0.1019705638E-07   0.0000000000E+00   0.5675392219E-01
   0.2000700000E+01   0.7476988055E-04   0.7476988055E-04   0.1000000000E-03   0.2354238353E-04   0.2354238353E-04   0.6000000000E-03   0.5122749702E-04   0.5122749702E-04   0.6968533214E+00   0.2246505989E+00   0.2246505989E+00   0.3244327413E-02   0.3244327413E-02   0.1019401501E-07   0.0000000000E+00   0.4724033726E+00
   0.2000700000E+01   0.9999252301E+00   0.7476988054E-04   0.1000000000E-03  -0.2354238353E-04   0.2354238353E-04   0.6000000000E-03  -0.5122749701E-04   0.5122749701E-04   0.6968533214E+00   0.2246505989E+00   0.2246505989E+00  -0.3244327413E-02   0.3244327413E-02  -0.1019441919E-07   0.0000000000E+00   0.4724033726E+00
   0.2000700000E+01   0.7476988054E-04   0.9999252301E+00   0.1000000000E-03   0.2354238353E-04  -0.2354238353E-04   0.6000000000E-03   0.5122749701E-04  -0.5122749701E-04   0.6968533214E+00   0.2246505989E+00   0.2246505989E+00   0.3244327413E-02  -0.3244327413E-02  -0.1019441919E-07   0.0000000000E+00   0.4724033726E+00
   0.2000700000E+01   0.9999252301E+00   0.9999252301E+00   0.1000000000E-03  -0.2354238353E-04  -0.2354238353E-04   0.6000000000E-03  -0.5122749701E-04  -0.5122749701E-04   0.6968533214E+00   0.2246505989E+00   0.2246505989E+00  -0.3244327413E-02  -0.3244327413E-02   0.1019482337E-07   0.0000000000E+00   0.4724033726E+00
     1     2     3     4     5     6     7     8
     2     9    10     3     6    11    12     7
 VARIABLES = X,Y,Z,DU1,DU2,DU3,U1,U2,U3,S11,S22,S33,S12,S13,S23,Vf,SMISES
 ZONE, T="0.8000D-01" F=FEPOINT, I=   12 J=    2 ET=BRICK
   0.0000000000E+00  -0.1682772076E-05  -0.1682772076E-05   0.0000000000E+00  -0.6544240669E-06  -0.6544240669E-06   0.0000000000E+00  -0.1028348009E-05  -0.1028348009E-05   0.6898536170E-01  -0.1323390448E-01  -0.1323390448E-01   0.4749335378E-02   0.4749335378E-02   0.2318452952E-07   0.0000000000E+00   0.8470287141E-01
   0.1000122108E+01   0.5010354517E-04   0.5010354517E-04   0.3596207974E-04   0.1323259835E-04   0.1323259835E-04   0.8614568177E-04   0.3687094682E-04   0.3687094682E-04   0.4108004768E+00   0.9226763983E-01   0.9226763983E-01   0.4749453947E-02   0.4749453947E-02   0.2318111650E-07   0.0000000000E+00   0.3197361686E+00
   0.1000122108E+01   0.9999498965E+00   0.5010354516E-04   0.3596207974E-04  -0.1323259835E-04   0.1323259835E-04   0.8614568177E-04  -0.3687094682E-04   0.3687094682E-04   0.4108004768E+00   0.9226763983E-01   0.9226763983E-01  -0.4749453948E-02   0.4749453946E-02  -0.2318145971E-07   0.0000000000E+00   0.3197361685E+00
   0.0000000000E+00   0.1000001683E+01  -0.1682772076E-05   0.0000000000E+00   0.6544240669E-06  -0.6544240669E-06   0.0000000000E+00   0.1028348009E-05  -0.1028348009E-05   0.6898536170E-01  -0.1323390448E-01  -0.1323390448E-01  -0.4749335378E-02   0.4749335378E-02  -0.2318463183E-07   0.0000000000E+00   0.8470287141E-01
   0.0000000000E+00  -0.1682772076E-05   0.1000001683E+01   0.0000000000E+00  -0.6544240669E-06   0.6544240669E-06   0.0000000000E+00  -0.1028348009E-05   0.1028348009E-05   0.6898536170E-01  -0.1323390448E-01  -0.1323390448E-01   0.4749335378E-02  -0.4749335378E-02  -0.2318463183E-07   0.0000000000E+00   0.8470287141E-01
   0.1000122108E+01   0.5010354516E-04   0.9999498965E+00   0.3596207974E-04   0.1323259835E-04  -0.1323259835E-04   0.8614568177E-04   0.3687094682E-04  -0.3687094682E-04   0.4108004768E+00   0.9226763983E-01   0.9226763983E-01   0.4749453946E-02  -0.4749453948E-02  -0.2318145971E-07   0.0000000000E+00   0.3197361685E+00
   0.1000122108E+01   0.9999498965E+00   0.9999498965E+00   0.3596207974E-04  -0.1323259834E-04  -0.1323259834E-04   0.8614568176E-04  -0.3687094682E-04  -0.3687094682E-04   0.4108004768E+00   0.9226763982E-01   0.9226763982E-01  -0.4749453947E-02  -0.4749453947E-02   0.2318180293E-07   0.0000000000E+00   0.3197361685E+00
   0.0000000000E+00   0.1000001683E+01   0.1000001683E+01   0.0000000000E+00   0.6544240668E-06   0.6544240668E-06   0.0000000000E+00   0.1028348009E-05   0.1028348009E-05   0.6898536169E-01  -0.1323390448E-01  -0.1323390448E-01  -0.4749335378E-02  -0.4749335378E-02   0.2318473414E-07   0.0000000000E+00   0.8470287141E-01
   0.2000800000E+01   0.1018891142E-03   0.1018891142E-03   0.1000000000E-03   0.2711923361E-04   0.2711923361E-04   0.7000000000E-03   0.7476988055E-04   0.7476988055E-04   0.7526164314E+00   0.1977687644E+00   0.1977687644E+00   0.4749572504E-02   0.4749572504E-02   0.2317770317E-07   0.0000000000E+00   0.5552136808E+00
   0.2000800000E+01   0.9998981109E+00   0.1018891141E-03   0.1000000000E-03  -0.2711923361E-04   0.2711923361E-04   0.7000000000E-03  -0.7476988054E-04   0.7476988054E-04   0.7526164313E+00   0.1977687644E+00   0.1977687644E+00  -0.4749572504E-02   0.4749572503E-02  -0.2317828732E-07   0.0000000000E+00   0.5552136808E+00
   0.2000800000E+01   0.1018891141E-03   0.9998981109E+00   0.1000000000E-03   0.2711923361E-04  -0.2711923361E-04   0.7000000000E-03   0.7476988054E-04  -0.7476988054E-04   0.7526164313E+00   0.1977687644E+00   0.1977687644E+00   0.4749572503E-02  -0.4749572504E-02  -0.2317828733E-07   0.0000000000E+00   0.5552136808E+00
   0.2000800000E+01   0.9998981109E+00   0.9998981109E+00   0.1000000000E-03  -0.2711923361E-04  -0.2711923361E-04   0.7000000000E-03  -0.7476988054E-04  -0.7476988054E-04   0.7526164313E+00   0.1977687644E+00   0.1977687644E+00  -0.4749572503E-02  -0.4749572503E-02   0.2317887147E-07   0.0000000000E+00   0.5552136808E+00
     1     2     3     4     5     6     7     8
     2     9    10     3     6    11    12     7
 VARIABLES = X,Y,Z,DU1,DU2,DU3,U1,U2,U3,S11,S22,S33,S12,S13,S23,Vf,SMISES
 ZONE, T="0.9000D-01" F=FEPOINT, I=   12 J=    2 ET=BRICK
   0.0000000000E+00  -0.2467138931E-05  -0.2467138931E-05   0.0000000000E+00  -0.7843668553E-06  -0.7843668553E-06   0.0000000000E+00  -0.1682772076E-05  -0.1682772076E-05   0.1015837319E+00  -0.1364876275E-01  -0.1364876275E-01   0.6489617454E-02   0.6489617454E-02   0.4516792337E-07   0.0000000000E+00   0.1185406189E+00
   0.1000164789E+01   0.6451997505E-04   0.6451997505E-04   0.4268145170E-04   0.1441642989E-04   0.1441642989E-04   0.1221077615E-03   0.5010354517E-04   0.5010354517E-04   0.4462187840E+00   0.7020851619E-01   0.7020851619E-01   0.6489891360E-02   0.6489891360E-02   0.4516129401E-07   0.0000000000E+00   0.3776770547E+00
   0.1000164789E+01   0.9999354800E+00   0.6451997505E-04   0.4268145170E-04  -0.1441642989E-04   0.1441642989E-04   0.1221077615E-03  -0.5010354516E-04   0.5010354516E-04   0.4462187839E+00   0.7020851619E-01   0.7020851619E-01  -0.6489891361E-02   0.6489891359E-02  -0.4516175355E-07   0.0000000000E+00   0.3776770547E+00
   0.0000000000E+00   0.1000002467E+01  -0.2467138931E-05   0.0000000000E+00   0.7843668552E-06  -0.7843668552E-06   0.0000000000E+00   0.1682772076E-05  -0.1682772076E-05   0.1015837319E+00  -0.1364876275E-01  -0.1364876275E-01  -0.6489617454E-02   0.6489617454E-02  -0.4516805570E-07   0.0000000000E+00   0.1185406189E+00
   0.0000000000E+00  -0.2467138931E-05   0.1000002467E+01   0.0000000000E+00  -0.7843668552E-06   0.7843668552E-06   0.0000000000E+00  -0.1682772076E-05   0.1682772076E-05   0.1015837319E+00  -0.1364876275E-01  -0.1364876275E-01   0.6489617454E-02  -0.6489617454E-02  -0.4516805570E-07   0.0000000000E+00   0.1185406189E+00
   0.1000164789E+01   0.6451997505E-04   0.9999354800E+00   0.4268145170E-04   0.1441642989E-04  -0.1441642989E-04   0.1221077615E-03   0.5010354516E-04  -0.5010354516E-04   0.4462187839E+00   0.7020851619E-01   0.7020851619E-01   0.6489891359E-02  -0.6489891361E-02  -0.4516175355E-07   0.0000000000E+00   0.3776770547E+00
   0.1000164789E+01   0.9999354800E+00   0.9999354800E+00   0.4268145170E-04  -0.1441642988E-04  -0.1441642988E-04   0.1221077615E-03  -0.5010354516E-04  -0.5010354516E-04   0.4462187839E+00   0.7020851619E-01   0.7020851619E-01  -0.6489891360E-02  -0.6489891360E-02   0.4516221309E-07   0.0000000000E+00   0.3776770547E+00
   0.0000000000E+00   0.1000002467E+01   0.1000002467E+01   0.0000000000E+00   0.7843668552E-06   0.7843668552E-06   0.0000000000E+00   0.1682772076E-05   0.1682772076E-05   0.1015837319E+00  -0.1364876274E-01  -0.1364876274E-01  -0.6489617454E-02  -0.6489617454E-02   0.4516818803E-07   0.0000000000E+00   0.1185406188E+00
   0.2000900000E+01   0.1315057159E-03   0.1315057159E-03   0.1000000000E-03   0.2961660178E-04   0.2961660178E-04   0.8000000000E-03   0.1018891142E-03   0.1018891142E-03   0.7908553786E+00   0.1540650238E+00   0.1540650238E+00   0.6490165246E-02   0.6490165246E-02   0.4515466382E-07   0.0000000000E+00   0.6373859204E+00
   0.2000900000E+01   0.9998684943E+00   0.1315057159E-03   0.1000000000E-03  -0.2961660178E-04   0.2961660178E-04   0.8000000000E-03  -0.1018891141E-03   0.1018891141E-03   0.7908553786E+00   0.1540650238E+00   0.1540650238E+00  -0.6490165246E-02   0.6490165245E-02  -0.4515545064E-07   0.0000000000E+00   0.6373859204E+00
   0.2000900000E+01   0.1315057159E-03   0.9998684943E+00   0.1000000000E-03   0.2961660178E-04  -0.2961660178E-04   0.8000000000E-03   0.1018891141E-03  -0.1018891141E-03   0.7908553786E+00   0.1540650238E+00   0.1540650238E+00   0.6490165245E-02  -0.6490165246E-02  -0.4515545064E-07   0.0000000000E+00   0.6373859204E+00
   0.2000900000E+01   0.9998684943E+00   0.9998684943E+00   0.1000000000E-03  -0.2961660178E-04  -0.2961660178E-04   0.8000000000E-03  -0.1018891141E-03  -0.1018891141E-03   0.7908553785E+00   0.1540650238E+00   0.1540650238E+00  -0.6490165245E-02  -0.6490165245E-02   0.4515623744E-07   0.0000000000E+00   0.6373859204E+00
     1     2     3     4     5     6     7     8
     2     9    10     3     6    11    12     7
 VARIABLES = X,Y,Z,DU1,DU2,DU3,U1,U2,U3,S11,S22,S33,S12,S13,S23,Vf,SMISES
 ZONE, T="0.1000D+00" F=FEPOINT, I=   12 J=    2 ET=BRICK
   0.0000000000E+00  -0.3269574773E-05  -0.3269574773E-05   0.0000000000E+00  -0.8024358419E-06  -0.8024358419E-06   0.0000000000E+00  -0.2467138931E-05  -0.2467138931E-05   0.1423763661E+00  -0.1138287422E-01  -0.1138287422E-01   0.8394561567E-02   0.8394561567E-02   0.7804746889E-07   0.0000000000E+00   0.1579067289E+00
   0.1000213843E+01   0.7952183762E-04   0.7952183762E-04   0.4905421630E-04   0.1500186257E-04   0.1500186257E-04   0.1647892132E-03   0.6451997505E-04   0.6451997505E-04   0.4781786827E+00   0.4291061826E-01   0.4291061826E-01   0.8395071468E-02   0.8395071468E-02   0.7803648202E-07   0.0000000000E+00   0.4374420402E+00
   0.1000213843E+01   0.9999204782E+00   0.7952183762E-04   0.4905421630E-04  -0.1500186257E-04   0.1500186257E-04   0.1647892132E-03  -0.6451997505E-04   0.6451997505E-04   0.4781786827E+00   0.4291061826E-01   0.4291061826E-01  -0.8395071469E-02   0.8395071467E-02  -0.7803706331E-07   0.0000000000E+00   0.4374420401E+00
   0.0000000000E+00   0.1000003270E+01  -0.3269574773E-05   0.0000000000E+00   0.8024358418E-06  -0.8024358418E-06   0.0000000000E+00   0.2467138931E-05  -0.2467138931E-05   0.1423763661E+00  -0.1138287422E-01  -0.1138287422E-01  -0.8394561567E-02   0.8394561566E-02  -0.7804762991E-07   0.0000000000E+00   0.1579067289E+00
   0.0000000000E+00  -0.3269574773E-05   0.1000003270E+01   0.0000000000E+00  -0.8024358418E-06   0.8024358418E-06   0.0000000000E+00  -0.2467138931E-05   0.2467138931E-05   0.1423763661E+00  -0.1138287422E-01  -0.1138287422E-01   0.8394561566E-02  -0.8394561567E-02  -0.7804762991E-07   0.0000000000E+00   0.1579067289E+00
   0.1000213843E+01   0.7952183762E-04   0.9999204782E+00   0.4905421630E-04   0.1500186257E-04  -0.1500186257E-04   0.1647892132E-03   0.6451997505E-04  -0.6451997505E-04   0.4781786827E+00   0.4291061826E-01   0.4291061826E-01   0.8395071467E-02  -0.8395071469E-02  -0.7803706332E-07   0.0000000000E+00   0.4374420401E+00
   0.1000213843E+01   0.9999204782E+00   0.9999204782E+00   0.4905421630E-04  -0.1500186257E-04  -0.1500186257E-04   0.1647892132E-03  -0.6451997505E-04  -0.6451997505E-04   0.4781786826E+00   0.4291061826E-01   0.4291061826E-01  -0.8395071469E-02  -0.8395071469E-02   0.7803764462E-07   0.0000000000E+00   0.4374420401E+00
   0.0000000000E+00   0.1000003270E+01   0.1000003270E+01   0.0000000000E+00   0.8024358417E-06   0.8024358417E-06   0.0000000000E+00   0.2467138931E-05   0.2467138931E-05   0.1423763661E+00  -0.1138287422E-01  -0.1138287422E-01  -0.8394561566E-02  -0.8394561566E-02   0.7804779094E-07   0.0000000000E+00   0.1579067289E+00
   0.2001000000E+01   0.1623109589E-03   0.1623109589E-03   0.1000000000E-03   0.3080524292E-04   0.3080524292E-04   0.9000000000E-03   0.1315057159E-03   0.1315057159E-03   0.8139835401E+00   0.9720284034E-01   0.9720284034E-01   0.8395581344E-02   0.8395581344E-02   0.7802549336E-07   0.0000000000E+00   0.7176661983E+00
   0.2001000000E+01   0.9998376890E+00   0.1623109588E-03   0.1000000000E-03  -0.3080524292E-04   0.3080524292E-04   0.9000000000E-03  -0.1315057159E-03   0.1315057159E-03   0.8139835401E+00   0.9720284033E-01   0.9720284033E-01  -0.8395581345E-02   0.8395581344E-02  -0.7802649503E-07   0.0000000000E+00   0.7176661982E+00
   0.2001000000E+01   0.1623109588E-03   0.9998376890E+00   0.1000000000E-03   0.3080524292E-04  -0.3080524292E-04   0.9000000000E-03   0.1315057159E-03  -0.1315057159E-03   0.8139835401E+00   0.9720284033E-01   0.9720284033E-01   0.8395581344E-02  -0.8395581345E-02  -0.7802649504E-07   0.0000000000E+00   0.7176661982E+00
   0.2001000000E+01   0.9998376890E+00   0.9998376890E+00   0.1000000000E-03  -0.3080524292E-04  -0.3080524292E-04   0.9000000000E-03  -0.1315057159E-03  -0.1315057159E-03   0.8139835400E+00   0.9720284033E-01   0.9720284033E-01  -0.8395581344E-02  -0.8395581344E-02   0.7802749669E-07   0.0000000000E+00   0.7176661982E+00
     1     2     3     4     5     6     7     8
     2     9    10     3     6    11    12     7
 VARIABLES = X,Y,Z,DU1,DU2,DU3,U1,U2,U3,S11,S22,S33,S12,S13,S23,Vf,SMISES
 ZONE, T="0.1100D+00" F=FEPOINT, I=   12 J=    2 ET=BRICK
   0.0000000000E+00  -0.3901064785E-05  -0.3901064785E-05   0.0000000000E+00  -0.6314900111E-06  -0.6314900111E-06   0.0000000000E+00  -0.3269574773E-05  -0.3269574773E-05   0.1916773129E+00  -0.5673196033E-02  -0.5673196033E-02   0.1037516391E-01   0.1037516391E-01   0.1222653949E-06   0.0000000000E+00   0.2022853738E+00
   0.1000268733E+01   0.9448529291E-04   0.9448529291E-04   0.5488961513E-04   0.1496345529E-04   0.1496345529E-04   0.2138434295E-03   0.7952183762E-04   0.7952183762E-04   0.5084262632E+00   0.1302100423E-01   0.1302100423E-01   0.1037597496E-01   0.1037597496E-01   0.1222492828E-06   0.1999624264E-09   0.4980968046E+00
   0.1000268733E+01   0.9999055147E+00   0.9448529291E-04   0.5488961513E-04  -0.1496345529E-04   0.1496345529E-04   0.2138434295E-03  -0.7952183762E-04   0.7952183762E-04   0.5084262632E+00   0.1302100423E-01   0.1302100423E-01  -0.1037597496E-01   0.1037597496E-01  -0.1222499840E-06   0.1999624264E-09   0.4980968045E+00
   0.0000000000E+00   0.1000003901E+01  -0.3901064784E-05   0.0000000000E+00   0.6314900110E-06  -0.6314900110E-06   0.0000000000E+00   0.3269574773E-05  -0.3269574773E-05   0.1916773129E+00  -0.5673196032E-02  -0.5673196032E-02  -0.1037516391E-01   0.1037516391E-01  -0.1222655810E-06   0.0000000000E+00   0.2022853738E+00
   0.0000000000E+00  -0.3901064784E-05   0.1000003901E+01   0.0000000000E+00  -0.6314900110E-06   0.6314900110E-06   0.0000000000E+00  -0.3269574773E-05   0.3269574773E-05   0.1916773129E+00  -0.5673196032E-02  -0.5673196032E-02   0.1037516391E-01  -0.1037516391E-01  -0.1222655810E-06   0.0000000000E+00   0.2022853738E+00
   0.1000268733E+01   0.9448529291E-04   0.9999055147E+00   0.5488961513E-04   0.1496345529E-04  -0.1496345529E-04   0.2138434295E-03   0.7952183762E-04  -0.7952183762E-04   0.5084262632E+00   0.1302100423E-01   0.1302100423E-01   0.1037597496E-01  -0.1037597496E-01  -0.1222499840E-06   0.1999624264E-09   0.4980968045E+00
   0.1000268733E+01   0.9999055147E+00   0.9999055147E+00   0.5488961513E-04  -0.1496345529E-04  -0.1496345529E-04   0.2138434295E-03  -0.7952183762E-04  -0.7952183762E-04   0.5084262632E+00   0.1302100423E-01   0.1302100423E-01  -0.1037597496E-01  -0.1037597496E-01   0.1222506852E-06   0.1999624264E-09   0.4980968045E+00
   0.0000000000E+00   0.1000003901E+01   0.1000003901E+01   0.0000000000E+00   0.6314900109E-06   0.6314900109E-06   0.0000000000E+00   0.3269574773E-05   0.3269574773E-05   0.1916773129E+00  -0.5673196031E-02  -0.5673196031E-02  -0.1037516391E-01  -0.1037516391E-01   0.1222657671E-06   0.0000000000E+00   0.2022853738E+00
   0.2001100000E+01   0.1928681786E-03   0.1928681786E-03   0.1000000000E-03   0.3055721971E-04   0.3055721971E-04   0.1000000000E-02   0.1623109589E-03   0.1623109589E-03   0.8251748441E+00   0.3171538919E-01   0.3171538919E-01   0.1037670540E-01   0.1037670540E-01   0.1222322183E-06   0.1492539823E-08   0.7946816109E+00
   0.2001100000E+01   0.9998071318E+00   0.1928681786E-03   0.1000000000E-03  -0.3055721971E-04   0.3055721971E-04   0.1000000000E-02  -0.1623109588E-03   0.1623109588E-03   0.8251748440E+00   0.3171538919E-01   0.3171538919E-01  -0.1037670540E-01   0.1037670540E-01  -0.1222334348E-06   0.1492539824E-08   0.7946816109E+00
   0.2001100000E+01   0.1928681786E-03   0.9998071318E+00   0.1000000000E-03   0.3055721971E-04  -0.3055721971E-04   0.1000000000E-02   0.1623109588E-03  -0.1623109588E-03   0.8251748440E+00   0.3171538919E-01   0.3171538919E-01   0.1037670540E-01  -0.1037670540E-01  -0.1222334348E-06   0.1492539824E-08   0.7946816109E+00
   0.2001100000E+01   0.9998071318E+00   0.9998071318E+00   0.1000000000E-03  -0.3055721971E-04  -0.3055721971E-04   0.1000000000E-02  -0.1623109588E-03  -0.1623109588E-03   0.8251748440E+00   0.3171538919E-01   0.3171538919E-01  -0.1037670540E-01  -0.1037670540E-01   0.1222346512E-06   0.1492539824E-08   0.7946816109E+00
     1     2     3     4     5     6     7     8
     2     9    10     3     6    11    12     7
 VARIABLES = X,Y,Z,DU1,DU2,DU3,U1,U2,U3,S11,S22,S33,S12,S13,S23,Vf,SMISES
 ZONE, T="0.1200D+00" F=FEPOINT, I=   12 J=    2 ET=BRICK
   0.0000000000E+00  -0.4090215159E-05  -0.4090215159E-05   0.0000000000E+00  -0.1891503750E-06  -0.1891503750E-06   0.0000000000E+00  -0.3901064785E-05  -0.3901064785E-05   0.2494596691E+00   0.3981205807E-02   0.3981205807E-02   0.1232956274E-01   0.1232956274E-01   0.1761899281E-06   0.0000000000E+00   0.2510796229E+00
   0.1000328762E+01   0.1088197110E-03   0.1088197110E-03   0.6002864682E-04   0.1433441812E-04   0.1433441812E-04   0.2687330446E-03   0.9448529291E-04   0.9448529291E-04   0.5386097398E+00  -0.1661453959E-01  -0.1661453959E-01   0.1232710525E-01   0.1232710525E-01   0.1761169868E-06   0.4981707490E-07   0.5584031207E+00
   0.1000328762E+01   0.9998911803E+00   0.1088197110E-03   0.6002864682E-04  -0.1433441812E-04   0.1433441812E-04   0.2687330446E-03  -0.9448529291E-04   0.9448529291E-04   0.5386097398E+00  -0.1661453959E-01  -0.1661453959E-01  -0.1232710525E-01   0.1232710524E-01  -0.1761177983E-06   0.4981707490E-07   0.5584031207E+00
   0.0000000000E+00   0.1000004090E+01  -0.4090215159E-05   0.0000000000E+00   0.1891503748E-06  -0.1891503749E-06   0.0000000000E+00   0.3901064784E-05  -0.3901064784E-05   0.2494596690E+00   0.3981205808E-02   0.3981205808E-02  -0.1232956274E-01   0.1232956274E-01  -0.1761901338E-06   0.0000000000E+00   0.2510796228E+00
   0.0000000000E+00  -0.4090215159E-05   0.1000004090E+01   0.0000000000E+00  -0.1891503749E-06   0.1891503748E-06   0.0000000000E+00  -0.3901064784E-05   0.3901064784E-05   0.2494596690E+00   0.3981205808E-02   0.3981205808E-02   0.1232956274E-01  -0.1232956274E-01  -0.1761901338E-06   0.0000000000E+00   0.2510796228E+00
   0.1000328762E+01   0.1088197110E-03   0.9998911803E+00   0.6002864682E-04   0.1433441812E-04  -0.1433441812E-04   0.2687330446E-03   0.9448529291E-04  -0.9448529291E-04   0.5386097398E+00  -0.1661453959E-01  -0.1661453959E-01   0.1232710524E-01  -0.1232710525E-01  -0.1761177983E-06   0.4981707490E-07   0.5584031207E+00
   0.1000328762E+01   0.9998911803E+00   0.9998911803E+00   0.6002864682E-04  -0.1433441812E-04  -0.1433441812E-04   0.2687330446E-03  -0.9448529291E-04  -0.9448529291E-04   0.5386097397E+00  -0.1661453959E-01  -0.1661453959E-01  -0.1232710525E-01  -0.1232710525E-01   0.1761186097E-06   0.4981707490E-07   0.5584031207E+00
   0.0000000000E+00   0.1000004090E+01   0.1000004090E+01   0.0000000000E+00   0.1891503747E-06   0.1891503747E-06   0.0000000000E+00   0.3901064784E-05   0.3901064784E-05   0.2494596690E+00   0.3981205809E-02   0.3981205809E-02  -0.1232956274E-01  -0.1232956274E-01   0.1761903395E-06   0.0000000000E+00   0.2510796228E+00
   0.2001200000E+01   0.2217400215E-03   0.2217400215E-03   0.1000000000E-03   0.2887184298E-04   0.2887184298E-04   0.1100000000E-02   0.1928681786E-03   0.1928681786E-03   0.8268081314E+00  -0.3673444546E-01  -0.3673444546E-01   0.1230461902E-01   0.1230461902E-01   0.1757577337E-06   0.3718396977E-06   0.8651218001E+00
   0.2001200000E+01   0.9997782600E+00   0.2217400215E-03   0.1000000000E-03  -0.2887184298E-04   0.2887184298E-04   0.1100000000E-02  -0.1928681786E-03   0.1928681786E-03   0.8268081314E+00  -0.3673444546E-01  -0.3673444546E-01  -0.1230461903E-01   0.1230461902E-01  -0.1757591485E-06   0.3718396977E-06   0.8651218001E+00
   0.2001200000E+01   0.2217400215E-03   0.9997782600E+00   0.1000000000E-03   0.2887184298E-04  -0.2887184298E-04   0.1100000000E-02   0.1928681786E-03  -0.1928681786E-03   0.8268081314E+00  -0.3673444546E-01  -0.3673444546E-01   0.1230461902E-01  -0.1230461903E-01  -0.1757591485E-06   0.3718396977E-06   0.8651218001E+00
   0.2001200000E+01   0.9997782600E+00   0.9997782600E+00   0.1000000000E-03  -0.2887184298E-04  -0.2887184298E-04   0.1100000000E-02  -0.1928681786E-03  -0.1928681786E-03   0.8268081314E+00  -0.3673444546E-01  -0.3673444546E-01  -0.1230461902E-01  -0.1230461902E-01   0.1757605633E-06   0.3718396977E-06   0.8651218001E+00
     1     2     3     4     5     6     7     8
     2     9    10     3     6    11    12     7
 VARIABLES = X,Y,Z,DU1,DU2,DU3,U1,U2,U3,S11,S22,S33,S12,S13,S23,Vf,SMISES
 ZONE, T="0.1300D+00" F=FEPOINT, I=   12 J=    2 ET=BRICK
   0.0000000000E+00  -0.3486723264E-05  -0.3486723264E-05   0.0000000000E+00   0.6034918952E-06   0.6034918952E-06   0.0000000000E+00  -0.4090215159E-05  -0.4090215159E-05   0.3153005457E+00   0.1770553736E-01   0.1770553736E-01   0.1414973239E-01   0.1414973239E-01   0.2358673126E-06   0.0000000000E+00   0.3036779970E+00
   0.1000393095E+01   0.1220256833E-03   0.1220256833E-03   0.6433355810E-04   0.1320597225E-04   0.1320597225E-04   0.3287616915E-03   0.1088197110E-03   0.1088197110E-03   0.5698288038E+00  -0.4309348630E-01  -0.4309348630E-01   0.1412664899E-01   0.1412664899E-01   0.2354381096E-06   0.3348893581E-06   0.6165132016E+00
   0.1000393095E+01   0.9998779743E+00   0.1220256833E-03   0.6433355810E-04  -0.1320597225E-04   0.1320597225E-04   0.3287616915E-03  -0.1088197110E-03   0.1088197110E-03   0.5698288038E+00  -0.4309348630E-01  -0.4309348630E-01  -0.1412664899E-01   0.1412664898E-01  -0.2354390130E-06   0.3348893581E-06   0.6165132016E+00
   0.0000000000E+00   0.1000003487E+01  -0.3486723264E-05   0.0000000000E+00  -0.6034918954E-06   0.6034918953E-06   0.0000000000E+00   0.4090215159E-05  -0.4090215159E-05   0.3153005457E+00   0.1770553736E-01   0.1770553736E-01  -0.1414973239E-01   0.1414973239E-01  -0.2358675313E-06   0.0000000000E+00   0.3036779970E+00
   0.0000000000E+00  -0.3486723264E-05   0.1000003487E+01   0.0000000000E+00   0.6034918953E-06  -0.6034918954E-06   0.0000000000E+00  -0.4090215159E-05   0.4090215159E-05   0.3153005457E+00   0.1770553736E-01   0.1770553736E-01   0.1414973239E-01  -0.1414973239E-01  -0.2358675313E-06   0.0000000000E+00   0.3036779970E+00
   0.1000393095E+01   0.1220256833E-03   0.9998779743E+00   0.6433355810E-04   0.1320597225E-04  -0.1320597225E-04   0.3287616915E-03   0.1088197110E-03  -0.1088197110E-03   0.5698288038E+00  -0.4309348630E-01  -0.4309348630E-01   0.1412664898E-01  -0.1412664899E-01  -0.2354390130E-06   0.3348893581E-06   0.6165132016E+00
   0.1000393095E+01   0.9998779743E+00   0.9998779743E+00   0.6433355810E-04  -0.1320597225E-04  -0.1320597225E-04   0.3287616914E-03  -0.1088197110E-03  -0.1088197110E-03   0.5698288038E+00  -0.4309348630E-01  -0.4309348630E-01  -0.1412664899E-01  -0.1412664899E-01   0.2354399164E-06   0.3348893581E-06   0.6165132016E+00
   0.0000000000E+00   0.1000003487E+01   0.1000003487E+01   0.0000000000E+00  -0.6034918955E-06  -0.6034918955E-06   0.0000000000E+00   0.4090215158E-05   0.4090215158E-05   0.3153005457E+00   0.1770553736E-01   0.1770553736E-01  -0.1414973239E-01  -0.1414973239E-01   0.2358677500E-06   0.0000000000E+00   0.3036779970E+00
   0.2001300000E+01   0.2476317780E-03   0.2476317780E-03   0.1000000000E-03   0.2589175646E-04   0.2589175646E-04   0.1200000000E-02   0.2217400215E-03   0.2217400215E-03   0.8197704609E+00  -0.1015992118E+00  -0.1015992118E+00   0.1400319951E-01   0.1400319951E-01   0.2332873872E-06   0.2056880493E-05   0.9232868579E+00
   0.2001300000E+01   0.9997523682E+00   0.2476317780E-03   0.1000000000E-03  -0.2589175645E-04   0.2589175645E-04   0.1200000000E-02  -0.2217400215E-03   0.2217400215E-03   0.8197704609E+00  -0.1015992118E+00  -0.1015992118E+00  -0.1400319951E-01   0.1400319951E-01  -0.2332889630E-06   0.2056880493E-05   0.9232868579E+00
   0.2001300000E+01   0.2476317780E-03   0.9997523682E+00   0.1000000000E-03   0.2589175645E-04  -0.2589175645E-04   0.1200000000E-02   0.2217400215E-03  -0.2217400215E-03   0.8197704609E+00  -0.1015992118E+00  -0.1015992118E+00   0.1400319951E-01  -0.1400319951E-01  -0.2332889630E-06   0.2056880493E-05   0.9232868579E+00
   0.2001300000E+01   0.9997523682E+00   0.9997523682E+00   0.1000000000E-03  -0.2589175645E-04  -0.2589175645E-04   0.1200000000E-02  -0.2217400215E-03  -0.2217400215E-03   0.8197704609E+00  -0.1015992118E+00  -0.1015992118E+00  -0.1400319951E-01  -0.1400319951E-01   0.2332905387E-06   0.2056880493E-05   0.9232868579E+00
     1     2     3     4     5     6     7     8
     2     9    10     3     6    11    12     7
 VARIABLES = X,Y,Z,DU1,DU2,DU3,U1,U2,U3,S11,S22,S33,S12,S13,S23,Vf,SMISES
 ZONE, T="0.1400D+00" F=FEPOINT, I=   12 J=    2 ET=BRICK
   0.0000000000E+00  -0.1675255322E-05  -0.1675255322E-05   0.0000000000E+00   0.1811467942E-05   0.1811467942E-05   0.0000000000E+00  -0.3486723264E-05  -0.3486723264E-05   0.3883227634E+00   0.3514933560E-01   0.3514933560E-01   0.1572918914E-01   0.1572918914E-01   0.2952931469E-06   0.0000000000E+00   0.3595048133E+00
   0.1000460797E+01   0.1337430722E-03   0.1337430722E-03   0.6770168104E-04   0.1171738896E-04   0.1171738896E-04   0.3930952496E-03   0.1220256833E-03   0.1220256833E-03   0.6026391934E+00  -0.6383525642E-01  -0.6383525642E-01   0.1564795982E-01   0.1564795982E-01   0.2937595245E-06   0.1130758764E-05   0.6703585897E+00
   0.1000460797E+01   0.9998662569E+00   0.1337430722E-03   0.6770168104E-04  -0.1171738896E-04   0.1171738896E-04   0.3930952496E-03  -0.1220256833E-03   0.1220256833E-03   0.6026391934E+00  -0.6383525642E-01  -0.6383525642E-01  -0.1564795982E-01   0.1564795982E-01  -0.2937604938E-06   0.1130758764E-05   0.6703585897E+00
   0.0000000000E+00   0.1000001675E+01  -0.1675255321E-05   0.0000000000E+00  -0.1811467942E-05   0.1811467942E-05   0.0000000000E+00   0.3486723263E-05  -0.3486723264E-05   0.3883227634E+00   0.3514933560E-01   0.3514933560E-01  -0.1572918914E-01   0.1572918914E-01  -0.2952933716E-06   0.0000000000E+00   0.3595048133E+00
   0.0000000000E+00  -0.1675255321E-05   0.1000001675E+01   0.0000000000E+00   0.1811467942E-05  -0.1811467942E-05   0.0000000000E+00  -0.3486723264E-05   0.3486723263E-05   0.3883227634E+00   0.3514933560E-01   0.3514933560E-01   0.1572918914E-01  -0.1572918914E-01  -0.2952933716E-06   0.0000000000E+00   0.3595048133E+00
   0.1000460797E+01   0.1337430722E-03   0.9998662569E+00   0.6770168104E-04   0.1171738896E-04  -0.1171738896E-04   0.3930952496E-03   0.1220256833E-03  -0.1220256833E-03   0.6026391934E+00  -0.6383525642E-01  -0.6383525642E-01   0.1564795982E-01  -0.1564795982E-01  -0.2937604938E-06   0.1130758764E-05   0.6703585897E+00
   0.1000460797E+01   0.9998662569E+00   0.9998662569E+00   0.6770168104E-04  -0.1171738896E-04  -0.1171738896E-04   0.3930952495E-03  -0.1220256833E-03  -0.1220256833E-03   0.6026391934E+00  -0.6383525642E-01  -0.6383525642E-01  -0.1564795982E-01  -0.1564795982E-01   0.2937614631E-06   0.1130758764E-05   0.6703585897E+00
   0.0000000000E+00   0.1000001675E+01   0.1000001675E+01   0.0000000000E+00  -0.1811467943E-05  -0.1811467943E-05   0.0000000000E+00   0.3486723263E-05   0.3486723263E-05   0.3883227633E+00   0.3514933560E-01   0.3514933560E-01  -0.1572918914E-01  -0.1572918914E-01   0.2952935963E-06   0.0000000000E+00   0.3595048133E+00
   0.2001400000E+01   0.2694938602E-03   0.2694938602E-03   0.1000000000E-03   0.2186208223E-04   0.2186208223E-04   0.1300000000E-02   0.2476317780E-03   0.2476317780E-03   0.8060732893E+00  -0.1573787025E+00  -0.1573787025E+00   0.1532357893E-01   0.1532357893E-01   0.2874044833E-06   0.5696893219E-05   0.9656476914E+00
   0.2001400000E+01   0.9997305061E+00   0.2694938602E-03   0.1000000000E-03  -0.2186208222E-04   0.2186208222E-04   0.1300000000E-02  -0.2476317780E-03   0.2476317780E-03   0.8060732893E+00  -0.1573787025E+00  -0.1573787025E+00  -0.1532357893E-01   0.1532357893E-01  -0.2874061664E-06   0.5696893219E-05   0.9656476913E+00
   0.2001400000E+01   0.2694938602E-03   0.9997305061E+00   0.1000000000E-03   0.2186208222E-04  -0.2186208222E-04   0.1300000000E-02   0.2476317780E-03  -0.2476317780E-03   0.8060732893E+00  -0.1573787025E+00  -0.1573787025E+00   0.1532357893E-01  -0.1532357893E-01  -0.2874061664E-06   0.5696893219E-05   0.9656476913E+00
   0.2001400000E+01   0.9997305061E+00   0.9997305061E+00   0.1000000000E-03  -0.2186208222E-04  -0.2186208222E-04   0.1300000000E-02  -0.2476317780E-03  -0.2476317780E-03   0.8060732892E+00  -0.1573787025E+00  -0.1573787025E+00  -0.1532357893E-01  -0.1532357893E-01   0.2874078495E-06   0.5696893219E-05   0.9656476913E+00
     1     2     3     4     5     6     7     8
     2     9    10     3     6    11    12     7
 VARIABLES = X,Y,Z,DU1,DU2,DU3,U1,U2,U3,S11,S22,S33,S12,S13,S23,Vf,SMISES
 ZONE, T="0.1500D+00" F=FEPOINT, I=   12 J=    2 ET=BRICK
   0.0000000000E+00   0.1800079518E-05   0.1800079518E-05   0.0000000000E+00   0.3475334840E-05   0.3475334840E-05   0.0000000000E+00  -0.1675255322E-05  -0.1675255322E-05   0.4671866912E+00   0.5544170370E-01   0.5544170370E-01   0.1697075289E-01   0.1697075289E-01   0.3472163043E-06   0.0000000000E+00   0.4180640906E+00
   0.1000530884E+01   0.1437760949E-03   0.1437760949E-03   0.7008750921E-04   0.1003302267E-04   0.1003302267E-04   0.4607969306E-03   0.1337430722E-03   0.1337430722E-03   0.6376533169E+00  -0.7715331714E-01  -0.7715331714E-01   0.1678696980E-01   0.1678696980E-01   0.3436169579E-06   0.2574731900E-05   0.7188314592E+00
   0.1000530884E+01   0.9998562239E+00   0.1437760949E-03   0.7008750920E-04  -0.1003302267E-04   0.1003302267E-04   0.4607969306E-03  -0.1337430722E-03   0.1337430722E-03   0.6376533169E+00  -0.7715331714E-01  -0.7715331713E-01  -0.1678696980E-01   0.1678696979E-01  -0.3436179623E-06   0.2574731900E-05   0.7188314592E+00
   0.0000000000E+00   0.9999981999E+00   0.1800079518E-05   0.0000000000E+00  -0.3475334840E-05   0.3475334840E-05   0.0000000000E+00   0.1675255321E-05  -0.1675255321E-05   0.4671866912E+00   0.5544170370E-01   0.5544170370E-01  -0.1697075289E-01   0.1697075289E-01  -0.3472165288E-06   0.0000000000E+00   0.4180640906E+00
   0.0000000000E+00   0.1800079518E-05   0.9999981999E+00   0.0000000000E+00   0.3475334840E-05  -0.3475334840E-05   0.0000000000E+00  -0.1675255321E-05   0.1675255321E-05   0.4671866912E+00   0.5544170370E-01   0.5544170370E-01   0.1697075289E-01  -0.1697075289E-01  -0.3472165288E-06   0.0000000000E+00   0.4180640906E+00
   0.1000530884E+01   0.1437760949E-03   0.9998562239E+00   0.7008750920E-04   0.1003302267E-04  -0.1003302267E-04   0.4607969306E-03   0.1337430722E-03  -0.1337430722E-03   0.6376533169E+00  -0.7715331713E-01  -0.7715331714E-01   0.1678696979E-01  -0.1678696980E-01  -0.3436179623E-06   0.2574731900E-05   0.7188314592E+00
   0.1000530884E+01   0.9998562239E+00   0.9998562239E+00   0.7008750920E-04  -0.1003302267E-04  -0.1003302267E-04   0.4607969306E-03  -0.1337430722E-03  -0.1337430722E-03   0.6376533169E+00  -0.7715331713E-01  -0.7715331713E-01  -0.1678696980E-01  -0.1678696980E-01   0.3436189666E-06   0.2574731900E-05   0.7188314592E+00
   0.0000000000E+00   0.9999981999E+00   0.9999981999E+00   0.0000000000E+00  -0.3475334840E-05  -0.3475334840E-05   0.0000000000E+00   0.1675255320E-05   0.1675255320E-05   0.4671866912E+00   0.5544170369E-01   0.5544170369E-01  -0.1697075289E-01  -0.1697075289E-01   0.3472167533E-06   0.0000000000E+00   0.4180640906E+00
   0.2001500000E+01   0.2865744314E-03   0.2865744314E-03   0.1000000000E-03   0.1708057119E-04   0.1708057119E-04   0.1400000000E-02   0.2694938602E-03   0.2694938602E-03   0.7896878859E+00  -0.2005323844E+00  -0.2005323844E+00   0.1618824657E-01   0.1618824657E-01   0.3308730688E-06   0.1114873079E-04   0.9926046408E+00
   0.2001500000E+01   0.9997134256E+00   0.2865744314E-03   0.1000000000E-03  -0.1708057119E-04   0.1708057119E-04   0.1400000000E-02  -0.2694938602E-03   0.2694938602E-03   0.7896878859E+00  -0.2005323844E+00  -0.2005323844E+00  -0.1618824657E-01   0.1618824657E-01  -0.3308747991E-06   0.1114873079E-04   0.9926046408E+00
   0.2001500000E+01   0.2865744314E-03   0.9997134256E+00   0.1000000000E-03   0.1708057119E-04  -0.1708057119E-04   0.1400000000E-02   0.2694938602E-03  -0.2694938602E-03   0.7896878859E+00  -0.2005323844E+00  -0.2005323844E+00   0.1618824657E-01  -0.1618824657E-01  -0.3308747991E-06   0.1114873079E-04   0.9926046408E+00
   0.2001500000E+01   0.9997134256E+00   0.9997134256E+00   0.1000000000E-03  -0.1708057119E-04  -0.1708057119E-04   0.1400000000E-02  -0.2694938602E-03  -0.2694938602E-03   0.7896878859E+00  -0.2005323844E+00  -0.2005323844E+00  -0.1618824657E-01  -0.1618824657E-01   0.3308765293E-06   0.1114873079E-04   0.9926046407E+00
     1     2     3     4     5     6     7     8
     2     9    10     3     6    11    12     7
 VARIABLES = X,Y,Z,DU1,DU2,DU3,U1,U2,U3,S11,S22,S33,S12,S13,S23,Vf,SMISES
 ZONE, T="0.1600D+00" F=FEPOINT, I=   12 J=    2 ET=BRICK
   0.0000000000E+00   0.7402550664E-05   0.7402550664E-05   0.0000000000E+00   0.5602471146E-05   0.5602471146E-05   0.0000000000E+00   0.1800079518E-05   0.1800079518E-05   0.5501658198E+00   0.7723583779E-01   0.7723583779E-01   0.1779275761E-01   0.1779275761E-01   0.3843035948E-06   0.0000000000E+00   0.4789745050E+00
   0.1000602394E+01   0.1520965852E-03   0.1520965852E-03   0.7150976507E-04   0.8320490311E-05   0.8320490311E-05   0.5308844398E-03   0.1437760949E-03   0.1437760949E-03   0.6755970308E+00  -0.8239891441E-01  -0.8239891441E-01   0.1747362482E-01   0.1747362482E-01   0.3780532405E-06   0.4607088418E-05   0.7619907293E+00
   0.1000602394E+01   0.9998479034E+00   0.1520965852E-03   0.7150976506E-04  -0.8320490310E-05   0.8320490311E-05   0.5308844398E-03  -0.1437760949E-03   0.1437760949E-03   0.6755970308E+00  -0.8239891441E-01  -0.8239891441E-01  -0.1747362483E-01   0.1747362482E-01  -0.3780542476E-06   0.4607088418E-05   0.7619907293E+00
   0.0000000000E+00   0.9999925974E+00   0.7402550664E-05   0.0000000000E+00  -0.5602471146E-05   0.5602471146E-05   0.0000000000E+00  -0.1800079519E-05   0.1800079518E-05   0.5501658198E+00   0.7723583779E-01   0.7723583779E-01  -0.1779275761E-01   0.1779275761E-01  -0.3843038145E-06   0.0000000000E+00   0.4789745049E+00
   0.0000000000E+00   0.7402550664E-05   0.9999925974E+00   0.0000000000E+00   0.5602471146E-05  -0.5602471146E-05   0.0000000000E+00   0.1800079518E-05  -0.1800079519E-05   0.5501658198E+00   0.7723583779E-01   0.7723583779E-01   0.1779275761E-01  -0.1779275761E-01  -0.3843038145E-06   0.0000000000E+00   0.4789745049E+00
   0.1000602394E+01   0.1520965852E-03   0.9998479034E+00   0.7150976506E-04   0.8320490311E-05  -0.8320490310E-05   0.5308844398E-03   0.1437760949E-03  -0.1437760949E-03   0.6755970308E+00  -0.8239891441E-01  -0.8239891441E-01   0.1747362482E-01  -0.1747362483E-01  -0.3780542477E-06   0.4607088418E-05   0.7619907293E+00
   0.1000602394E+01   0.9998479034E+00   0.9998479034E+00   0.7150976506E-04  -0.8320490310E-05  -0.8320490310E-05   0.5308844398E-03  -0.1437760949E-03  -0.1437760949E-03   0.6755970308E+00  -0.8239891440E-01  -0.8239891440E-01  -0.1747362483E-01  -0.1747362483E-01   0.3780552548E-06   0.4607088418E-05   0.7619907292E+00
   0.0000000000E+00   0.9999925974E+00   0.9999925974E+00   0.0000000000E+00  -0.5602471146E-05  -0.5602471146E-05   0.0000000000E+00  -0.1800079520E-05  -0.1800079520E-05   0.5501658197E+00   0.7723583779E-01   0.7723583779E-01  -0.1779275761E-01  -0.1779275761E-01   0.3843040342E-06   0.0000000000E+00   0.4789745049E+00
   0.2001600000E+01   0.2984400526E-03   0.2984400526E-03   0.1000000000E-03   0.1186562118E-04   0.1186562118E-04   0.1500000000E-02   0.2865744314E-03   0.2865744314E-03   0.7753623983E+00  -0.2292009107E+00  -0.2292009107E+00   0.1657818152E-01   0.1657818152E-01   0.3582197829E-06   0.1775398022E-04   0.1007028292E+01
   0.2001600000E+01   0.9997015599E+00   0.2984400526E-03   0.1000000000E-03  -0.1186562118E-04   0.1186562118E-04   0.1500000000E-02  -0.2865744314E-03   0.2865744314E-03   0.7753623983E+00  -0.2292009107E+00  -0.2292009107E+00  -0.1657818152E-01   0.1657818152E-01  -0.3582215010E-06   0.1775398022E-04   0.1007028292E+01
   0.2001600000E+01   0.2984400526E-03   0.9997015599E+00   0.1000000000E-03   0.1186562118E-04  -0.1186562118E-04   0.1500000000E-02   0.2865744314E-03  -0.2865744314E-03   0.7753623983E+00  -0.2292009107E+00  -0.2292009107E+00   0.1657818152E-01  -0.1657818152E-01  -0.3582215010E-06   0.1775398022E-04   0.1007028292E+01
   0.2001600000E+01   0.9997015599E+00   0.9997015599E+00   0.1000000000E-03  -0.1186562118E-04  -0.1186562118E-04   0.1500000000E-02  -0.2865744314E-03  -0.2865744314E-03   0.7753623982E+00  -0.2292009107E+00  -0.2292009107E+00  -0.1657818152E-01  -0.1657818152E-01   0.3582232191E-06   0.1775398022E-04   0.1007028292E+01
     1     2     3     4     5     6     7     8
     2     9    10     3     6    11    12     7
 VARIABLES = X,Y,Z,DU1,DU2,DU3,U1,U2,U3,S11,S22,S33,S12,S13,S23,Vf,SMISES
 ZONE, T="0.1700D+00" F=FEPOINT, I=   12 J=    2 ET=BRICK
   0.0000000000E+00   0.1556403568E-04   0.1556403568E-04   0.0000000000E+00   0.8161485013E-05   0.8161485013E-05   0.0000000000E+00   0.7402550664E-05   0.7402550664E-05   0.6352795093E+00   0.9882510586E-01   0.9882510586E-01   0.1813361658E-01   0.1813361658E-01   0.4004259821E-06   0.0000000000E+00   0.5419864847E+00
   0.1000674439E+01   0.1588307091E-03   0.1588307091E-03   0.7204439224E-04   0.6734123859E-05   0.6734123859E-05   0.6023942049E-03   0.1520965852E-03   0.1520965852E-03   0.7170482353E+00  -0.7982166810E-01  -0.7982166810E-01   0.1766944408E-01   0.1766944408E-01   0.3918629701E-06   0.7047119453E-05   0.8006631985E+00
   0.1000674439E+01   0.9998411693E+00   0.1588307091E-03   0.7204439224E-04  -0.6734123858E-05   0.6734123859E-05   0.6023942049E-03  -0.1520965852E-03   0.1520965852E-03   0.7170482353E+00  -0.7982166810E-01  -0.7982166810E-01  -0.1766944408E-01   0.1766944408E-01  -0.3918639493E-06   0.7047119453E-05   0.8006631984E+00
   0.0000000000E+00   0.9999844360E+00   0.1556403568E-04   0.0000000000E+00  -0.8161485013E-05   0.8161485013E-05   0.0000000000E+00  -0.7402550665E-05   0.7402550664E-05   0.6352795092E+00   0.9882510586E-01   0.9882510586E-01  -0.1813361658E-01   0.1813361658E-01  -0.4004261947E-06   0.0000000000E+00   0.5419864847E+00
   0.0000000000E+00   0.1556403568E-04   0.9999844360E+00   0.0000000000E+00   0.8161485013E-05  -0.8161485013E-05   0.0000000000E+00   0.7402550664E-05  -0.7402550665E-05   0.6352795092E+00   0.9882510586E-01   0.9882510586E-01   0.1813361658E-01  -0.1813361658E-01  -0.4004261947E-06   0.0000000000E+00   0.5419864847E+00
   0.1000674439E+01   0.1588307091E-03   0.9998411693E+00   0.7204439224E-04   0.6734123859E-05  -0.6734123858E-05   0.6023942049E-03   0.1520965852E-03  -0.1520965852E-03   0.7170482353E+00  -0.7982166810E-01  -0.7982166810E-01   0.1766944408E-01  -0.1766944408E-01  -0.3918639493E-06   0.7047119453E-05   0.8006631984E+00
   0.1000674439E+01   0.9998411693E+00   0.9998411693E+00   0.7204439224E-04  -0.6734123858E-05  -0.6734123858E-05   0.6023942048E-03  -0.1520965852E-03  -0.1520965852E-03   0.7170482352E+00  -0.7982166809E-01  -0.7982166809E-01  -0.1766944408E-01  -0.1766944408E-01   0.3918649285E-06   0.7047119453E-05   0.8006631984E+00
   0.0000000000E+00   0.9999844360E+00   0.9999844360E+00   0.0000000000E+00  -0.8161485013E-05  -0.8161485013E-05   0.0000000000E+00  -0.7402550666E-05  -0.7402550666E-05   0.6352795092E+00   0.9882510586E-01   0.9882510586E-01  -0.1813361658E-01  -0.1813361658E-01   0.4004264073E-06   0.0000000000E+00   0.5419864847E+00
   0.2001700000E+01   0.3049778549E-03   0.3049778549E-03   0.1000000000E-03   0.6537802311E-05   0.6537802311E-05   0.1600000000E-02   0.2984400526E-03   0.2984400526E-03   0.7672458313E+00  -0.2426831641E+00  -0.2426831641E+00   0.1650308653E-01   0.1650308653E-01   0.3662760104E-06   0.2478046377E-04   0.1012358765E+01
   0.2001700000E+01   0.9996950221E+00   0.3049778549E-03   0.1000000000E-03  -0.6537802310E-05   0.6537802311E-05   0.1600000000E-02  -0.2984400526E-03   0.2984400526E-03   0.7672458312E+00  -0.2426831641E+00  -0.2426831641E+00  -0.1650308653E-01   0.1650308653E-01  -0.3662776614E-06   0.2478046377E-04   0.1012358765E+01
   0.2001700000E+01   0.3049778549E-03   0.9996950221E+00   0.1000000000E-03   0.6537802311E-05  -0.6537802310E-05   0.1600000000E-02   0.2984400526E-03  -0.2984400526E-03   0.7672458312E+00  -0.2426831641E+00  -0.2426831641E+00   0.1650308653E-01  -0.1650308653E-01  -0.3662776614E-06   0.2478046377E-04   0.1012358765E+01
   0.2001700000E+01   0.9996950221E+00   0.9996950221E+00   0.1000000000E-03  -0.6537802310E-05  -0.6537802310E-05   0.1600000000E-02  -0.2984400526E-03  -0.2984400526E-03   0.7672458312E+00  -0.2426831641E+00  -0.2426831641E+00  -0.1650308653E-01  -0.1650308653E-01   0.3662793123E-06   0.2478046377E-04   0.1012358765E+01
     1     2     3     4     5     6     7     8
     2     9    10     3     6    11    12     7
 VARIABLES = X,Y,Z,DU1,DU2,DU3,U1,U2,U3,S11,S22,S33,S12,S13,S23,Vf,SMISES
 ZONE, T="0.1800D+00" F=FEPOINT, I=   12 J=    2 ET=BRICK
   0.0000000000E+00   0.2664431804E-04   0.2664431804E-04   0.0000000000E+00   0.1108028237E-04   0.1108028237E-04   0.0000000000E+00   0.1556403568E-04   0.1556403568E-04   0.7204494586E+00   0.1183020406E+00   0.1183020406E+00   0.1795501325E-01   0.1795501325E-01   0.3918171545E-06   0.0000000000E+00   0.6069768772E+00
   0.1000746249E+01   0.1642341717E-03   0.1642341717E-03   0.7181059324E-04   0.5403462623E-05   0.5403462623E-05   0.6744385971E-03   0.1588307091E-03   0.1588307091E-03   0.7621806256E+00  -0.7034863421E-01  -0.7034863421E-01   0.1736084562E-01   0.1736084562E-01   0.3823963667E-06   0.9695660130E-05   0.8359659467E+00
   0.1000746249E+01   0.9998357658E+00   0.1642341717E-03   0.7181059324E-04  -0.5403462623E-05   0.5403462623E-05   0.6744385971E-03  -0.1588307091E-03   0.1588307091E-03   0.7621806256E+00  -0.7034863421E-01  -0.7034863421E-01  -0.1736084563E-01   0.1736084562E-01  -0.3823972903E-06   0.9695660130E-05   0.8359659467E+00
   0.0000000000E+00   0.9999733557E+00   0.2664431805E-04   0.0000000000E+00  -0.1108028237E-04   0.1108028237E-04   0.0000000000E+00  -0.1556403568E-04   0.1556403568E-04   0.7204494585E+00   0.1183020406E+00   0.1183020406E+00  -0.1795501325E-01   0.1795501324E-01  -0.3918173604E-06   0.0000000000E+00   0.6069768772E+00
   0.0000000000E+00   0.2664431805E-04   0.9999733557E+00   0.0000000000E+00   0.1108028237E-04  -0.1108028237E-04   0.0000000000E+00   0.1556403568E-04  -0.1556403568E-04   0.7204494585E+00   0.1183020406E+00   0.1183020406E+00   0.1795501324E-01  -0.1795501325E-01  -0.3918173605E-06   0.0000000000E+00   0.6069768772E+00
   0.1000746249E+01   0.1642341717E-03   0.9998357658E+00   0.7181059324E-04   0.5403462623E-05  -0.5403462623E-05   0.6744385971E-03   0.1588307091E-03  -0.1588307091E-03   0.7621806256E+00  -0.7034863421E-01  -0.7034863421E-01   0.1736084562E-01  -0.1736084563E-01  -0.3823972904E-06   0.9695660130E-05   0.8359659467E+00
   0.1000746249E+01   0.9998357658E+00   0.9998357658E+00   0.7181059324E-04  -0.5403462623E-05  -0.5403462623E-05   0.6744385971E-03  -0.1588307091E-03  -0.1588307091E-03   0.7621806255E+00  -0.7034863420E-01  -0.7034863420E-01  -0.1736084563E-01  -0.1736084563E-01   0.3823982140E-06   0.9695660130E-05   0.8359659466E+00
   0.0000000000E+00   0.9999733557E+00   0.9999733557E+00   0.0000000000E+00  -0.1108028237E-04  -0.1108028237E-04   0.0000000000E+00  -0.1556403568E-04  -0.1556403568E-04   0.7204494585E+00   0.1183020405E+00   0.1183020405E+00  -0.1795501325E-01  -0.1795501325E-01   0.3918175664E-06   0.0000000000E+00   0.6069768771E+00
   0.2001800000E+01   0.3063833379E-03   0.3063833379E-03   0.1000000000E-03   0.1405483041E-05   0.1405483041E-05   0.1700000000E-02   0.3049778549E-03   0.3049778549E-03   0.7681848497E+00  -0.2411362731E+00  -0.2411362731E+00   0.1598266595E-01   0.1598266595E-01   0.3542183094E-06   0.3166952739E-04   0.1011601511E+01
   0.2001800000E+01   0.9996936167E+00   0.3063833379E-03   0.1000000000E-03  -0.1405483040E-05   0.1405483041E-05   0.1700000000E-02  -0.3049778549E-03   0.3049778549E-03   0.7681848497E+00  -0.2411362731E+00  -0.2411362731E+00  -0.1598266595E-01   0.1598266595E-01  -0.3542198438E-06   0.3166952739E-04   0.1011601511E+01
   0.2001800000E+01   0.3063833379E-03   0.9996936167E+00   0.1000000000E-03   0.1405483041E-05  -0.1405483040E-05   0.1700000000E-02   0.3049778549E-03  -0.3049778549E-03   0.7681848497E+00  -0.2411362731E+00  -0.2411362731E+00   0.1598266595E-01  -0.1598266595E-01  -0.3542198438E-06   0.3166952739E-04   0.1011601511E+01
   0.2001800000E+01   0.9996936167E+00   0.9996936167E+00   0.1000000000E-03  -0.1405483041E-05  -0.1405483041E-05   0.1700000000E-02  -0.3049778549E-03  -0.3049778549E-03   0.7681848496E+00  -0.2411362731E+00  -0.2411362731E+00  -0.1598266595E-01  -0.1598266595E-01   0.3542213782E-06   0.3166952739E-04   0.1011601511E+01
     1     2     3     4     5     6     7     8
     2     9    10     3     6    11    12     7
 VARIABLES = X,Y,Z,DU1,DU2,DU3,U1,U2,U3,S11,S22,S33,S12,S13,S23,Vf,SMISES
 ZONE, T="0.1900D+00" F=FEPOINT, I=   12 J=    2 ET=BRICK
   0.0000000000E+00   0.4089222319E-04   0.4089222319E-04   0.0000000000E+00   0.1424790515E-04   0.1424790515E-04   0.0000000000E+00   0.2664431804E-04   0.2664431804E-04   0.8036566696E+00   0.1337360464E+00   0.1337360464E+00   0.1724389145E-01   0.1724389145E-01   0.3578814582E-06   0.0000000000E+00   0.6739224732E+00
   0.1000817204E+01   0.1686596532E-03   0.1686596532E-03   0.7095506017E-04   0.4425481503E-05   0.4425481503E-05   0.7462491904E-03   0.1642341717E-03   0.1642341717E-03   0.8106654752E+00  -0.5538449840E-01  -0.5538449840E-01   0.1655462005E-01   0.1655462005E-01   0.3499566013E-06   0.1239858960E-04   0.8690065790E+00
   0.1000817204E+01   0.9998313403E+00   0.1686596532E-03   0.7095506017E-04  -0.4425481503E-05   0.4425481504E-05   0.7462491903E-03  -0.1642341717E-03   0.1642341717E-03   0.8106654751E+00  -0.5538449840E-01  -0.5538449839E-01  -0.1655462005E-01   0.1655462004E-01  -0.3499574459E-06   0.1239858960E-04   0.8690065790E+00
   0.0000000000E+00   0.9999591078E+00   0.4089222319E-04   0.0000000000E+00  -0.1424790515E-04   0.1424790514E-04   0.0000000000E+00  -0.2664431805E-04   0.2664431805E-04   0.8036566695E+00   0.1337360464E+00   0.1337360464E+00  -0.1724389145E-01   0.1724389145E-01  -0.3578816608E-06   0.0000000000E+00   0.6739224732E+00
   0.0000000000E+00   0.4089222319E-04   0.9999591078E+00   0.0000000000E+00   0.1424790514E-04  -0.1424790515E-04   0.0000000000E+00   0.2664431805E-04  -0.2664431805E-04   0.8036566695E+00   0.1337360464E+00   0.1337360464E+00   0.1724389145E-01  -0.1724389145E-01  -0.3578816608E-06   0.0000000000E+00   0.6739224732E+00
   0.1000817204E+01   0.1686596532E-03   0.9998313403E+00   0.7095506017E-04   0.4425481504E-05  -0.4425481503E-05   0.7462491903E-03   0.1642341717E-03  -0.1642341717E-03   0.8106654751E+00  -0.5538449839E-01  -0.5538449840E-01   0.1655462004E-01  -0.1655462005E-01  -0.3499574459E-06   0.1239858960E-04   0.8690065790E+00
   0.1000817204E+01   0.9998313403E+00   0.9998313403E+00   0.7095506017E-04  -0.4425481503E-05  -0.4425481503E-05   0.7462491903E-03  -0.1642341717E-03  -0.1642341717E-03   0.8106654751E+00  -0.5538449839E-01  -0.5538449839E-01  -0.1655462005E-01  -0.1655462005E-01   0.3499582905E-06   0.1239858960E-04   0.8690065789E+00
   0.0000000000E+00   0.9999591078E+00   0.9999591078E+00   0.0000000000E+00  -0.1424790515E-04  -0.1424790515E-04   0.0000000000E+00  -0.2664431805E-04  -0.2664431805E-04   0.8036566695E+00   0.1337360464E+00   0.1337360464E+00  -0.1724389145E-01  -0.1724389145E-01   0.3578818634E-06   0.0000000000E+00   0.6739224732E+00
   0.2001900000E+01   0.3031341826E-03   0.3031341826E-03   0.1000000000E-03  -0.3249155376E-05  -0.3249155376E-05   0.1800000000E-02   0.3063833379E-03   0.3063833379E-03   0.7795929001E+00  -0.2254649662E+00  -0.2254649662E+00   0.1504131494E-01   0.1504131494E-01   0.3234783995E-06   0.3809156884E-04   0.1007086255E+01
   0.2001900000E+01   0.9996968658E+00   0.3031341826E-03   0.1000000000E-03   0.3249155377E-05  -0.3249155375E-05   0.1800000000E-02  -0.3063833379E-03   0.3063833379E-03   0.7795929001E+00  -0.2254649662E+00  -0.2254649662E+00  -0.1504131494E-01   0.1504131494E-01  -0.3234797740E-06   0.3809156884E-04   0.1007086255E+01
   0.2001900000E+01   0.3031341826E-03   0.9996968658E+00   0.1000000000E-03  -0.3249155375E-05   0.3249155377E-05   0.1800000000E-02   0.3063833379E-03  -0.3063833379E-03   0.7795929001E+00  -0.2254649662E+00  -0.2254649662E+00   0.1504131494E-01  -0.1504131494E-01  -0.3234797740E-06   0.3809156884E-04   0.1007086255E+01
   0.2001900000E+01   0.9996968658E+00   0.9996968658E+00   0.1000000000E-03   0.3249155376E-05   0.3249155376E-05   0.1800000000E-02  -0.3063833379E-03  -0.3063833379E-03   0.7795929001E+00  -0.2254649662E+00  -0.2254649662E+00  -0.1504131494E-01  -0.1504131494E-01   0.3234811485E-06   0.3809156884E-04   0.1007086255E+01
     1     2     3     4     5     6     7     8
     2     9    10     3     6    11    12     7
 VARIABLES = X,Y,Z,DU1,DU2,DU3,U1,U2,U3,S11,S22,S33,S12,S13,S23,Vf,SMISES
 ZONE, T="0.2000D+00" F=FEPOINT, I=   12 J=    2 ET=BRICK
   0.0000000000E+00   0.5841250152E-04   0.5841250152E-04   0.0000000000E+00   0.1752027834E-04   0.1752027834E-04   0.0000000000E+00   0.4089222319E-04   0.4089222319E-04   0.8830600745E+00   0.1433645129E+00   0.1433645129E+00   0.1601250969E-01   0.1601250969E-01   0.3014713548E-06   0.6756822612E-08   0.7428193300E+00
   0.1000886842E+01   0.1725202492E-03   0.1725202492E-03   0.6963771856E-04   0.3860596019E-05   0.3860596019E-05   0.8172042505E-03   0.1686596532E-03   0.1686596532E-03   0.8616731729E+00  -0.3662086684E-01  -0.3662086684E-01   0.1527512756E-01   0.1527512756E-01   0.2977838307E-06   0.1507841972E-04   0.9006908337E+00
   0.1000886842E+01   0.9998274798E+00   0.1725202492E-03   0.6963771856E-04  -0.3860596019E-05   0.3860596020E-05   0.8172042505E-03  -0.1686596532E-03   0.1686596532E-03   0.8616731729E+00  -0.3662086683E-01  -0.3662086683E-01  -0.1527512757E-01   0.1527512756E-01  -0.2977845778E-06   0.1507841972E-04   0.9006908337E+00
   0.0000000000E+00   0.9999415875E+00   0.5841250152E-04   0.0000000000E+00  -0.1752027834E-04   0.1752027833E-04   0.0000000000E+00  -0.4089222319E-04   0.4089222319E-04   0.8830600745E+00   0.1433645129E+00   0.1433645129E+00  -0.1601250969E-01   0.1601250969E-01  -0.3014715598E-06   0.6756822609E-08   0.7428193300E+00
   0.0000000000E+00   0.5841250152E-04   0.9999415875E+00   0.0000000000E+00   0.1752027833E-04  -0.1752027834E-04   0.0000000000E+00   0.4089222319E-04  -0.4089222319E-04   0.8830600745E+00   0.1433645129E+00   0.1433645129E+00   0.1601250969E-01  -0.1601250969E-01  -0.3014715598E-06   0.6756822609E-08   0.7428193300E+00
   0.1000886842E+01   0.1725202492E-03   0.9998274798E+00   0.6963771856E-04   0.3860596020E-05  -0.3860596019E-05   0.8172042505E-03   0.1686596532E-03  -0.1686596532E-03   0.8616731729E+00  -0.3662086683E-01  -0.3662086683E-01   0.1527512756E-01  -0.1527512757E-01  -0.2977845778E-06   0.1507841972E-04   0.9006908337E+00
   0.1000886842E+01   0.9998274798E+00   0.9998274798E+00   0.6963771855E-04  -0.3860596020E-05  -0.3860596020E-05   0.8172042505E-03  -0.1686596532E-03  -0.1686596532E-03   0.8616731728E+00  -0.3662086683E-01  -0.3662086683E-01  -0.1527512756E-01  -0.1527512756E-01   0.2977853248E-06   0.1507841972E-04   0.9006908336E+00
   0.0000000000E+00   0.9999415875E+00   0.9999415875E+00   0.0000000000E+00  -0.1752027834E-04  -0.1752027834E-04   0.0000000000E+00  -0.4089222319E-04  -0.4089222319E-04   0.8830600744E+00   0.1433645129E+00   0.1433645129E+00  -0.1601250969E-01  -0.1601250969E-01   0.3014717648E-06   0.6756822605E-08   0.7428193299E+00
   0.2002000000E+01   0.2959506270E-03   0.2959506270E-03   0.1000000000E-03  -0.7183555525E-05  -0.7183555525E-05   0.1900000000E-02   0.3031341826E-03   0.3031341826E-03   0.8016014032E+00  -0.1972646305E+00  -0.1972646305E+00   0.1371003570E-01   0.1371003570E-01   0.2775654088E-06   0.4391075088E-04   0.1000561938E+01
   0.2002000000E+01   0.9997040494E+00   0.2959506270E-03   0.1000000000E-03   0.7183555525E-05  -0.7183555524E-05   0.1900000000E-02  -0.3031341825E-03   0.3031341826E-03   0.8016014032E+00  -0.1972646305E+00  -0.1972646305E+00  -0.1371003570E-01   0.1371003570E-01  -0.2775665869E-06   0.4391075087E-04   0.1000561938E+01
   0.2002000000E+01   0.2959506270E-03   0.9997040494E+00   0.1000000000E-03  -0.7183555524E-05   0.7183555525E-05   0.1900000000E-02   0.3031341826E-03  -0.3031341825E-03   0.8016014032E+00  -0.1972646305E+00  -0.1972646305E+00   0.1371003570E-01  -0.1371003570E-01  -0.2775665869E-06   0.4391075087E-04   0.1000561938E+01
   0.2002000000E+01   0.9997040494E+00   0.9997040494E+00   0.1000000000E-03   0.7183555524E-05   0.7183555524E-05   0.1900000000E-02  -0.3031341825E-03  -0.3031341825E-03   0.8016014031E+00  -0.1972646305E+00  -0.1972646305E+00  -0.1371003570E-01  -0.1371003570E-01   0.2775677650E-06   0.4391075087E-04   0.1000561938E+01
     1     2     3     4     5     6     7     8
     2     9    10     3     6    11    12     7
 VARIABLES = X,Y,Z,DU1,DU2,DU3,U1,U2,U3,S11,S22,S33,S12,S13,S23,Vf,SMISES
 ZONE, T="0.2100D+00" F=FEPOINT, I=   12 J=    2 ET=BRICK
   0.0000000000E+00   0.7914571032E-04   0.7914571032E-04   0.0000000000E+00   0.2073320879E-04   0.2073320879E-04   0.0000000000E+00   0.5841250152E-04   0.5841250152E-04   0.9568002393E+00   0.1459152626E+00   0.1459152626E+00   0.1429083582E-01   0.1429083582E-01   0.2284838483E-06   0.1268413108E-06   0.8131537546E+00
   0.1000954872E+01   0.1762607268E-03   0.1762607268E-03   0.6802998046E-04   0.3740477549E-05   0.3740477549E-05   0.8868419691E-03   0.1725202492E-03   0.1725202492E-03   0.9134078482E+00  -0.1558899923E-01  -0.1558899923E-01   0.1355095749E-01   0.1355095749E-01   0.2314620092E-06   0.1790146604E-04   0.9308036394E+00
   0.1000954872E+01   0.9998237393E+00   0.1762607268E-03   0.6802998046E-04  -0.3740477549E-05   0.3740477550E-05   0.8868419691E-03  -0.1725202492E-03   0.1725202492E-03   0.9134078481E+00  -0.1558899923E-01  -0.1558899922E-01  -0.1355095750E-01   0.1355095749E-01  -0.2314626446E-06   0.1790146604E-04   0.9308036393E+00
   0.0000000000E+00   0.9999208543E+00   0.7914571032E-04   0.0000000000E+00  -0.2073320879E-04   0.2073320879E-04   0.0000000000E+00  -0.5841250153E-04   0.5841250152E-04   0.9568002393E+00   0.1459152626E+00   0.1459152626E+00  -0.1429083582E-01   0.1429083582E-01  -0.2284840632E-06   0.1268413107E-06   0.8131537546E+00
   0.0000000000E+00   0.7914571032E-04   0.9999208543E+00   0.0000000000E+00   0.2073320879E-04  -0.2073320879E-04   0.0000000000E+00   0.5841250152E-04  -0.5841250153E-04   0.9568002393E+00   0.1459152626E+00   0.1459152626E+00   0.1429083582E-01  -0.1429083582E-01  -0.2284840632E-06   0.1268413107E-06   0.8131537546E+00
   0.1000954872E+01   0.1762607268E-03   0.9998237393E+00   0.6802998046E-04   0.3740477550E-05  -0.3740477549E-05   0.8868419691E-03   0.1725202492E-03  -0.1725202492E-03   0.9134078481E+00  -0.1558899922E-01  -0.1558899923E-01   0.1355095749E-01  -0.1355095750E-01  -0.2314626446E-06   0.1790146604E-04   0.9308036393E+00
   0.1000954872E+01   0.9998237393E+00   0.9998237393E+00   0.6802998046E-04  -0.3740477550E-05  -0.3740477550E-05   0.8868419690E-03  -0.1725202492E-03  -0.1725202492E-03   0.9134078481E+00  -0.1558899922E-01  -0.1558899922E-01  -0.1355095750E-01  -0.1355095750E-01   0.2314632800E-06   0.1790146604E-04   0.9308036393E+00
   0.0000000000E+00   0.9999208543E+00   0.9999208543E+00   0.0000000000E+00  -0.2073320879E-04  -0.2073320879E-04   0.0000000000E+00  -0.5841250153E-04  -0.5841250153E-04   0.9568002393E+00   0.1459152626E+00   0.1459152626E+00  -0.1429083582E-01  -0.1429083582E-01   0.2284842781E-06   0.1268413107E-06   0.8131537546E+00
   0.2002100000E+01   0.2857441960E-03   0.2857441960E-03   0.1000000000E-03  -0.1020643101E-04  -0.1020643101E-04   0.2000000000E-02   0.2959506270E-03   0.2959506270E-03   0.8333075974E+00  -0.1587403671E+00  -0.1587403671E+00   0.1203032428E-01   0.1203032428E-01   0.2217063204E-06   0.4912734964E-04   0.9933630854E+00
   0.2002100000E+01   0.9997142558E+00   0.2857441960E-03   0.1000000000E-03   0.1020643101E-04  -0.1020643101E-04   0.2000000000E-02  -0.2959506270E-03   0.2959506270E-03   0.8333075973E+00  -0.1587403671E+00  -0.1587403671E+00  -0.1203032428E-01   0.1203032428E-01  -0.2217072731E-06   0.4912734963E-04   0.9933630854E+00
   0.2002100000E+01   0.2857441960E-03   0.9997142558E+00   0.1000000000E-03  -0.1020643101E-04   0.1020643101E-04   0.2000000000E-02   0.2959506270E-03  -0.2959506270E-03   0.8333075973E+00  -0.1587403671E+00  -0.1587403671E+00   0.1203032428E-01  -0.1203032428E-01  -0.2217072732E-06   0.4912734963E-04   0.9933630854E+00
   0.2002100000E+01   0.9997142558E+00   0.9997142558E+00   0.1000000000E-03   0.1020643101E-04   0.1020643101E-04   0.2000000000E-02  -0.2959506270E-03  -0.2959506270E-03   0.8333075973E+00  -0.1587403671E+00  -0.1587403671E+00  -0.1203032428E-01  -0.1203032428E-01   0.2217082259E-06   0.4912734963E-04   0.9933630853E+00
     1     2     3     4     5     6     7     8
     2     9    10     3     6    11    12     7
 VARIABLES = X,Y,Z,DU1,DU2,DU3,U1,U2,U3,S11,S22,S33,S12,S13,S23,Vf,SMISES
 ZONE, T="0.2200D+00" F=FEPOINT, I=   12 J=    2 ET=BRICK
   0.0000000000E+00   0.1028717510E-03   0.1028717510E-03   0.0000000000E+00   0.2372604068E-04   0.2372604068E-04   0.0000000000E+00   0.7914571032E-04   0.7914571032E-04   0.1022425759E+01   0.1410538494E+00   0.1410538494E+00   0.1211810571E-01   0.1211810571E-01   0.1471064259E-06   0.7717453263E-06   0.8828723211E+00
   0.1001021186E+01   0.1803340839E-03   0.1803340839E-03   0.6631428144E-04   0.4073357096E-05   0.4073357096E-05   0.9548719496E-03   0.1762607268E-03   0.1762607268E-03   0.9633411682E+00   0.6412908314E-02   0.6412908314E-02   0.1142888236E-01   0.1142888236E-01   0.1586051109E-06   0.2127285452E-04   0.9581675508E+00
   0.1001021186E+01   0.9998196659E+00   0.1803340839E-03   0.6631428144E-04  -0.4073357096E-05   0.4073357096E-05   0.9548719495E-03  -0.1762607268E-03   0.1762607268E-03   0.9633411682E+00   0.6412908314E-02   0.6412908315E-02  -0.1142888237E-01   0.1142888236E-01  -0.1586056255E-06   0.2127285452E-04   0.9581675507E+00
   0.0000000000E+00   0.9998971282E+00   0.1028717510E-03   0.0000000000E+00  -0.2372604068E-04   0.2372604067E-04   0.0000000000E+00  -0.7914571032E-04   0.7914571032E-04   0.1022425759E+01   0.1410538494E+00   0.1410538494E+00  -0.1211810571E-01   0.1211810571E-01  -0.1471066587E-06   0.7717453261E-06   0.8828723211E+00
   0.0000000000E+00   0.1028717510E-03   0.9998971282E+00   0.0000000000E+00   0.2372604067E-04  -0.2372604068E-04   0.0000000000E+00   0.7914571032E-04  -0.7914571032E-04   0.1022425759E+01   0.1410538494E+00   0.1410538494E+00   0.1211810571E-01  -0.1211810571E-01  -0.1471066587E-06   0.7717453261E-06   0.8828723211E+00
   0.1001021186E+01   0.1803340839E-03   0.9998196659E+00   0.6631428144E-04   0.4073357096E-05  -0.4073357096E-05   0.9548719495E-03   0.1762607268E-03  -0.1762607268E-03   0.9633411682E+00   0.6412908315E-02   0.6412908314E-02   0.1142888236E-01  -0.1142888237E-01  -0.1586056255E-06   0.2127285452E-04   0.9581675507E+00
   0.1001021186E+01   0.9998196659E+00   0.9998196659E+00   0.6631428144E-04  -0.4073357096E-05  -0.4073357096E-05   0.9548719495E-03  -0.1762607268E-03  -0.1762607268E-03   0.9633411682E+00   0.6412908315E-02   0.6412908315E-02  -0.1142888236E-01  -0.1142888236E-01   0.1586061401E-06   0.2127285451E-04   0.9581675507E+00
   0.0000000000E+00   0.9998971282E+00   0.9998971282E+00   0.0000000000E+00  -0.2372604067E-04  -0.2372604067E-04   0.0000000000E+00  -0.7914571032E-04  -0.7914571032E-04   0.1022425759E+01   0.1410538494E+00   0.1410538494E+00  -0.1211810571E-01  -0.1211810571E-01   0.1471068915E-06   0.7717453260E-06   0.8828723210E+00
   0.2002200000E+01   0.2735570025E-03   0.2735570025E-03   0.1000000000E-03  -0.1218719357E-04  -0.1218719357E-04   0.2100000000E-02   0.2857441960E-03   0.2857441960E-03   0.8730095665E+00  -0.1126057618E+00  -0.1126057618E+00   0.1005621265E-01   0.1005621265E-01   0.1622007943E-06   0.5382616572E-04   0.9865407010E+00
   0.2002200000E+01   0.9997264430E+00   0.2735570025E-03   0.1000000000E-03   0.1218719357E-04  -0.1218719357E-04   0.2100000000E-02  -0.2857441960E-03   0.2857441960E-03   0.8730095664E+00  -0.1126057618E+00  -0.1126057618E+00  -0.1005621265E-01   0.1005621265E-01  -0.1622015011E-06   0.5382616572E-04   0.9865407010E+00
   0.2002200000E+01   0.2735570025E-03   0.9997264430E+00   0.1000000000E-03  -0.1218719357E-04   0.1218719357E-04   0.2100000000E-02   0.2857441960E-03  -0.2857441960E-03   0.8730095664E+00  -0.1126057618E+00  -0.1126057618E+00   0.1005621265E-01  -0.1005621265E-01  -0.1622015011E-06   0.5382616572E-04   0.9865407010E+00
   0.2002200000E+01   0.9997264430E+00   0.9997264430E+00   0.1000000000E-03   0.1218719357E-04   0.1218719357E-04   0.2100000000E-02  -0.2857441960E-03  -0.2857441960E-03   0.8730095664E+00  -0.1126057618E+00  -0.1126057618E+00  -0.1005621265E-01  -0.1005621265E-01   0.1622022080E-06   0.5382616571E-04   0.9865407009E+00
     1     2     3     4     5     6     7     8
     2     9    10     3     6    11    12     7
 VARIABLES = X,Y,Z,DU1,DU2,DU3,U1,U2,U3,S11,S22,S33,S12,S13,S23,Vf,SMISES
 ZONE, T="0.2300D+00" F=FEPOINT, I=   12 J=    2 ET=BRICK
   0.0000000000E+00   0.1292568540E-03   0.1292568540E-03   0.0000000000E+00   0.2638510301E-04   0.2638510301E-04   0.0000000000E+00   0.1028717510E-03   0.1028717510E-03   0.1075444948E+01   0.1301823311E+00   0.1301823311E+00   0.9537937530E-02   0.9537937530E-02   0.6699702323E-07   0.3177541709E-05   0.9461291497E+00
   0.1001085874E+01   0.1851782193E-03   0.1851782193E-03   0.6468824774E-04   0.4844135388E-05   0.4844135388E-05   0.1021186231E-02   0.1803340839E-03   0.1803340839E-03   0.1008805374E+01   0.2817627375E-01   0.2817627375E-01   0.8988774590E-02   0.8988774590E-02   0.8802062394E-07   0.2568738617E-04   0.9813738972E+00
   0.1001085874E+01   0.9998148218E+00   0.1851782193E-03   0.6468824774E-04  -0.4844135388E-05   0.4844135388E-05   0.1021186231E-02  -0.1803340839E-03   0.1803340839E-03   0.1008805374E+01   0.2817627375E-01   0.2817627375E-01  -0.8988774598E-02   0.8988774590E-02  -0.8802101460E-07   0.2568738617E-04   0.9813738972E+00
   0.0000000000E+00   0.9998707431E+00   0.1292568540E-03   0.0000000000E+00  -0.2638510301E-04   0.2638510301E-04   0.0000000000E+00  -0.1028717510E-03   0.1028717510E-03   0.1075444948E+01   0.1301823311E+00   0.1301823311E+00  -0.9537937532E-02   0.9537937529E-02  -0.6699728173E-07   0.3177541709E-05   0.9461291497E+00
   0.0000000000E+00   0.1292568540E-03   0.9998707431E+00   0.0000000000E+00   0.2638510301E-04  -0.2638510301E-04   0.0000000000E+00   0.1028717510E-03  -0.1028717510E-03   0.1075444948E+01   0.1301823311E+00   0.1301823311E+00   0.9537937529E-02  -0.9537937532E-02  -0.6699728173E-07   0.3177541709E-05   0.9461291497E+00
   0.1001085874E+01   0.1851782193E-03   0.9998148218E+00   0.6468824774E-04   0.4844135388E-05  -0.4844135388E-05   0.1021186231E-02   0.1803340839E-03  -0.1803340839E-03   0.1008805374E+01   0.2817627375E-01   0.2817627375E-01   0.8988774590E-02  -0.8988774598E-02  -0.8802101461E-07   0.2568738617E-04   0.9813738972E+00
   0.1001085874E+01   0.9998148218E+00   0.9998148218E+00   0.6468824774E-04  -0.4844135388E-05  -0.4844135388E-05   0.1021186231E-02  -0.1803340839E-03  -0.1803340839E-03   0.1008805374E+01   0.2817627375E-01   0.2817627375E-01  -0.8988774597E-02  -0.8988774597E-02   0.8802140527E-07   0.2568738617E-04   0.9813738971E+00
   0.0000000000E+00   0.9998707431E+00   0.9998707431E+00   0.0000000000E+00  -0.2638510301E-04  -0.2638510301E-04   0.0000000000E+00  -0.1028717510E-03  -0.1028717510E-03   0.1075444948E+01   0.1301823311E+00   0.1301823311E+00  -0.9537937532E-02  -0.9537937532E-02   0.6699754023E-07   0.3177541709E-05   0.9461291496E+00
   0.2002300000E+01   0.2604945332E-03   0.2604945332E-03   0.1000000000E-03  -0.1306246926E-04  -0.1306246926E-04   0.2200000000E-02   0.2735570025E-03   0.2735570025E-03   0.9184105457E+00  -0.6195349316E-01  -0.6195349316E-01   0.7853895024E-02   0.7853895024E-02   0.1055623101E-06   0.5813853944E-04   0.9809320890E+00
   0.2002300000E+01   0.9997395055E+00   0.2604945332E-03   0.1000000000E-03   0.1306246926E-04  -0.1306246926E-04   0.2200000000E-02  -0.2735570024E-03   0.2735570025E-03   0.9184105456E+00  -0.6195349316E-01  -0.6195349315E-01  -0.7853895026E-02   0.7853895024E-02  -0.1055627602E-06   0.5813853944E-04   0.9809320890E+00
   0.2002300000E+01   0.2604945332E-03   0.9997395055E+00   0.1000000000E-03  -0.1306246926E-04   0.1306246926E-04   0.2200000000E-02   0.2735570025E-03  -0.2735570024E-03   0.9184105456E+00  -0.6195349315E-01  -0.6195349316E-01   0.7853895024E-02  -0.7853895026E-02  -0.1055627602E-06   0.5813853944E-04   0.9809320890E+00
   0.2002300000E+01   0.9997395055E+00   0.9997395055E+00   0.1000000000E-03   0.1306246926E-04   0.1306246926E-04   0.2200000000E-02  -0.2735570024E-03  -0.2735570024E-03   0.9184105456E+00  -0.6195349315E-01  -0.6195349315E-01  -0.7853895026E-02  -0.7853895026E-02   0.1055632104E-06   0.5813853944E-04   0.9809320890E+00
     1     2     3     4     5     6     7     8
     2     9    10     3     6    11    12     7
 VARIABLES = X,Y,Z,DU1,DU2,DU3,U1,U2,U3,S11,S22,S33,S12,S13,S23,Vf,SMISES
 ZONE, T="0.2400D+00" F=FEPOINT, I=   12 J=    2 ET=BRICK
   0.0000000000E+00   0.1578961109E-03   0.1578961109E-03   0.0000000000E+00   0.2863925693E-04   0.2863925693E-04   0.0000000000E+00   0.1292568540E-03   0.1292568540E-03   0.1111955696E+01   0.1150768899E+00   0.1150768899E+00   0.6665891566E-02   0.6665891566E-02  -0.1361195422E-08   0.8718936775E-05   0.9972801431E+00
   0.1001149214E+01   0.1911853417E-03   0.1911853417E-03   0.6333985509E-04   0.6007122430E-05   0.6007122430E-05   0.1085874479E-02   0.1851782193E-03   0.1851782193E-03   0.1047742968E+01   0.4830568102E-01   0.4830568102E-01   0.6344998487E-02   0.6344998487E-02   0.2808588737E-07   0.3149173604E-04   0.9998008127E+00
   0.1001149214E+01   0.9998088147E+00   0.1911853417E-03   0.6333985509E-04  -0.6007122429E-05   0.6007122430E-05   0.1085874479E-02  -0.1851782193E-03   0.1851782193E-03   0.1047742968E+01   0.4830568102E-01   0.4830568102E-01  -0.6344998495E-02   0.6344998487E-02  -0.2808615727E-07   0.3149173604E-04   0.9998008127E+00
   0.0000000000E+00   0.9998421039E+00   0.1578961109E-03   0.0000000000E+00  -0.2863925693E-04   0.2863925693E-04   0.0000000000E+00  -0.1292568540E-03   0.1292568540E-03   0.1111955696E+01   0.1150768899E+00   0.1150768899E+00  -0.6665891569E-02   0.6665891566E-02   0.1360904336E-08   0.8718936774E-05   0.9972801431E+00
   0.0000000000E+00   0.1578961109E-03   0.9998421039E+00   0.0000000000E+00   0.2863925693E-04  -0.2863925693E-04   0.0000000000E+00   0.1292568540E-03  -0.1292568540E-03   0.1111955696E+01   0.1150768899E+00   0.1150768899E+00   0.6665891566E-02  -0.6665891569E-02   0.1360904326E-08   0.8718936774E-05   0.9972801431E+00
   0.1001149214E+01   0.1911853417E-03   0.9998088147E+00   0.6333985509E-04   0.6007122430E-05  -0.6007122429E-05   0.1085874479E-02   0.1851782193E-03  -0.1851782193E-03   0.1047742968E+01   0.4830568102E-01   0.4830568102E-01   0.6344998487E-02  -0.6344998495E-02  -0.2808615728E-07   0.3149173604E-04   0.9998008127E+00
   0.1001149214E+01   0.9998088147E+00   0.9998088147E+00   0.6333985509E-04  -0.6007122430E-05  -0.6007122430E-05   0.1085874479E-02  -0.1851782192E-03  -0.1851782192E-03   0.1047742968E+01   0.4830568102E-01   0.4830568102E-01  -0.6344998494E-02  -0.6344998494E-02   0.2808642719E-07   0.3149173604E-04   0.9998008127E+00
   0.0000000000E+00   0.9998421039E+00   0.9998421039E+00   0.0000000000E+00  -0.2863925693E-04  -0.2863925693E-04   0.0000000000E+00  -0.1292568540E-03  -0.1292568540E-03   0.1111955696E+01   0.1150768899E+00   0.1150768899E+00  -0.6665891568E-02  -0.6665891568E-02  -0.1360613236E-08   0.8718936774E-05   0.9972801430E+00
   0.2002400000E+01   0.2476554145E-03   0.2476554145E-03   0.1000000000E-03  -0.1283911867E-04  -0.1283911867E-04   0.2300000000E-02   0.2604945332E-03   0.2604945332E-03   0.9667927565E+00  -0.1009801549E-01  -0.1009801549E-01   0.5499477332E-02   0.5499477332E-02   0.5760855135E-07   0.6221727082E-04   0.9771710715E+00
   0.2002400000E+01   0.9997523446E+00   0.2476554145E-03   0.1000000000E-03   0.1283911867E-04  -0.1283911867E-04   0.2300000000E-02  -0.2604945332E-03   0.2604945332E-03   0.9667927564E+00  -0.1009801549E-01  -0.1009801549E-01  -0.5499477334E-02   0.5499477332E-02  -0.5760874390E-07   0.6221727082E-04   0.9771710715E+00
   0.2002400000E+01   0.2476554145E-03   0.9997523446E+00   0.1000000000E-03  -0.1283911867E-04   0.1283911867E-04   0.2300000000E-02   0.2604945332E-03  -0.2604945332E-03   0.9667927564E+00  -0.1009801549E-01  -0.1009801549E-01   0.5499477332E-02  -0.5499477334E-02  -0.5760874391E-07   0.6221727082E-04   0.9771710715E+00
   0.2002400000E+01   0.9997523446E+00   0.9997523446E+00   0.1000000000E-03   0.1283911867E-04   0.1283911867E-04   0.2300000000E-02  -0.2604945332E-03  -0.2604945332E-03   0.9667927564E+00  -0.1009801549E-01  -0.1009801549E-01  -0.5499477334E-02  -0.5499477334E-02   0.5760893649E-07   0.6221727081E-04   0.9771710714E+00
     1     2     3     4     5     6     7     8
     2     9    10     3     6    11    12     7
 VARIABLES = X,Y,Z,DU1,DU2,DU3,U1,U2,U3,S11,S22,S33,S12,S13,S23,Vf,SMISES
 ZONE, T="0.2500D+00" F=FEPOINT, I=   12 J=    2 ET=BRICK
   0.0000000000E+00   0.1883267738E-03   0.1883267738E-03   0.0000000000E+00   0.3043066287E-04   0.3043066287E-04   0.0000000000E+00   0.1578961109E-03   0.1578961109E-03   0.1131038779E+01   0.9664165369E-01   0.9664165369E-01   0.3680733107E-02   0.3680733107E-02  -0.4957195798E-07   0.1800147730E-04   0.1034515106E+01
   0.1001211628E+01   0.1986669306E-03   0.1986669306E-03   0.6241407995E-04   0.7481588957E-05   0.7481588957E-05   0.1149214334E-02   0.1911853417E-03   0.1911853417E-03   0.1078996750E+01   0.6520462126E-01   0.6520462126E-01   0.3627597857E-02   0.3627597857E-02  -0.1505795021E-07   0.3876934611E-04   0.1013910100E+01
   0.1001211628E+01   0.9998013331E+00   0.1986669306E-03   0.6241407995E-04  -0.7481588957E-05   0.7481588958E-05   0.1149214334E-02  -0.1911853417E-03   0.1911853417E-03   0.1078996749E+01   0.6520462126E-01   0.6520462126E-01  -0.3627597864E-02   0.3627597857E-02   0.1505779176E-07   0.3876934611E-04   0.1013910100E+01
   0.0000000000E+00   0.9998116732E+00   0.1883267738E-03   0.0000000000E+00  -0.3043066287E-04   0.3043066287E-04   0.0000000000E+00  -0.1578961109E-03   0.1578961109E-03   0.1131038779E+01   0.9664165368E-01   0.9664165368E-01  -0.3680733109E-02   0.3680733107E-02   0.4957162847E-07   0.1800147730E-04   0.1034515106E+01
   0.0000000000E+00   0.1883267738E-03   0.9998116732E+00   0.0000000000E+00   0.3043066287E-04  -0.3043066287E-04   0.0000000000E+00   0.1578961109E-03  -0.1578961109E-03   0.1131038779E+01   0.9664165368E-01   0.9664165368E-01   0.3680733107E-02  -0.3680733109E-02   0.4957162845E-07   0.1800147730E-04   0.1034515106E+01
   0.1001211628E+01   0.1986669306E-03   0.9998013331E+00   0.6241407995E-04   0.7481588958E-05  -0.7481588957E-05   0.1149214334E-02   0.1911853417E-03  -0.1911853417E-03   0.1078996749E+01   0.6520462126E-01   0.6520462126E-01   0.3627597857E-02  -0.3627597864E-02   0.1505779175E-07   0.3876934611E-04   0.1013910100E+01
   0.1001211628E+01   0.9998013331E+00   0.9998013331E+00   0.6241407995E-04  -0.7481588957E-05  -0.7481588957E-05   0.1149214334E-02  -0.1911853417E-03  -0.1911853417E-03   0.1078996749E+01   0.6520462126E-01   0.6520462126E-01  -0.3627597864E-02  -0.3627597864E-02  -0.1505763329E-07   0.3876934611E-04   0.1013910100E+01
   0.0000000000E+00   0.9998116732E+00   0.9998116732E+00   0.0000000000E+00  -0.3043066287E-04  -0.3043066287E-04   0.0000000000E+00  -0.1578961109E-03  -0.1578961109E-03   0.1131038779E+01   0.9664165368E-01   0.9664165368E-01  -0.3680733109E-02  -0.3680733109E-02  -0.4957129894E-07   0.1800147730E-04   0.1034515106E+01
   0.2002500000E+01   0.2360629932E-03   0.2360629932E-03   0.1000000000E-03  -0.1159242136E-04  -0.1159242136E-04   0.2400000000E-02   0.2476554145E-03   0.2476554145E-03   0.1015216619E+01   0.3963574971E-01   0.3963574971E-01   0.3076049263E-02   0.3076049263E-02   0.2268388682E-07   0.6622209775E-04   0.9756698030E+00
   0.2002500000E+01   0.9997639370E+00   0.2360629932E-03   0.1000000000E-03   0.1159242137E-04  -0.1159242136E-04   0.2400000000E-02  -0.2476554145E-03   0.2476554145E-03   0.1015216619E+01   0.3963574971E-01   0.3963574971E-01  -0.3076049265E-02   0.3076049263E-02  -0.2268383117E-07   0.6622209774E-04   0.9756698029E+00
   0.2002500000E+01   0.2360629932E-03   0.9997639370E+00   0.1000000000E-03  -0.1159242136E-04   0.1159242137E-04   0.2400000000E-02   0.2476554145E-03  -0.2476554145E-03   0.1015216619E+01   0.3963574971E-01   0.3963574971E-01   0.3076049263E-02  -0.3076049265E-02  -0.2268383118E-07   0.6622209774E-04   0.9756698029E+00
   0.2002500000E+01   0.9997639370E+00   0.9997639370E+00   0.1000000000E-03   0.1159242136E-04   0.1159242136E-04   0.2400000000E-02  -0.2476554145E-03  -0.2476554145E-03   0.1015216619E+01   0.3963574971E-01   0.3963574971E-01  -0.3076049265E-02  -0.3076049265E-02   0.2268377557E-07   0.6622209774E-04   0.9756698029E+00
     1     2     3     4     5     6     7     8
     2     9    10     3     6    11    12     7
 VARIABLES = X,Y,Z,DU1,DU2,DU3,U1,U2,U3,S11,S22,S33,S12,S13,S23,Vf,SMISES
 ZONE, T="0.2600D+00" F=FEPOINT, I=   12 J=    2 ET=BRICK
   0.0000000000E+00   0.2200252001E-03   0.2200252001E-03   0.0000000000E+00   0.3169842627E-04   0.3169842627E-04   0.0000000000E+00   0.1883267738E-03   0.1883267738E-03   0.1134646491E+01   0.7496518135E-01   0.7496518135E-01   0.7639258901E-03   0.7639258901E-03  -0.7378623895E-07   0.3072465245E-04   0.1059686356E+01
   0.1001273623E+01   0.2078232937E-03   0.2078232937E-03   0.6199467865E-04   0.9156363040E-05   0.9156363040E-05   0.1211628414E-02   0.1986669306E-03   0.1986669306E-03   0.1102125043E+01   0.7735209620E-01   0.7735209620E-01   0.9610127310E-03   0.9610127310E-03  -0.3851530765E-07   0.4740735988E-04   0.1024783194E+01
   0.1001273623E+01   0.9997921767E+00   0.2078232937E-03   0.6199467865E-04  -0.9156363039E-05   0.9156363040E-05   0.1211628414E-02  -0.1986669306E-03   0.1986669306E-03   0.1102125043E+01   0.7735209620E-01   0.7735209620E-01  -0.9610127378E-03   0.9610127310E-03   0.3851524641E-07   0.4740735988E-04   0.1024783194E+01
   0.0000000000E+00   0.9997799748E+00   0.2200252001E-03   0.0000000000E+00  -0.3169842627E-04   0.3169842627E-04   0.0000000000E+00  -0.1883267738E-03   0.1883267738E-03   0.1134646491E+01   0.7496518135E-01   0.7496518135E-01  -0.7639258919E-03   0.7639258902E-03   0.7378586644E-07   0.3072465245E-04   0.1059686356E+01
   0.0000000000E+00   0.2200252001E-03   0.9997799748E+00   0.0000000000E+00   0.3169842627E-04  -0.3169842627E-04   0.0000000000E+00   0.1883267738E-03  -0.1883267738E-03   0.1134646491E+01   0.7496518135E-01   0.7496518135E-01   0.7639258902E-03  -0.7639258919E-03   0.7378586643E-07   0.3072465245E-04   0.1059686356E+01
   0.1001273623E+01   0.2078232937E-03   0.9997921767E+00   0.6199467865E-04   0.9156363040E-05  -0.9156363039E-05   0.1211628414E-02   0.1986669306E-03  -0.1986669306E-03   0.1102125043E+01   0.7735209620E-01   0.7735209620E-01   0.9610127310E-03  -0.9610127378E-03   0.3851524640E-07   0.4740735988E-04   0.1024783194E+01
   0.1001273623E+01   0.9997921767E+00   0.9997921767E+00   0.6199467865E-04  -0.9156363040E-05  -0.9156363040E-05   0.1211628414E-02  -0.1986669306E-03  -0.1986669306E-03   0.1102125043E+01   0.7735209620E-01   0.7735209620E-01  -0.9610127378E-03  -0.9610127378E-03  -0.3851518514E-07   0.4740735988E-04   0.1024783194E+01
   0.0000000000E+00   0.9997799748E+00   0.9997799748E+00   0.0000000000E+00  -0.3169842627E-04  -0.3169842627E-04   0.0000000000E+00  -0.1883267738E-03  -0.1883267738E-03   0.1134646491E+01   0.7496518135E-01   0.7496518135E-01  -0.7639258919E-03  -0.7639258919E-03  -0.7378549391E-07   0.3072465244E-04   0.1059686356E+01
   0.2002600000E+01   0.2266042099E-03   0.2266042099E-03   0.1000000000E-03  -0.9458783225E-05  -0.9458783225E-05   0.2500000000E-02   0.2360629932E-03   0.2360629932E-03   0.1060754724E+01   0.8416300513E-01   0.8416300513E-01   0.6704134323E-03   0.6704134323E-03   0.3126744114E-08   0.7031249947E-04   0.9765976213E+00
   0.2002600000E+01   0.9997733958E+00   0.2266042099E-03   0.1000000000E-03   0.9458783226E-05  -0.9458783224E-05   0.2500000000E-02  -0.2360629931E-03   0.2360629932E-03   0.1060754724E+01   0.8416300512E-01   0.8416300512E-01  -0.6704134337E-03   0.6704134322E-03  -0.3126459099E-08   0.7031249947E-04   0.9765976213E+00
   0.2002600000E+01   0.2266042099E-03   0.9997733958E+00   0.1000000000E-03  -0.9458783224E-05   0.9458783226E-05   0.2500000000E-02   0.2360629932E-03  -0.2360629931E-03   0.1060754724E+01   0.8416300512E-01   0.8416300512E-01   0.6704134322E-03  -0.6704134337E-03  -0.3126459106E-08   0.7031249947E-04   0.9765976213E+00
   0.2002600000E+01   0.9997733958E+00   0.9997733958E+00   0.1000000000E-03   0.9458783225E-05   0.9458783225E-05   0.2500000000E-02  -0.2360629931E-03  -0.2360629931E-03   0.1060754724E+01   0.8416300512E-01   0.8416300512E-01  -0.6704134336E-03  -0.6704134336E-03   0.3126174141E-08   0.7031249947E-04   0.9765976212E+00
     1     2     3     4     5     6     7     8
     2     9    10     3     6    11    12     7
 VARIABLES = X,Y,Z,DU1,DU2,DU3,U1,U2,U3,S11,S22,S33,S12,S13,S23,Vf,SMISES
 ZONE, T="0.2700D+00" F=FEPOINT, I=   12 J=    2 ET=BRICK
   0.0000000000E+00   0.2524093212E-03   0.2524093212E-03   0.0000000000E+00   0.3238412116E-04   0.3238412116E-04   0.0000000000E+00   0.2200252001E-03   0.2200252001E-03   0.1126097894E+01   0.5008175346E-01   0.5008175346E-01  -0.1941738657E-02  -0.1941738657E-02  -0.7486430327E-07   0.4615163878E-04   0.1076047805E+01
   0.1001335727E+01   0.2187249282E-03   0.2187249282E-03   0.6210418680E-04   0.1090163454E-04   0.1090163454E-04   0.1273623092E-02   0.2078232937E-03   0.2078232937E-03   0.1117115348E+01   0.8362984770E-01   0.8362984770E-01  -0.1547265489E-02  -0.1547265489E-02  -0.4264742730E-07   0.5722788393E-04   0.1033509600E+01
   0.1001335727E+01   0.9997812751E+00   0.2187249282E-03   0.6210418680E-04  -0.1090163453E-04   0.1090163454E-04   0.1273623092E-02  -0.2078232937E-03   0.2078232937E-03   0.1117115348E+01   0.8362984770E-01   0.8362984770E-01   0.1547265483E-02  -0.1547265489E-02   0.4264744570E-07   0.5722788393E-04   0.1033509600E+01
   0.0000000000E+00   0.9997475907E+00   0.2524093212E-03   0.0000000000E+00  -0.3238412116E-04   0.3238412116E-04   0.0000000000E+00  -0.2200252001E-03   0.2200252001E-03   0.1126097893E+01   0.5008175345E-01   0.5008175346E-01   0.1941738655E-02  -0.1941738656E-02   0.7486388499E-07   0.4615163878E-04   0.1076047805E+01
   0.0000000000E+00   0.2524093212E-03   0.9997475907E+00   0.0000000000E+00   0.3238412116E-04  -0.3238412116E-04   0.0000000000E+00   0.2200252001E-03  -0.2200252001E-03   0.1126097893E+01   0.5008175346E-01   0.5008175345E-01  -0.1941738656E-02   0.1941738655E-02   0.7486388498E-07   0.4615163878E-04   0.1076047805E+01
   0.1001335727E+01   0.2187249282E-03   0.9997812751E+00   0.6210418680E-04   0.1090163454E-04  -0.1090163453E-04   0.1273623092E-02   0.2078232937E-03  -0.2078232937E-03   0.1117115348E+01   0.8362984770E-01   0.8362984770E-01  -0.1547265489E-02   0.1547265483E-02   0.4264744569E-07   0.5722788393E-04   0.1033509600E+01
   0.1001335727E+01   0.9997812751E+00   0.9997812751E+00   0.6210418680E-04  -0.1090163453E-04  -0.1090163453E-04   0.1273623092E-02  -0.2078232937E-03  -0.2078232937E-03   0.1117115348E+01   0.8362984770E-01   0.8362984770E-01   0.1547265483E-02   0.1547265483E-02  -0.4264746407E-07   0.5722788393E-04   0.1033509600E+01
   0.0000000000E+00   0.9997475907E+00   0.9997475907E+00   0.0000000000E+00  -0.3238412116E-04  -0.3238412116E-04   0.0000000000E+00  -0.2200252001E-03  -0.2200252001E-03   0.1126097893E+01   0.5008175345E-01   0.5008175345E-01   0.1941738655E-02   0.1941738655E-02  -0.7486346668E-07   0.4615163878E-04   0.1076047805E+01
   0.2002700000E+01   0.2199806084E-03   0.2199806084E-03   0.1000000000E-03  -0.6623601532E-05  -0.6623601532E-05   0.2600000000E-02   0.2266042099E-03   0.2266042099E-03   0.1100726320E+01   0.1208811323E+00   0.1208811323E+00  -0.1630785130E-02  -0.1630785130E-02  -0.9545125792E-09   0.7464392340E-04   0.9798716310E+00
   0.2002700000E+01   0.9997800194E+00   0.2199806084E-03   0.1000000000E-03   0.6623601533E-05  -0.6623601531E-05   0.2600000000E-02  -0.2266042099E-03   0.2266042099E-03   0.1100726320E+01   0.1208811323E+00   0.1208811323E+00   0.1630785128E-02  -0.1630785129E-02   0.9549999132E-09   0.7464392340E-04   0.9798716309E+00
   0.2002700000E+01   0.2199806084E-03   0.9997800194E+00   0.1000000000E-03  -0.6623601531E-05   0.6623601533E-05   0.2600000000E-02   0.2266042099E-03  -0.2266042099E-03   0.1100726320E+01   0.1208811323E+00   0.1208811323E+00  -0.1630785129E-02   0.1630785128E-02   0.9549999082E-09   0.7464392340E-04   0.9798716309E+00
   0.2002700000E+01   0.9997800194E+00   0.9997800194E+00   0.1000000000E-03   0.6623601532E-05   0.6623601532E-05   0.2600000000E-02  -0.2266042099E-03  -0.2266042099E-03   0.1100726320E+01   0.1208811323E+00   0.1208811323E+00   0.1630785128E-02   0.1630785128E-02  -0.9554871823E-09   0.7464392340E-04   0.9798716309E+00
     1     2     3     4     5     6     7     8
     2     9    10     3     6    11    12     7
 VARIABLES = X,Y,Z,DU1,DU2,DU3,U1,U2,U3,S11,S22,S33,S12,S13,S23,Vf,SMISES
 ZONE, T="0.2800D+00" F=FEPOINT, I=   12 J=    2 ET=BRICK
   0.0000000000E+00   0.2848554005E-03   0.2848554005E-03   0.0000000000E+00   0.3244607929E-04   0.3244607929E-04   0.0000000000E+00   0.2524093212E-03   0.2524093212E-03   0.1108915144E+01   0.2251116699E-01   0.2251116699E-01  -0.4338836321E-02  -0.4338836321E-02  -0.5705716043E-07   0.6353264024E-04   0.1086560139E+01
   0.1001398440E+01   0.2313080605E-03   0.2313080605E-03   0.6271254163E-04   0.1258313231E-04   0.1258313231E-04   0.1335727279E-02   0.2187249282E-03   0.2187249282E-03   0.1124245194E+01   0.8351526769E-01   0.8351526769E-01  -0.3809829551E-02  -0.3809829551E-02  -0.3045639386E-07   0.6806896251E-04   0.1040859686E+01
   0.1001398440E+01   0.9997686919E+00   0.2313080605E-03   0.6271254163E-04  -0.1258313231E-04   0.1258313231E-04   0.1335727279E-02  -0.2187249282E-03   0.2187249282E-03   0.1124245194E+01   0.8351526768E-01   0.8351526768E-01   0.3809829546E-02  -0.3809829551E-02   0.3045647280E-07   0.6806896251E-04   0.1040859686E+01
   0.0000000000E+00   0.9997151446E+00   0.2848554005E-03   0.0000000000E+00  -0.3244607929E-04   0.3244607929E-04   0.0000000000E+00  -0.2524093212E-03   0.2524093212E-03   0.1108915143E+01   0.2251116699E-01   0.2251116699E-01   0.4338836320E-02  -0.4338836321E-02   0.5705669618E-07   0.6353264024E-04   0.1086560139E+01
   0.0000000000E+00   0.2848554005E-03   0.9997151446E+00   0.0000000000E+00   0.3244607929E-04  -0.3244607929E-04   0.0000000000E+00   0.2524093212E-03  -0.2524093212E-03   0.1108915143E+01   0.2251116699E-01   0.2251116699E-01  -0.4338836321E-02   0.4338836320E-02   0.5705669616E-07   0.6353264024E-04   0.1086560139E+01
   0.1001398440E+01   0.2313080605E-03   0.9997686919E+00   0.6271254163E-04   0.1258313231E-04  -0.1258313231E-04   0.1335727279E-02   0.2187249282E-03  -0.2187249282E-03   0.1124245194E+01   0.8351526768E-01   0.8351526768E-01  -0.3809829551E-02   0.3809829546E-02   0.3045647279E-07   0.6806896251E-04   0.1040859686E+01
   0.1001398440E+01   0.9997686919E+00   0.9997686919E+00   0.6271254163E-04  -0.1258313231E-04  -0.1258313231E-04   0.1335727279E-02  -0.2187249282E-03  -0.2187249282E-03   0.1124245194E+01   0.8351526768E-01   0.8351526768E-01   0.3809829546E-02   0.3809829546E-02  -0.3045655171E-07   0.6806896251E-04   0.1040859686E+01
   0.0000000000E+00   0.9997151446E+00   0.9997151446E+00   0.0000000000E+00  -0.3244607929E-04  -0.3244607929E-04   0.0000000000E+00  -0.2524093212E-03  -0.2524093212E-03   0.1108915143E+01   0.2251116699E-01   0.2251116699E-01   0.4338836320E-02   0.4338836320E-02  -0.5705623191E-07   0.6353264023E-04   0.1086560139E+01
   0.2002800000E+01   0.2166748217E-03   0.2166748217E-03   0.1000000000E-03  -0.3305786708E-05  -0.3305786708E-05   0.2700000000E-02   0.2199806084E-03   0.2199806084E-03   0.1132897495E+01   0.1478584316E+00   0.1478584316E+00  -0.3745665223E-02  -0.3745665223E-02   0.8439054321E-08   0.7936362483E-04   0.9851696173E+00
   0.2002800000E+01   0.9997833252E+00   0.2166748217E-03   0.1000000000E-03   0.3305786709E-05  -0.3305786707E-05   0.2700000000E-02  -0.2199806084E-03   0.2199806084E-03   0.1132897495E+01   0.1478584316E+00   0.1478584316E+00   0.3745665222E-02  -0.3745665222E-02  -0.8438398098E-08   0.7936362483E-04   0.9851696173E+00
   0.2002800000E+01   0.2166748217E-03   0.9997833252E+00   0.1000000000E-03  -0.3305786707E-05   0.3305786709E-05   0.2700000000E-02   0.2199806084E-03  -0.2199806084E-03   0.1132897495E+01   0.1478584316E+00   0.1478584316E+00  -0.3745665222E-02   0.3745665222E-02  -0.8438398102E-08   0.7936362483E-04   0.9851696173E+00
   0.2002800000E+01   0.9997833252E+00   0.9997833252E+00   0.1000000000E-03   0.3305786708E-05   0.3305786708E-05   0.2700000000E-02  -0.2199806084E-03  -0.2199806084E-03   0.1132897495E+01   0.1478584316E+00   0.1478584316E+00   0.3745665222E-02   0.3745665222E-02   0.8437741948E-08   0.7936362483E-04   0.9851696173E+00
     1     2     3     4     5     6     7     8
     2     9    10     3     6    11    12     7
 VARIABLES = X,Y,Z,DU1,DU2,DU3,U1,U2,U3,S11,S22,S33,S12,S13,S23,Vf,SMISES
 ZONE, T="0.2900D+00" F=FEPOINT, I=   12 J=    2 ET=BRICK
   0.0000000000E+00   0.3167273644E-03   0.3167273644E-03   0.0000000000E+00   0.3187196387E-04   0.3187196387E-04   0.0000000000E+00   0.2848554005E-03   0.2848554005E-03   0.1086366438E+01  -0.6625998411E-02  -0.6625998411E-02  -0.6367309044E-02  -0.6367309044E-02  -0.2642106383E-07   0.8226957952E-04   0.1093326579E+01
   0.1001462187E+01   0.2453835234E-03   0.2453835234E-03   0.6374766245E-04   0.1407546288E-04   0.1407546288E-04   0.1398439821E-02   0.2313080605E-03   0.2313080605E-03   0.1124074038E+01   0.7712327480E-01   0.7712327480E-01  -0.5759968112E-02  -0.5759968112E-02  -0.6686669616E-08   0.7980174376E-04   0.1047241003E+01
   0.1001462187E+01   0.9997546165E+00   0.2453835234E-03   0.6374766245E-04  -0.1407546288E-04   0.1407546288E-04   0.1398439821E-02  -0.2313080605E-03   0.2313080605E-03   0.1124074038E+01   0.7712327479E-01   0.7712327479E-01   0.5759968108E-02  -0.5759968112E-02   0.6686790223E-08   0.7980174376E-04   0.1047241003E+01
   0.0000000000E+00   0.9996832726E+00   0.3167273644E-03   0.0000000000E+00  -0.3187196387E-04   0.3187196387E-04   0.0000000000E+00  -0.2848554005E-03   0.2848554005E-03   0.1086366438E+01  -0.6625998411E-02  -0.6625998410E-02   0.6367309044E-02  -0.6367309044E-02   0.2642055669E-07   0.8226957951E-04   0.1093326579E+01
   0.0000000000E+00   0.3167273644E-03   0.9996832726E+00   0.0000000000E+00   0.3187196387E-04  -0.3187196387E-04   0.0000000000E+00   0.2848554005E-03  -0.2848554005E-03   0.1086366438E+01  -0.6625998410E-02  -0.6625998411E-02  -0.6367309044E-02   0.6367309044E-02   0.2642055667E-07   0.8226957951E-04   0.1093326579E+01
   0.1001462187E+01   0.2453835234E-03   0.9997546165E+00   0.6374766245E-04   0.1407546288E-04  -0.1407546288E-04   0.1398439821E-02   0.2313080605E-03  -0.2313080605E-03   0.1124074038E+01   0.7712327479E-01   0.7712327479E-01  -0.5759968112E-02   0.5759968108E-02   0.6686790211E-08   0.7980174376E-04   0.1047241003E+01
   0.1001462187E+01   0.9997546165E+00   0.9997546165E+00   0.6374766245E-04  -0.1407546288E-04  -0.1407546288E-04   0.1398439821E-02  -0.2313080605E-03  -0.2313080605E-03   0.1124074038E+01   0.7712327479E-01   0.7712327479E-01   0.5759968107E-02   0.5759968107E-02  -0.6686910794E-08   0.7980174375E-04   0.1047241003E+01
   0.0000000000E+00   0.9996832726E+00   0.9996832726E+00   0.0000000000E+00  -0.3187196387E-04  -0.3187196387E-04   0.0000000000E+00  -0.2848554005E-03  -0.2848554005E-03   0.1086366438E+01  -0.6625998410E-02  -0.6625998410E-02   0.6367309044E-02   0.6367309044E-02  -0.2642004951E-07   0.8226957951E-04   0.1093326579E+01
   0.2002900000E+01   0.2169341437E-03   0.2169341437E-03   0.1000000000E-03   0.2593220251E-06   0.2593220251E-06   0.2800000000E-02   0.2166748217E-03   0.2166748217E-03   0.1155633166E+01   0.1639470533E+00   0.1639470533E+00  -0.5602210417E-02  -0.5602210417E-02   0.2765359999E-07   0.8460340718E-04   0.9919736778E+00
   0.2002900000E+01   0.9997830659E+00   0.2169341437E-03   0.1000000000E-03  -0.2593220236E-06   0.2593220257E-06   0.2800000000E-02  -0.2166748217E-03   0.2166748217E-03   0.1155633166E+01   0.1639470533E+00   0.1639470533E+00   0.5602210417E-02  -0.5602210417E-02  -0.2765281248E-07   0.8460340718E-04   0.9919736777E+00
   0.2002900000E+01   0.2169341437E-03   0.9997830659E+00   0.1000000000E-03   0.2593220257E-06  -0.2593220236E-06   0.2800000000E-02   0.2166748217E-03  -0.2166748217E-03   0.1155633166E+01   0.1639470533E+00   0.1639470533E+00  -0.5602210417E-02   0.5602210417E-02  -0.2765281248E-07   0.8460340718E-04   0.9919736777E+00
   0.2002900000E+01   0.9997830659E+00   0.9997830659E+00   0.1000000000E-03  -0.2593220242E-06  -0.2593220242E-06   0.2800000000E-02  -0.2166748217E-03  -0.2166748217E-03   0.1155633166E+01   0.1639470533E+00   0.1639470533E+00   0.5602210417E-02   0.5602210417E-02   0.2765202504E-07   0.8460340718E-04   0.9919736777E+00
     1     2     3     4     5     6     7     8
     2     9    10     3     6    11    12     7
 VARIABLES = X,Y,Z,DU1,DU2,DU3,U1,U2,U3,S11,S22,S33,S12,S13,S23,Vf,SMISES
 ZONE, T="0.3000D+00" F=FEPOINT, I=   12 J=    2 ET=BRICK
   0.0000000000E+00   0.3474136389E-03   0.3474136389E-03   0.0000000000E+00   0.3068627452E-04   0.3068627452E-04   0.0000000000E+00   0.3167273644E-03   0.3167273644E-03   0.1061386772E+01  -0.3574280981E-01  -0.3574280981E-01  -0.7996172055E-02  -0.7996172055E-02   0.1053853659E-07   0.1019199673E-03   0.1097654474E+01
   0.1001527294E+01   0.2606567073E-03   0.2606567073E-03   0.6510607220E-04   0.1527318394E-04   0.1527318394E-04   0.1462187483E-02   0.2453835234E-03   0.2453835234E-03   0.1117469162E+01   0.6514832152E-01   0.6514832152E-01  -0.7352357097E-02  -0.7352357097E-02   0.2316672577E-07   0.9231619411E-04   0.1052788805E+01
   0.1001527294E+01   0.9997393433E+00   0.2606567073E-03   0.6510607220E-04  -0.1527318394E-04   0.1527318394E-04   0.1462187483E-02  -0.2453835234E-03   0.2453835234E-03   0.1117469162E+01   0.6514832151E-01   0.6514832151E-01   0.7352357093E-02  -0.7352357097E-02  -0.2316658062E-07   0.9231619411E-04   0.1052788805E+01
   0.0000000000E+00   0.9996525864E+00   0.3474136389E-03   0.0000000000E+00  -0.3068627452E-04   0.3068627452E-04   0.0000000000E+00  -0.3167273644E-03   0.3167273644E-03   0.1061386772E+01  -0.3574280981E-01  -0.3574280981E-01   0.7996172055E-02  -0.7996172054E-02  -0.1053907990E-07   0.1019199673E-03   0.1097654474E+01
   0.0000000000E+00   0.3474136389E-03   0.9996525864E+00   0.0000000000E+00   0.3068627452E-04  -0.3068627452E-04   0.0000000000E+00   0.3167273644E-03  -0.3167273644E-03   0.1061386772E+01  -0.3574280981E-01  -0.3574280981E-01  -0.7996172054E-02   0.7996172055E-02  -0.1053907992E-07   0.1019199673E-03   0.1097654474E+01
   0.1001527294E+01   0.2606567073E-03   0.9997393433E+00   0.6510607220E-04   0.1527318394E-04  -0.1527318394E-04   0.1462187483E-02   0.2453835234E-03  -0.2453835234E-03   0.1117469162E+01   0.6514832151E-01   0.6514832151E-01  -0.7352357097E-02   0.7352357093E-02  -0.2316658063E-07   0.9231619411E-04   0.1052788805E+01
   0.1001527294E+01   0.9997393433E+00   0.9997393433E+00   0.6510607220E-04  -0.1527318394E-04  -0.1527318394E-04   0.1462187483E-02  -0.2453835234E-03  -0.2453835234E-03   0.1117469162E+01   0.6514832151E-01   0.6514832151E-01   0.7352357093E-02   0.7352357093E-02   0.2316643551E-07   0.9231619410E-04   0.1052788805E+01
   0.0000000000E+00   0.9996525864E+00   0.9996525864E+00   0.0000000000E+00  -0.3068627452E-04  -0.3068627452E-04   0.0000000000E+00  -0.3167273644E-03  -0.3167273644E-03   0.1061386772E+01  -0.3574280981E-01  -0.3574280981E-01   0.7996172054E-02   0.7996172054E-02   0.1053962326E-07   0.1019199673E-03   0.1097654474E+01
   0.2003000000E+01   0.2207711492E-03   0.2207711492E-03   0.1000000000E-03   0.3837005463E-05   0.3837005463E-05   0.2900000000E-02   0.2169341437E-03   0.2169341437E-03   0.1167998280E+01   0.1688163158E+00   0.1688163158E+00  -0.7143354043E-02  -0.7143354043E-02   0.5209953990E-07   0.9046859996E-04   0.9996446258E+00
   0.2003000000E+01   0.9997792289E+00   0.2207711492E-03   0.1000000000E-03  -0.3837005462E-05   0.3837005464E-05   0.2900000000E-02  -0.2169341437E-03   0.2169341437E-03   0.1167998280E+01   0.1688163158E+00   0.1688163158E+00   0.7143354043E-02  -0.7143354043E-02  -0.5209866040E-07   0.9046859996E-04   0.9996446257E+00
   0.2003000000E+01   0.2207711492E-03   0.9997792289E+00   0.1000000000E-03   0.3837005464E-05  -0.3837005462E-05   0.2900000000E-02   0.2169341437E-03  -0.2169341437E-03   0.1167998280E+01   0.1688163158E+00   0.1688163158E+00  -0.7143354043E-02   0.7143354043E-02  -0.5209866040E-07   0.9046859996E-04   0.9996446257E+00
   0.2003000000E+01   0.9997792289E+00   0.9997792289E+00   0.1000000000E-03  -0.3837005462E-05  -0.3837005462E-05   0.2900000000E-02  -0.2169341437E-03  -0.2169341437E-03   0.1167998280E+01   0.1688163158E+00   0.1688163158E+00   0.7143354043E-02   0.7143354043E-02   0.5209778098E-07   0.9046859995E-04   0.9996446257E+00
     1     2     3     4     5     6     7     8
     2     9    10     3     6    11    12     7
 VARIABLES = X,Y,Z,DU1,DU2,DU3,U1,U2,U3,S11,S22,S33,S12,S13,S23,Vf,SMISES
 ZONE, T="0.3100D+00" F=FEPOINT, I=   12 J=    2 ET=BRICK
   0.0000000000E+00   0.3763662906E-03   0.3763662906E-03   0.0000000000E+00   0.2895265167E-04   0.2895265167E-04   0.0000000000E+00   0.3474136389E-03   0.3474136389E-03   0.1036591369E+01  -0.6300585968E-01  -0.6300585968E-01  -0.9218204384E-02  -0.9218204384E-02   0.4790489962E-07   0.1221517036E-03   0.1100293183E+01
   0.1001593957E+01   0.2767557204E-03   0.2767557204E-03   0.6666339987E-04   0.1609901301E-04   0.1609901301E-04   0.1527293556E-02   0.2606567073E-03   0.2606567073E-03   0.1105603813E+01   0.4875157693E-01   0.4875157693E-01  -0.8563759761E-02  -0.8563759761E-02   0.5380565300E-07   0.1055018432E-03   0.1057482856E+01
   0.1001593957E+01   0.9997232443E+00   0.2767557204E-03   0.6666339987E-04  -0.1609901301E-04   0.1609901301E-04   0.1527293555E-02  -0.2606567073E-03   0.2606567073E-03   0.1105603813E+01   0.4875157692E-01   0.4875157692E-01   0.8563759758E-02  -0.8563759760E-02  -0.5380549741E-07   0.1055018432E-03   0.1057482856E+01
   0.0000000000E+00   0.9996236337E+00   0.3763662906E-03   0.0000000000E+00  -0.2895265167E-04   0.2895265167E-04   0.0000000000E+00  -0.3474136389E-03   0.3474136389E-03   0.1036591369E+01  -0.6300585968E-01  -0.6300585968E-01   0.9218204384E-02  -0.9218204383E-02  -0.4790546869E-07   0.1221517036E-03   0.1100293183E+01
   0.0000000000E+00   0.3763662906E-03   0.9996236337E+00   0.0000000000E+00   0.2895265167E-04  -0.2895265167E-04   0.0000000000E+00   0.3474136389E-03  -0.3474136389E-03   0.1036591369E+01  -0.6300585968E-01  -0.6300585968E-01  -0.9218204383E-02   0.9218204384E-02  -0.4790546871E-07   0.1221517036E-03   0.1100293183E+01
   0.1001593957E+01   0.2767557204E-03   0.9997232443E+00   0.6666339987E-04   0.1609901301E-04  -0.1609901301E-04   0.1527293555E-02   0.2606567073E-03  -0.2606567073E-03   0.1105603813E+01   0.4875157692E-01   0.4875157692E-01  -0.8563759760E-02   0.8563759758E-02  -0.5380549742E-07   0.1055018432E-03   0.1057482856E+01
   0.1001593957E+01   0.9997232443E+00   0.9997232443E+00   0.6666339988E-04  -0.1609901301E-04  -0.1609901301E-04   0.1527293555E-02  -0.2606567073E-03  -0.2606567073E-03   0.1105603813E+01   0.4875157692E-01   0.4875157692E-01   0.8563759757E-02   0.8563759757E-02   0.5380534186E-07   0.1055018432E-03   0.1057482856E+01
   0.0000000000E+00   0.9996236337E+00   0.9996236337E+00   0.0000000000E+00  -0.2895265167E-04  -0.2895265167E-04   0.0000000000E+00  -0.3474136389E-03  -0.3474136389E-03   0.1036591369E+01  -0.6300585968E-01  -0.6300585968E-01   0.9218204384E-02   0.9218204384E-02   0.4790603781E-07   0.1221517036E-03   0.1100293183E+01
   0.2003100000E+01   0.2279799482E-03   0.2279799482E-03   0.1000000000E-03   0.7208798997E-05   0.7208798997E-05   0.3000000000E-02   0.2207711492E-03   0.2207711492E-03   0.1169805629E+01   0.1629144271E+00   0.1629144271E+00  -0.8331346935E-02  -0.8331346935E-02   0.7708988740E-07   0.9702522701E-04   0.1007514852E+01
   0.2003100000E+01   0.9997720201E+00   0.2279799482E-03   0.1000000000E-03  -0.7208798995E-05   0.7208798997E-05   0.3000000000E-02  -0.2207711492E-03   0.2207711492E-03   0.1169805629E+01   0.1629144271E+00   0.1629144271E+00   0.8331346936E-02  -0.8331346935E-02  -0.7708895439E-07   0.9702522700E-04   0.1007514852E+01
   0.2003100000E+01   0.2279799482E-03   0.9997720201E+00   0.1000000000E-03   0.7208798997E-05  -0.7208798995E-05   0.3000000000E-02   0.2207711492E-03  -0.2207711492E-03   0.1169805629E+01   0.1629144271E+00   0.1629144271E+00  -0.8331346935E-02   0.8331346936E-02  -0.7708895439E-07   0.9702522700E-04   0.1007514852E+01
   0.2003100000E+01   0.9997720201E+00   0.9997720201E+00   0.1000000000E-03  -0.7208798995E-05  -0.7208798995E-05   0.3000000000E-02  -0.2207711492E-03  -0.2207711492E-03   0.1169805629E+01   0.1629144271E+00   0.1629144271E+00   0.8331346935E-02   0.8331346935E-02   0.7708802145E-07   0.9702522700E-04   0.1007514852E+01
     1     2     3     4     5     6     7     8
     2     9    10     3     6    11    12     7
 VARIABLES = X,Y,Z,DU1,DU2,DU3,U1,U2,U3,S11,S22,S33,S12,S13,S23,Vf,SMISES
 ZONE, T="0.3200D+00" F=FEPOINT, I=   12 J=    2 ET=BRICK
   0.0000000000E+00   0.4031379542E-03   0.4031379542E-03   0.0000000000E+00   0.2677166364E-04   0.2677166364E-04   0.0000000000E+00   0.3763662906E-03   0.3763662906E-03   0.1014268503E+01  -0.8656039120E-01  -0.8656039120E-01  -0.1004653017E-01  -0.1004653017E-01   0.8105751624E-07   0.1427006956E-03   0.1101654566E+01
   0.1001662242E+01   0.2932646416E-03   0.2932646416E-03   0.6828473931E-04   0.1650892126E-04   0.1650892126E-04   0.1593956955E-02   0.2767557204E-03   0.2767557204E-03   0.1089909237E+01   0.2942061660E-01   0.2942061660E-01  -0.9392938447E-02  -0.9392938447E-02   0.8089798038E-07   0.1192352124E-03   0.1061243792E+01
   0.1001662242E+01   0.9997067354E+00   0.2932646416E-03   0.6828473931E-04  -0.1650892126E-04   0.1650892126E-04   0.1593956955E-02  -0.2767557203E-03   0.2767557204E-03   0.1089909237E+01   0.2942061660E-01   0.2942061659E-01   0.9392938445E-02  -0.9392938447E-02  -0.8089782459E-07   0.1192352124E-03   0.1061243792E+01
   0.0000000000E+00   0.9995968620E+00   0.4031379542E-03   0.0000000000E+00  -0.2677166364E-04   0.2677166364E-04   0.0000000000E+00  -0.3763662906E-03   0.3763662906E-03   0.1014268502E+01  -0.8656039120E-01  -0.8656039120E-01   0.1004653017E-01  -0.1004653017E-01  -0.8105809738E-07   0.1427006956E-03   0.1101654566E+01
   0.0000000000E+00   0.4031379542E-03   0.9995968620E+00   0.0000000000E+00   0.2677166364E-04  -0.2677166364E-04   0.0000000000E+00   0.3763662906E-03  -0.3763662906E-03   0.1014268502E+01  -0.8656039120E-01  -0.8656039120E-01  -0.1004653017E-01   0.1004653017E-01  -0.8105809740E-07   0.1427006956E-03   0.1101654566E+01
   0.1001662242E+01   0.2932646416E-03   0.9997067354E+00   0.6828473931E-04   0.1650892126E-04  -0.1650892126E-04   0.1593956955E-02   0.2767557204E-03  -0.2767557203E-03   0.1089909237E+01   0.2942061659E-01   0.2942061660E-01  -0.9392938447E-02   0.9392938445E-02  -0.8089782461E-07   0.1192352124E-03   0.1061243792E+01
   0.1001662242E+01   0.9997067354E+00   0.9997067354E+00   0.6828473931E-04  -0.1650892126E-04  -0.1650892126E-04   0.1593956955E-02  -0.2767557203E-03  -0.2767557203E-03   0.1089909237E+01   0.2942061659E-01   0.2942061659E-01   0.9392938445E-02   0.9392938445E-02   0.8089766884E-07   0.1192352124E-03   0.1061243792E+01
   0.0000000000E+00   0.9995968620E+00   0.9995968620E+00   0.0000000000E+00  -0.2677166364E-04  -0.2677166364E-04   0.0000000000E+00  -0.3763662906E-03  -0.3763662906E-03   0.1014268502E+01  -0.8656039120E-01  -0.8656039120E-01   0.1004653017E-01   0.1004653017E-01   0.8105867856E-07   0.1427006956E-03   0.1101654566E+01
   0.2003200000E+01   0.2381656412E-03   0.2381656412E-03   0.1000000000E-03   0.1018569304E-04   0.1018569304E-04   0.3100000000E-02   0.2279799482E-03   0.2279799482E-03   0.1161605687E+01   0.1473736610E+00   0.1473736610E+00  -0.9150619242E-02  -0.9150619242E-02   0.9862600203E-07   0.1042894049E-03   0.1014978328E+01
   0.2003200000E+01   0.9997618344E+00   0.2381656412E-03   0.1000000000E-03  -0.1018569304E-04   0.1018569304E-04   0.3100000000E-02  -0.2279799482E-03   0.2279799482E-03   0.1161605687E+01   0.1473736610E+00   0.1473736610E+00   0.9150619243E-02  -0.9150619241E-02  -0.9862505080E-07   0.1042894049E-03   0.1014978328E+01
   0.2003200000E+01   0.2381656412E-03   0.9997618344E+00   0.1000000000E-03   0.1018569304E-04  -0.1018569304E-04   0.3100000000E-02   0.2279799482E-03  -0.2279799482E-03   0.1161605687E+01   0.1473736610E+00   0.1473736610E+00  -0.9150619241E-02   0.9150619243E-02  -0.9862505081E-07   0.1042894049E-03   0.1014978328E+01
   0.2003200000E+01   0.9997618344E+00   0.9997618344E+00   0.1000000000E-03  -0.1018569304E-04  -0.1018569304E-04   0.3100000000E-02  -0.2279799482E-03  -0.2279799482E-03   0.1161605687E+01   0.1473736610E+00   0.1473736610E+00   0.9150619243E-02   0.9150619243E-02   0.9862409966E-07   0.1042894049E-03   0.1014978328E+01
     1     2     3     4     5     6     7     8
     2     9    10     3     6    11    12     7
 VARIABLES = X,Y,Z,DU1,DU2,DU3,U1,U2,U3,S11,S22,S33,S12,S13,S23,Vf,SMISES
 ZONE, T="0.3300D+00" F=FEPOINT, I=   12 J=    2 ET=BRICK
   0.0000000000E+00   0.4274128499E-03   0.4274128499E-03   0.0000000000E+00   0.2427489569E-04   0.2427489569E-04   0.0000000000E+00   0.4031379542E-03   0.4031379542E-03   0.9963352819E+00  -0.1047302138E+00  -0.1047302138E+00  -0.1051169315E-01  -0.1051169315E-01   0.1070395258E-06   0.1633445360E-03   0.1101969168E+01
   0.1001732076E+01   0.3097587216E-03   0.3097587216E-03   0.6983461992E-04   0.1649407993E-04   0.1649407993E-04   0.1662241695E-02   0.2932646416E-03   0.2932646416E-03   0.1071985961E+01   0.8818298982E-02   0.8818298982E-02  -0.9859261471E-02  -0.9859261471E-02   0.1015613581E-06   0.1333764424E-03   0.1063997226E+01
   0.1001732076E+01   0.9996902413E+00   0.3097587216E-03   0.6983461992E-04  -0.1649407993E-04   0.1649407993E-04   0.1662241695E-02  -0.2932646416E-03   0.2932646416E-03   0.1071985961E+01   0.8818298981E-02   0.8818298981E-02   0.9859261469E-02  -0.9859261470E-02  -0.1015612081E-06   0.1333764424E-03   0.1063997226E+01
   0.0000000000E+00   0.9995725872E+00   0.4274128499E-03   0.0000000000E+00  -0.2427489569E-04   0.2427489569E-04   0.0000000000E+00  -0.4031379542E-03   0.4031379542E-03   0.9963352819E+00  -0.1047302138E+00  -0.1047302138E+00   0.1051169315E-01  -0.1051169315E-01  -0.1070401027E-06   0.1633445360E-03   0.1101969168E+01
   0.0000000000E+00   0.4274128499E-03   0.9995725872E+00   0.0000000000E+00   0.2427489569E-04  -0.2427489569E-04   0.0000000000E+00   0.4031379542E-03  -0.4031379542E-03   0.9963352819E+00  -0.1047302138E+00  -0.1047302138E+00  -0.1051169315E-01   0.1051169315E-01  -0.1070401027E-06   0.1633445360E-03   0.1101969168E+01
   0.1001732076E+01   0.3097587216E-03   0.9996902413E+00   0.6983461992E-04   0.1649407993E-04  -0.1649407993E-04   0.1662241695E-02   0.2932646416E-03  -0.2932646416E-03   0.1071985961E+01   0.8818298981E-02   0.8818298981E-02  -0.9859261470E-02   0.9859261469E-02  -0.1015612081E-06   0.1333764424E-03   0.1063997226E+01
   0.1001732076E+01   0.9996902413E+00   0.9996902413E+00   0.6983461992E-04  -0.1649407993E-04  -0.1649407993E-04   0.1662241695E-02  -0.2932646416E-03  -0.2932646416E-03   0.1071985961E+01   0.8818298981E-02   0.8818298981E-02   0.9859261469E-02   0.9859261469E-02   0.1015610581E-06   0.1333764424E-03   0.1063997226E+01
   0.0000000000E+00   0.9995725872E+00   0.9995725872E+00   0.0000000000E+00  -0.2427489569E-04  -0.2427489569E-04   0.0000000000E+00  -0.4031379542E-03  -0.4031379542E-03   0.9963352818E+00  -0.1047302138E+00  -0.1047302138E+00   0.1051169315E-01   0.1051169315E-01   0.1070406797E-06   0.1633445360E-03   0.1101969168E+01
   0.2003300000E+01   0.2507838923E-03   0.2507838923E-03   0.1000000000E-03   0.1261825109E-04   0.1261825109E-04   0.3200000000E-02   0.2381656412E-03   0.2381656412E-03   0.1144616299E+01   0.1238765767E+00   0.1238765767E+00  -0.9608511980E-02  -0.9608511980E-02   0.1139682795E-06   0.1122232130E-03   0.1021556954E+01
   0.2003300000E+01   0.9997492161E+00   0.2507838923E-03   0.1000000000E-03  -0.1261825109E-04   0.1261825109E-04   0.3200000000E-02  -0.2381656412E-03   0.2381656412E-03   0.1144616299E+01   0.1238765767E+00   0.1238765767E+00   0.9608511982E-02  -0.9608511979E-02  -0.1139673402E-06   0.1122232130E-03   0.1021556954E+01
   0.2003300000E+01   0.2507838923E-03   0.9997492161E+00   0.1000000000E-03   0.1261825109E-04  -0.1261825109E-04   0.3200000000E-02   0.2381656412E-03  -0.2381656412E-03   0.1144616299E+01   0.1238765767E+00   0.1238765767E+00  -0.9608511979E-02   0.9608511982E-02  -0.1139673402E-06   0.1122232130E-03   0.1021556954E+01
   0.2003300000E+01   0.9997492161E+00   0.9997492161E+00   0.1000000000E-03  -0.1261825109E-04  -0.1261825109E-04   0.3200000000E-02  -0.2381656412E-03  -0.2381656412E-03   0.1144616299E+01   0.1238765767E+00   0.1238765767E+00   0.9608511981E-02   0.9608511981E-02   0.1139664010E-06   0.1122232130E-03   0.1021556954E+01
     1     2     3     4     5     6     7     8
     2     9    10     3     6    11    12     7
 VARIABLES = X,Y,Z,DU1,DU2,DU3,U1,U2,U3,S11,S22,S33,S12,S13,S23,Vf,SMISES
 ZONE, T="0.3400D+00" F=FEPOINT, I=   12 J=    2 ET=BRICK
   0.0000000000E+00   0.4490290461E-03   0.4490290461E-03   0.0000000000E+00   0.2161619621E-04   0.2161619621E-04   0.0000000000E+00   0.4274128499E-03   0.4274128499E-03   0.9842731020E+00  -0.1161811924E+00  -0.1161811924E+00  -0.1065852446E-01  -0.1065852446E-01   0.1246000129E-06   0.1838906754E-03   0.1101383887E+01
   0.1001803263E+01   0.3258385312E-03   0.3258385312E-03   0.7118619471E-04   0.1607980965E-04   0.1607980965E-04   0.1732076315E-02   0.3097587216E-03   0.3097587216E-03   0.1053489165E+01  -0.1136735202E-01  -0.1136735202E-01  -0.9999980368E-02  -0.9999980368E-02   0.1145159995E-06   0.1477736001E-03   0.1065708684E+01
   0.1001803263E+01   0.9996741615E+00   0.3258385312E-03   0.7118619471E-04  -0.1607980965E-04   0.1607980965E-04   0.1732076315E-02  -0.3097587215E-03   0.3097587216E-03   0.1053489165E+01  -0.1136735202E-01  -0.1136735202E-01   0.9999980368E-02  -0.9999980368E-02  -0.1145158569E-06   0.1477736001E-03   0.1065708684E+01
   0.0000000000E+00   0.9995509710E+00   0.4490290461E-03   0.0000000000E+00  -0.2161619621E-04   0.2161619621E-04   0.0000000000E+00  -0.4274128499E-03   0.4274128499E-03   0.9842731019E+00  -0.1161811924E+00  -0.1161811924E+00   0.1065852446E-01  -0.1065852446E-01  -0.1246005678E-06   0.1838906753E-03   0.1101383887E+01
   0.0000000000E+00   0.4490290461E-03   0.9995509710E+00   0.0000000000E+00   0.2161619621E-04  -0.2161619621E-04   0.0000000000E+00   0.4274128499E-03  -0.4274128499E-03   0.9842731019E+00  -0.1161811924E+00  -0.1161811924E+00  -0.1065852446E-01   0.1065852446E-01  -0.1246005678E-06   0.1838906753E-03   0.1101383887E+01
   0.1001803263E+01   0.3258385312E-03   0.9996741615E+00   0.7118619471E-04   0.1607980965E-04  -0.1607980965E-04   0.1732076315E-02   0.3097587216E-03  -0.3097587215E-03   0.1053489165E+01  -0.1136735202E-01  -0.1136735202E-01  -0.9999980368E-02   0.9999980368E-02  -0.1145158569E-06   0.1477736001E-03   0.1065708684E+01
   0.1001803263E+01   0.9996741615E+00   0.9996741615E+00   0.7118619471E-04  -0.1607980965E-04  -0.1607980965E-04   0.1732076315E-02  -0.3097587215E-03  -0.3097587215E-03   0.1053489165E+01  -0.1136735202E-01  -0.1136735202E-01   0.9999980367E-02   0.9999980367E-02   0.1145157144E-06   0.1477736000E-03   0.1065708684E+01
   0.0000000000E+00   0.9995509710E+00   0.9995509710E+00   0.0000000000E+00  -0.2161619621E-04  -0.2161619621E-04   0.0000000000E+00  -0.4274128499E-03  -0.4274128499E-03   0.9842731019E+00  -0.1161811924E+00  -0.1161811924E+00   0.1065852446E-01   0.1065852446E-01   0.1246011227E-06   0.1838906753E-03   0.1101383887E+01
   0.2003400000E+01   0.2651872014E-03   0.2651872014E-03   0.1000000000E-03   0.1440330911E-04   0.1440330911E-04   0.3300000000E-02   0.2507838923E-03   0.2507838923E-03   0.1120597745E+01   0.9449939209E-01   0.9449939209E-01  -0.9733705459E-02  -0.9733705459E-02   0.1218894980E-06   0.1207392305E-03   0.1026932419E+01
   0.2003400000E+01   0.9997348128E+00   0.2651872014E-03   0.1000000000E-03  -0.1440330910E-04   0.1440330911E-04   0.3300000000E-02  -0.2507838923E-03   0.2507838923E-03   0.1120597745E+01   0.9449939208E-01   0.9449939208E-01   0.9733705461E-02  -0.9733705458E-02  -0.1218885944E-06   0.1207392305E-03   0.1026932419E+01
   0.2003400000E+01   0.2651872014E-03   0.9997348128E+00   0.1000000000E-03   0.1440330911E-04  -0.1440330910E-04   0.3300000000E-02   0.2507838923E-03  -0.2507838923E-03   0.1120597745E+01   0.9449939208E-01   0.9449939208E-01  -0.9733705458E-02   0.9733705461E-02  -0.1218885944E-06   0.1207392305E-03   0.1026932419E+01
   0.2003400000E+01   0.9997348128E+00   0.9997348128E+00   0.1000000000E-03  -0.1440330910E-04  -0.1440330910E-04   0.3300000000E-02  -0.2507838923E-03  -0.2507838923E-03   0.1120597745E+01   0.9449939208E-01   0.9449939208E-01   0.9733705460E-02   0.9733705460E-02   0.1218876909E-06   0.1207392305E-03   0.1026932419E+01
     1     2     3     4     5     6     7     8
     2     9    10     3     6    11    12     7
 VARIABLES = X,Y,Z,DU1,DU2,DU3,U1,U2,U3,S11,S22,S33,S12,S13,S23,Vf,SMISES
 ZONE, T="0.3500D+00" F=FEPOINT, I=   12 J=    2 ET=BRICK
   0.0000000000E+00   0.4679900220E-03   0.4679900220E-03   0.0000000000E+00   0.1896097591E-04   0.1896097591E-04   0.0000000000E+00   0.4490290461E-03   0.4490290461E-03   0.9790644031E+00  -0.1200430761E+00  -0.1200430761E+00  -0.1054267908E-01  -0.1054267908E-01   0.1339684334E-06   0.2041740492E-03   0.1100018086E+01
   0.1001875492E+01   0.3411603784E-03   0.3411603784E-03   0.7222922919E-04   0.1532184721E-04   0.1532184721E-04   0.1803262509E-02   0.3258385312E-03   0.3258385312E-03   0.1036005088E+01  -0.2956271259E-01  -0.2956271259E-01  -0.9866512304E-02  -0.9866512304E-02   0.1199344675E-06   0.1622717799E-03   0.1066397359E+01
   0.1001875492E+01   0.9996588396E+00   0.3411603784E-03   0.7222922920E-04  -0.1532184721E-04   0.1532184721E-04   0.1803262509E-02  -0.3258385312E-03   0.3258385312E-03   0.1036005088E+01  -0.2956271258E-01  -0.2956271259E-01   0.9866512304E-02  -0.9866512304E-02  -0.1199343303E-06   0.1622717799E-03   0.1066397359E+01
   0.0000000000E+00   0.9995320100E+00   0.4679900220E-03   0.0000000000E+00  -0.1896097591E-04   0.1896097591E-04   0.0000000000E+00  -0.4490290461E-03   0.4490290461E-03   0.9790644031E+00  -0.1200430761E+00  -0.1200430761E+00   0.1054267908E-01  -0.1054267908E-01  -0.1339689479E-06   0.2041740492E-03   0.1100018086E+01
   0.0000000000E+00   0.4679900220E-03   0.9995320100E+00   0.0000000000E+00   0.1896097591E-04  -0.1896097591E-04   0.0000000000E+00   0.4490290461E-03  -0.4490290461E-03   0.9790644031E+00  -0.1200430761E+00  -0.1200430761E+00  -0.1054267908E-01   0.1054267908E-01  -0.1339689479E-06   0.2041740492E-03   0.1100018086E+01
   0.1001875492E+01   0.3411603784E-03   0.9996588396E+00   0.7222922920E-04   0.1532184721E-04  -0.1532184721E-04   0.1803262509E-02   0.3258385312E-03  -0.3258385312E-03   0.1036005088E+01  -0.2956271259E-01  -0.2956271258E-01  -0.9866512304E-02   0.9866512304E-02  -0.1199343303E-06   0.1622717799E-03   0.1066397359E+01
   0.1001875492E+01   0.9996588396E+00   0.9996588396E+00   0.7222922920E-04  -0.1532184721E-04  -0.1532184721E-04   0.1803262509E-02  -0.3258385312E-03  -0.3258385312E-03   0.1036005088E+01  -0.2956271258E-01  -0.2956271258E-01   0.9866512304E-02   0.9866512304E-02   0.1199341930E-06   0.1622717799E-03   0.1066397359E+01
   0.0000000000E+00   0.9995320100E+00   0.9995320100E+00   0.0000000000E+00  -0.1896097591E-04  -0.1896097591E-04   0.0000000000E+00  -0.4490290461E-03  -0.4490290461E-03   0.9790644031E+00  -0.1200430761E+00  -0.1200430761E+00   0.1054267908E-01   0.1054267908E-01   0.1339694624E-06   0.2041740491E-03   0.1100018086E+01
   0.2003500000E+01   0.2806743556E-03   0.2806743556E-03   0.1000000000E-03   0.1548715415E-04   0.1548715415E-04   0.3400000000E-02   0.2651872014E-03   0.2651872014E-03   0.1091687633E+01   0.6154528301E-01   0.6154528301E-01  -0.9572714620E-02  -0.9572714620E-02   0.1225980044E-06   0.1297128564E-03   0.1030945794E+01
   0.2003500000E+01   0.9997193256E+00   0.2806743556E-03   0.1000000000E-03  -0.1548715415E-04   0.1548715415E-04   0.3400000000E-02  -0.2651872014E-03   0.2651872014E-03   0.1091687633E+01   0.6154528301E-01   0.6154528301E-01   0.9572714623E-02  -0.9572714620E-02  -0.1225971530E-06   0.1297128564E-03   0.1030945794E+01
   0.2003500000E+01   0.2806743556E-03   0.9997193256E+00   0.1000000000E-03   0.1548715415E-04  -0.1548715415E-04   0.3400000000E-02   0.2651872014E-03  -0.2651872014E-03   0.1091687633E+01   0.6154528301E-01   0.6154528301E-01  -0.9572714620E-02   0.9572714623E-02  -0.1225971530E-06   0.1297128564E-03   0.1030945794E+01
   0.2003500000E+01   0.9997193256E+00   0.9997193256E+00   0.1000000000E-03  -0.1548715415E-04  -0.1548715415E-04   0.3400000000E-02  -0.2651872014E-03  -0.2651872014E-03   0.1091687633E+01   0.6154528300E-01   0.6154528300E-01   0.9572714622E-02   0.9572714622E-02   0.1225963016E-06   0.1297128564E-03   0.1030945794E+01
     1     2     3     4     5     6     7     8
     2     9    10     3     6    11    12     7
 VARIABLES = X,Y,Z,DU1,DU2,DU3,U1,U2,U3,S11,S22,S33,S12,S13,S23,Vf,SMISES
 ZONE, T="0.3600D+00" F=FEPOINT, I=   12 J=    2 ET=BRICK
   0.0000000000E+00   0.4844645143E-03   0.4844645143E-03   0.0000000000E+00   0.1647449231E-04   0.1647449231E-04   0.0000000000E+00   0.4679900220E-03   0.4679900220E-03   0.9811481635E+00  -0.1159864961E+00  -0.1159864961E+00  -0.1022698962E-01  -0.1022698962E-01   0.1364539806E-06   0.2240594952E-03   0.1097993098E+01
   0.1001948368E+01   0.3554607679E-03   0.3554607679E-03   0.7287654060E-04   0.1430038949E-04   0.1430038949E-04   0.1875491739E-02   0.3411603784E-03   0.3411603784E-03   0.1020934050E+01  -0.4442941025E-01  -0.4442941025E-01  -0.9520204100E-02  -0.9520204100E-02   0.1190755416E-06   0.1767240446E-03   0.1066136922E+01
   0.1001948368E+01   0.9996445392E+00   0.3554607679E-03   0.7287654060E-04  -0.1430038949E-04   0.1430038949E-04   0.1875491738E-02  -0.3411603784E-03   0.3411603784E-03   0.1020934050E+01  -0.4442941025E-01  -0.4442941025E-01   0.9520204101E-02  -0.9520204100E-02  -0.1190754043E-06   0.1767240446E-03   0.1066136922E+01
   0.0000000000E+00   0.9995155355E+00   0.4844645143E-03   0.0000000000E+00  -0.1647449231E-04   0.1647449231E-04   0.0000000000E+00  -0.4679900220E-03   0.4679900220E-03   0.9811481635E+00  -0.1159864961E+00  -0.1159864961E+00   0.1022698962E-01  -0.1022698962E-01  -0.1364544370E-06   0.2240594952E-03   0.1097993098E+01
   0.0000000000E+00   0.4844645143E-03   0.9995155355E+00   0.0000000000E+00   0.1647449231E-04  -0.1647449231E-04   0.0000000000E+00   0.4679900220E-03  -0.4679900220E-03   0.9811481635E+00  -0.1159864961E+00  -0.1159864961E+00  -0.1022698962E-01   0.1022698962E-01  -0.1364544370E-06   0.2240594952E-03   0.1097993098E+01
   0.1001948368E+01   0.3554607679E-03   0.9996445392E+00   0.7287654060E-04   0.1430038949E-04  -0.1430038949E-04   0.1875491738E-02   0.3411603784E-03  -0.3411603784E-03   0.1020934050E+01  -0.4442941025E-01  -0.4442941025E-01  -0.9520204100E-02   0.9520204101E-02  -0.1190754043E-06   0.1767240446E-03   0.1066136922E+01
   0.1001948368E+01   0.9996445392E+00   0.9996445392E+00   0.7287654060E-04  -0.1430038949E-04  -0.1430038949E-04   0.1875491738E-02  -0.3411603784E-03  -0.3411603784E-03   0.1020934050E+01  -0.4442941024E-01  -0.4442941024E-01   0.9520204101E-02   0.9520204101E-02   0.1190752670E-06   0.1767240446E-03   0.1066136922E+01
   0.0000000000E+00   0.9995155355E+00   0.9995155355E+00   0.0000000000E+00  -0.1647449231E-04  -0.1647449231E-04   0.0000000000E+00  -0.4679900220E-03  -0.4679900220E-03   0.9811481635E+00  -0.1159864961E+00  -0.1159864961E+00   0.1022698962E-01   0.1022698962E-01   0.1364548934E-06   0.2240594952E-03   0.1097993098E+01
   0.2003600000E+01   0.2965396229E-03   0.2965396229E-03   0.1000000000E-03   0.1586526731E-04   0.1586526731E-04   0.3500000000E-02   0.2806743556E-03   0.2806743556E-03   0.1060215640E+01   0.2737759560E-01   0.2737759560E-01  -0.9185183385E-02  -0.9185183385E-02   0.1174024747E-06   0.1389992001E-03   0.1033575830E+01
   0.2003600000E+01   0.9997034604E+00   0.2965396229E-03   0.1000000000E-03  -0.1586526731E-04   0.1586526731E-04   0.3500000000E-02  -0.2806743555E-03   0.2806743556E-03   0.1060215640E+01   0.2737759560E-01   0.2737759560E-01   0.9185183389E-02  -0.9185183385E-02  -0.1174016847E-06   0.1389992000E-03   0.1033575830E+01
   0.2003600000E+01   0.2965396229E-03   0.9997034604E+00   0.1000000000E-03   0.1586526731E-04  -0.1586526731E-04   0.3500000000E-02   0.2806743556E-03  -0.2806743555E-03   0.1060215640E+01   0.2737759560E-01   0.2737759560E-01  -0.9185183385E-02   0.9185183389E-02  -0.1174016847E-06   0.1389992000E-03   0.1033575830E+01
   0.2003600000E+01   0.9997034604E+00   0.9997034604E+00   0.1000000000E-03  -0.1586526731E-04  -0.1586526731E-04   0.3500000000E-02  -0.2806743555E-03  -0.2806743555E-03   0.1060215640E+01   0.2737759560E-01   0.2737759560E-01   0.9185183388E-02   0.9185183388E-02   0.1174008948E-06   0.1389992000E-03   0.1033575830E+01
     1     2     3     4     5     6     7     8
     2     9    10     3     6    11    12     7
 VARIABLES = X,Y,Z,DU1,DU2,DU3,U1,U2,U3,S11,S22,S33,S12,S13,S23,Vf,SMISES
 ZONE, T="0.3700D+00" F=FEPOINT, I=   12 J=    2 ET=BRICK
   0.0000000000E+00   0.4987745769E-03   0.4987745769E-03   0.0000000000E+00   0.1431006260E-04   0.1431006260E-04   0.0000000000E+00   0.4844645143E-03   0.4844645143E-03   0.9904054735E+00  -0.1042535327E+00  -0.1042535327E+00  -0.9777844933E-02  -0.9777844933E-02   0.1339769283E-06   0.2434455800E-03   0.1095445489E+01
   0.1002021437E+01   0.3685732643E-03   0.3685732643E-03   0.7306863749E-04   0.1311249644E-04   0.1311249644E-04   0.1948368279E-02   0.3554607679E-03   0.3554607679E-03   0.1009392507E+01  -0.5495956395E-01  -0.5495956395E-01  -0.9028017334E-02  -0.9028017334E-02   0.1138179416E-06   0.1910018186E-03   0.1065049668E+01
   0.1002021437E+01   0.9996314267E+00   0.3685732643E-03   0.7306863749E-04  -0.1311249644E-04   0.1311249644E-04   0.1948368279E-02  -0.3554607679E-03   0.3554607679E-03   0.1009392507E+01  -0.5495956395E-01  -0.5495956395E-01   0.9028017335E-02  -0.9028017333E-02  -0.1138177968E-06   0.1910018186E-03   0.1065049668E+01
   0.0000000000E+00   0.9995012254E+00   0.4987745769E-03   0.0000000000E+00  -0.1431006260E-04   0.1431006260E-04   0.0000000000E+00  -0.4844645144E-03   0.4844645143E-03   0.9904054735E+00  -0.1042535327E+00  -0.1042535327E+00   0.9777844937E-02  -0.9777844933E-02  -0.1339773108E-06   0.2434455800E-03   0.1095445489E+01
   0.0000000000E+00   0.4987745769E-03   0.9995012254E+00   0.0000000000E+00   0.1431006260E-04  -0.1431006260E-04   0.0000000000E+00   0.4844645143E-03  -0.4844645144E-03   0.9904054735E+00  -0.1042535327E+00  -0.1042535327E+00  -0.9777844933E-02   0.9777844937E-02  -0.1339773108E-06   0.2434455800E-03   0.1095445489E+01
   0.1002021437E+01   0.3685732643E-03   0.9996314267E+00   0.7306863749E-04   0.1311249644E-04  -0.1311249644E-04   0.1948368279E-02   0.3554607679E-03  -0.3554607679E-03   0.1009392507E+01  -0.5495956395E-01  -0.5495956395E-01  -0.9028017333E-02   0.9028017335E-02  -0.1138177968E-06   0.1910018186E-03   0.1065049668E+01
   0.1002021437E+01   0.9996314267E+00   0.9996314267E+00   0.7306863749E-04  -0.1311249644E-04  -0.1311249644E-04   0.1948368279E-02  -0.3554607679E-03  -0.3554607679E-03   0.1009392507E+01  -0.5495956395E-01  -0.5495956395E-01   0.9028017335E-02   0.9028017335E-02   0.1138176520E-06   0.1910018186E-03   0.1065049668E+01
   0.0000000000E+00   0.9995012254E+00   0.9995012254E+00   0.0000000000E+00  -0.1431006260E-04  -0.1431006260E-04   0.0000000000E+00  -0.4844645143E-03  -0.4844645143E-03   0.9904054734E+00  -0.1042535327E+00  -0.1042535327E+00   0.9777844936E-02   0.9777844936E-02   0.1339776933E-06   0.2434455800E-03   0.1095445489E+01
   0.2003700000E+01   0.3121185136E-03   0.3121185136E-03   0.1000000000E-03   0.1557889072E-04   0.1557889072E-04   0.3600000000E-02   0.2965396229E-03   0.2965396229E-03   0.1028518490E+01  -0.5738287221E-02  -0.5738287221E-02  -0.8638765031E-02  -0.8638765031E-02   0.1082406324E-06   0.1484507115E-03   0.1034908579E+01
   0.2003700000E+01   0.9996878815E+00   0.3121185136E-03   0.1000000000E-03  -0.1557889072E-04   0.1557889072E-04   0.3600000000E-02  -0.2965396229E-03   0.2965396229E-03   0.1028518490E+01  -0.5738287220E-02  -0.5738287222E-02   0.8638765035E-02  -0.8638765031E-02  -0.1082399066E-06   0.1484507115E-03   0.1034908579E+01
   0.2003700000E+01   0.3121185136E-03   0.9996878815E+00   0.1000000000E-03   0.1557889072E-04  -0.1557889072E-04   0.3600000000E-02   0.2965396229E-03  -0.2965396229E-03   0.1028518490E+01  -0.5738287222E-02  -0.5738287220E-02  -0.8638765031E-02   0.8638765035E-02  -0.1082399066E-06   0.1484507115E-03   0.1034908579E+01
   0.2003700000E+01   0.9996878815E+00   0.9996878815E+00   0.1000000000E-03  -0.1557889072E-04  -0.1557889072E-04   0.3600000000E-02  -0.2965396229E-03  -0.2965396229E-03   0.1028518490E+01  -0.5738287220E-02  -0.5738287220E-02   0.8638765035E-02   0.8638765035E-02   0.1082391808E-06   0.1484507115E-03   0.1034908578E+01
     1     2     3     4     5     6     7     8
     2     9    10     3     6    11    12     7
 VARIABLES = X,Y,Z,DU1,DU2,DU3,U1,U2,U3,S11,S22,S33,S12,S13,S23,Vf,SMISES
 ZONE, T="0.3800D+00" F=FEPOINT, I=   12 J=    2 ET=BRICK
   0.0000000000E+00   0.5113726944E-03   0.5113726944E-03   0.0000000000E+00   0.1259811748E-04   0.1259811748E-04   0.0000000000E+00   0.4987745769E-03   0.4987745769E-03   0.1006180775E+01  -0.8564222997E-01  -0.8564222997E-01  -0.9261754699E-02  -0.9261754699E-02   0.1286299222E-06   0.2622677012E-03   0.1092530507E+01
   0.1002094213E+01   0.3804367891E-03   0.3804367891E-03   0.7277641755E-04   0.1186352478E-04   0.1186352478E-04   0.2021436917E-02   0.3685732643E-03   0.3685732643E-03   0.1002142678E+01  -0.6054007105E-01  -0.6054007105E-01  -0.8458443703E-02  -0.8458443703E-02   0.1062064556E-06   0.2050031597E-03   0.1063297839E+01
   0.1002094213E+01   0.9996195632E+00   0.3804367891E-03   0.7277641755E-04  -0.1186352478E-04   0.1186352478E-04   0.2021436917E-02  -0.3685732643E-03   0.3685732643E-03   0.1002142678E+01  -0.6054007105E-01  -0.6054007105E-01   0.8458443705E-02  -0.8458443702E-02  -0.1062062947E-06   0.2050031597E-03   0.1063297839E+01
   0.0000000000E+00   0.9994886273E+00   0.5113726944E-03   0.0000000000E+00  -0.1259811748E-04   0.1259811748E-04   0.0000000000E+00  -0.4987745770E-03   0.4987745769E-03   0.1006180775E+01  -0.8564222997E-01  -0.8564222997E-01   0.9261754703E-02  -0.9261754699E-02  -0.1286302179E-06   0.2622677012E-03   0.1092530507E+01
   0.0000000000E+00   0.5113726944E-03   0.9994886273E+00   0.0000000000E+00   0.1259811748E-04  -0.1259811748E-04   0.0000000000E+00   0.4987745769E-03  -0.4987745770E-03   0.1006180775E+01  -0.8564222997E-01  -0.8564222997E-01  -0.9261754699E-02   0.9261754703E-02  -0.1286302179E-06   0.2622677012E-03   0.1092530507E+01
   0.1002094213E+01   0.3804367891E-03   0.9996195632E+00   0.7277641755E-04   0.1186352478E-04  -0.1186352478E-04   0.2021436917E-02   0.3685732643E-03  -0.3685732643E-03   0.1002142678E+01  -0.6054007105E-01  -0.6054007105E-01  -0.8458443702E-02   0.8458443705E-02  -0.1062062947E-06   0.2050031597E-03   0.1063297839E+01
   0.1002094213E+01   0.9996195632E+00   0.9996195632E+00   0.7277641755E-04  -0.1186352478E-04  -0.1186352478E-04   0.2021436917E-02  -0.3685732643E-03  -0.3685732643E-03   0.1002142678E+01  -0.6054007105E-01  -0.6054007105E-01   0.8458443705E-02   0.8458443705E-02   0.1062061337E-06   0.2050031597E-03   0.1063297839E+01
   0.0000000000E+00   0.9994886273E+00   0.9994886273E+00   0.0000000000E+00  -0.1259811748E-04  -0.1259811748E-04   0.0000000000E+00  -0.4987745769E-03  -0.4987745769E-03   0.1006180775E+01  -0.8564222996E-01  -0.8564222996E-01   0.9261754703E-02   0.9261754703E-02   0.1286305136E-06   0.2622677011E-03   0.1092530507E+01
   0.2003800000E+01   0.3268273654E-03   0.3268273654E-03   0.1000000000E-03   0.1470885183E-04   0.1470885183E-04   0.3700000000E-02   0.3121185136E-03   0.3121185136E-03   0.9987719741E+00  -0.3577600485E-01  -0.3577600485E-01  -0.8004194032E-02  -0.8004194032E-02   0.9720166809E-07   0.1579325107E-03   0.1035107508E+01
   0.2003800000E+01   0.9996731726E+00   0.3268273654E-03   0.1000000000E-03  -0.1470885183E-04   0.1470885183E-04   0.3700000000E-02  -0.3121185136E-03   0.3121185136E-03   0.9987719741E+00  -0.3577600485E-01  -0.3577600485E-01   0.8004194036E-02  -0.8004194031E-02  -0.9720100337E-07   0.1579325107E-03   0.1035107508E+01
   0.2003800000E+01   0.3268273654E-03   0.9996731726E+00   0.1000000000E-03   0.1470885183E-04  -0.1470885183E-04   0.3700000000E-02   0.3121185136E-03  -0.3121185136E-03   0.9987719741E+00  -0.3577600485E-01  -0.3577600485E-01  -0.8004194031E-02   0.8004194036E-02  -0.9720100337E-07   0.1579325107E-03   0.1035107508E+01
   0.2003800000E+01   0.9996731726E+00   0.9996731726E+00   0.1000000000E-03  -0.1470885183E-04  -0.1470885183E-04   0.3700000000E-02  -0.3121185136E-03  -0.3121185136E-03   0.9987719740E+00  -0.3577600485E-01  -0.3577600485E-01   0.8004194035E-02   0.8004194035E-02   0.9720033870E-07   0.1579325107E-03   0.1035107508E+01
     1     2     3     4     5     6     7     8
     2     9    10     3     6    11    12     7
 VARIABLES = X,Y,Z,DU1,DU2,DU3,U1,U2,U3,S11,S22,S33,S12,S13,S23,Vf,SMISES
 ZONE, T="0.3900D+00" F=FEPOINT, I=   12 J=    2 ET=BRICK
   0.0000000000E+00   0.5228096216E-03   0.5228096216E-03   0.0000000000E+00   0.1143692720E-04   0.1143692720E-04   0.0000000000E+00   0.5113726944E-03   0.5113726944E-03   0.1027339406E+01  -0.6144784647E-01  -0.6144784647E-01  -0.8742191001E-02  -0.8742191001E-02   0.1223408399E-06   0.2804993266E-03   0.1089419376E+01
   0.1002166215E+01   0.3910950992E-03   0.3910950992E-03   0.7200188508E-04   0.1065831008E-04   0.1065831008E-04   0.2094213334E-02   0.3804367891E-03   0.3804367891E-03   0.9995544476E+00  -0.6098261703E-01  -0.6098261703E-01  -0.7877816625E-02  -0.7877816625E-02   0.9809610993E-07   0.2186581201E-03   0.1061073801E+01
   0.1002166215E+01   0.9996089049E+00   0.3910950992E-03   0.7200188508E-04  -0.1065831008E-04   0.1065831008E-04   0.2094213334E-02  -0.3804367891E-03   0.3804367891E-03   0.9995544476E+00  -0.6098261703E-01  -0.6098261703E-01   0.7877816628E-02  -0.7877816624E-02  -0.9809592409E-07   0.2186581200E-03   0.1061073801E+01
   0.0000000000E+00   0.9994771904E+00   0.5228096216E-03   0.0000000000E+00  -0.1143692720E-04   0.1143692720E-04   0.0000000000E+00  -0.5113726944E-03   0.5113726944E-03   0.1027339406E+01  -0.6144784647E-01  -0.6144784647E-01   0.8742191005E-02  -0.8742191001E-02  -0.1223410396E-06   0.2804993266E-03   0.1089419376E+01
   0.0000000000E+00   0.5228096216E-03   0.9994771904E+00   0.0000000000E+00   0.1143692720E-04  -0.1143692720E-04   0.0000000000E+00   0.5113726944E-03  -0.5113726944E-03   0.1027339406E+01  -0.6144784647E-01  -0.6144784647E-01  -0.8742191001E-02   0.8742191005E-02  -0.1223410396E-06   0.2804993266E-03   0.1089419376E+01
   0.1002166215E+01   0.3910950992E-03   0.9996089049E+00   0.7200188508E-04   0.1065831008E-04  -0.1065831008E-04   0.2094213334E-02   0.3804367891E-03  -0.3804367891E-03   0.9995544476E+00  -0.6098261703E-01  -0.6098261703E-01  -0.7877816624E-02   0.7877816628E-02  -0.9809592410E-07   0.2186581200E-03   0.1061073801E+01
   0.1002166215E+01   0.9996089049E+00   0.9996089049E+00   0.7200188508E-04  -0.1065831008E-04  -0.1065831008E-04   0.2094213334E-02  -0.3804367891E-03  -0.3804367891E-03   0.9995544475E+00  -0.6098261702E-01  -0.6098261702E-01   0.7877816627E-02   0.7877816627E-02   0.9809573823E-07   0.2186581200E-03   0.1061073801E+01
   0.0000000000E+00   0.9994771904E+00   0.9994771904E+00   0.0000000000E+00  -0.1143692720E-04  -0.1143692720E-04   0.0000000000E+00  -0.5113726944E-03  -0.5113726944E-03   0.1027339406E+01  -0.6144784647E-01  -0.6144784647E-01   0.8742191005E-02   0.8742191005E-02   0.1223412394E-06   0.2804993266E-03   0.1089419376E+01
   0.2003900000E+01   0.3401946002E-03   0.3401946002E-03   0.1000000000E-03   0.1336723472E-04   0.1336723472E-04   0.3800000000E-02   0.3268273654E-03   0.3268273654E-03   0.9728517739E+00  -0.6106428558E-01  -0.6106428558E-01  -0.7350892861E-02  -0.7350892861E-02   0.8614512294E-07   0.1673337289E-03   0.1034388416E+01
   0.2003900000E+01   0.9996598054E+00   0.3401946002E-03   0.1000000000E-03  -0.1336723471E-04   0.1336723471E-04   0.3800000000E-02  -0.3268273654E-03   0.3268273654E-03   0.9728517739E+00  -0.6106428558E-01  -0.6106428558E-01   0.7350892865E-02  -0.7350892860E-02  -0.8614451198E-07   0.1673337289E-03   0.1034388415E+01
   0.2003900000E+01   0.3401946002E-03   0.9996598054E+00   0.1000000000E-03   0.1336723471E-04  -0.1336723471E-04   0.3800000000E-02   0.3268273654E-03  -0.3268273654E-03   0.9728517739E+00  -0.6106428558E-01  -0.6106428558E-01  -0.7350892860E-02   0.7350892865E-02  -0.8614451198E-07   0.1673337289E-03   0.1034388415E+01
   0.2003900000E+01   0.9996598054E+00   0.9996598054E+00   0.1000000000E-03  -0.1336723471E-04  -0.1336723471E-04   0.3800000000E-02  -0.3268273654E-03  -0.3268273654E-03   0.9728517738E+00  -0.6106428558E-01  -0.6106428558E-01   0.7350892865E-02   0.7350892865E-02   0.8614390105E-07   0.1673337289E-03   0.1034388415E+01
     1     2     3     4     5     6     7     8
     2     9    10     3     6    11    12     7
 VARIABLES = X,Y,Z,DU1,DU2,DU3,U1,U2,U3,S11,S22,S33,S12,S13,S23,Vf,SMISES
 ZONE, T="0.4000D+00" F=FEPOINT, I=   12 J=    2 ET=BRICK
   0.0000000000E+00   0.5336953183E-03   0.5336953183E-03   0.0000000000E+00   0.1088569668E-04   0.1088569668E-04   0.0000000000E+00   0.5228096216E-03   0.5228096216E-03   0.1052358027E+01  -0.3336622352E-01  -0.3336622352E-01  -0.8276745957E-02  -0.8276745957E-02   0.1166739369E-06   0.2981509581E-03   0.1086292467E+01
   0.1002236992E+01   0.4006879077E-03   0.4006879077E-03   0.7077694953E-04   0.9592808502E-05   0.9592808502E-05   0.2166215219E-02   0.3910950992E-03   0.3910950992E-03   0.1001600654E+01  -0.5651851605E-01  -0.5651851605E-01  -0.7347078310E-02  -0.7347078310E-02   0.9094118011E-07   0.2319310376E-03   0.1058589424E+01
   0.1002236992E+01   0.9995993121E+00   0.4006879077E-03   0.7077694953E-04  -0.9592808502E-05   0.9592808503E-05   0.2166215219E-02  -0.3910950992E-03   0.3910950992E-03   0.1001600654E+01  -0.5651851605E-01  -0.5651851605E-01   0.7347078313E-02  -0.7347078309E-02  -0.9094096164E-07   0.2319310376E-03   0.1058589424E+01
   0.0000000000E+00   0.9994663047E+00   0.5336953183E-03   0.0000000000E+00  -0.1088569668E-04   0.1088569668E-04   0.0000000000E+00  -0.5228096216E-03   0.5228096216E-03   0.1052358027E+01  -0.3336622352E-01  -0.3336622352E-01   0.8276745962E-02  -0.8276745957E-02  -0.1166740360E-06   0.2981509581E-03   0.1086292467E+01
   0.0000000000E+00   0.5336953183E-03   0.9994663047E+00   0.0000000000E+00   0.1088569668E-04  -0.1088569668E-04   0.0000000000E+00   0.5228096216E-03  -0.5228096216E-03   0.1052358027E+01  -0.3336622352E-01  -0.3336622352E-01  -0.8276745957E-02   0.8276745962E-02  -0.1166740361E-06   0.2981509581E-03   0.1086292467E+01
   0.1002236992E+01   0.4006879077E-03   0.9995993121E+00   0.7077694953E-04   0.9592808503E-05  -0.9592808502E-05   0.2166215219E-02   0.3910950992E-03  -0.3910950992E-03   0.1001600654E+01  -0.5651851605E-01  -0.5651851605E-01  -0.7347078309E-02   0.7347078313E-02  -0.9094096165E-07   0.2319310376E-03   0.1058589424E+01
   0.1002236992E+01   0.9995993121E+00   0.9995993121E+00   0.7077694953E-04  -0.9592808502E-05  -0.9592808502E-05   0.2166215219E-02  -0.3910950992E-03  -0.3910950992E-03   0.1001600654E+01  -0.5651851605E-01  -0.5651851605E-01   0.7347078312E-02   0.7347078312E-02   0.9094074316E-07   0.2319310376E-03   0.1058589424E+01
   0.0000000000E+00   0.9994663047E+00   0.9994663047E+00   0.0000000000E+00  -0.1088569668E-04  -0.1088569668E-04   0.0000000000E+00  -0.5228096216E-03  -0.5228096216E-03   0.1052358027E+01  -0.3336622352E-01  -0.3336622352E-01   0.8276745961E-02   0.8276745961E-02   0.1166741352E-06   0.2981509581E-03   0.1086292466E+01
   0.2004000000E+01   0.3518822069E-03   0.3518822069E-03   0.1000000000E-03   0.1168760676E-04   0.1168760676E-04   0.3900000000E-02   0.3401946002E-03   0.3401946002E-03   0.9522299987E+00  -0.8037146311E-01  -0.8037146311E-01  -0.6743237591E-02  -0.6743237591E-02   0.7647443281E-07   0.1765743994E-03   0.1032999602E+01
   0.2004000000E+01   0.9996481178E+00   0.3518822069E-03   0.1000000000E-03  -0.1168760676E-04   0.1168760676E-04   0.3900000000E-02  -0.3401946001E-03   0.3401946002E-03   0.9522299987E+00  -0.8037146310E-01  -0.8037146310E-01   0.6743237596E-02  -0.6743237591E-02  -0.7647386527E-07   0.1765743994E-03   0.1032999602E+01
   0.2004000000E+01   0.3518822069E-03   0.9996481178E+00   0.1000000000E-03   0.1168760676E-04  -0.1168760676E-04   0.3900000000E-02   0.3401946002E-03  -0.3401946001E-03   0.9522299987E+00  -0.8037146310E-01  -0.8037146310E-01  -0.6743237591E-02   0.6743237596E-02  -0.7647386528E-07   0.1765743994E-03   0.1032999602E+01
   0.2004000000E+01   0.9996481178E+00   0.9996481178E+00   0.1000000000E-03  -0.1168760676E-04  -0.1168760676E-04   0.3900000000E-02  -0.3401946001E-03  -0.3401946001E-03   0.9522299986E+00  -0.8037146310E-01  -0.8037146310E-01   0.6743237595E-02   0.6743237595E-02   0.7647329777E-07   0.1765743994E-03   0.1032999602E+01
     1     2     3     4     5     6     7     8
     2     9    10     3     6    11    12     7
 VARIABLES = X,Y,Z,DU1,DU2,DU3,U1,U2,U3,S11,S22,S33,S12,S13,S23,Vf,SMISES
 ZONE, T="0.4100D+00" F=FEPOINT, I=   12 J=    2 ET=BRICK
   0.0000000000E+00   0.5446558622E-03   0.5446558622E-03   0.0000000000E+00   0.1096054393E-04   0.1096054393E-04   0.0000000000E+00   0.5336953183E-03   0.5336953183E-03   0.1079441375E+01  -0.3367137689E-02  -0.3367137689E-02  -0.7914627544E-02  -0.7914627544E-02   0.1127706549E-06   0.3152668870E-03   0.1083329501E+01
   0.1002306153E+01   0.4094347566E-03   0.4094347566E-03   0.6916046144E-04   0.8746848880E-05   0.8746848880E-05   0.2236992169E-02   0.4006879077E-03   0.4006879077E-03   0.1007883864E+01  -0.4776013497E-01  -0.4776013497E-01  -0.6919008460E-02  -0.6919008460E-02   0.8573565147E-07   0.2448200275E-03   0.1056064388E+01
   0.1002306153E+01   0.9995905652E+00   0.4094347566E-03   0.6916046144E-04  -0.8746848879E-05   0.8746848880E-05   0.2236992169E-02  -0.4006879077E-03   0.4006879077E-03   0.1007883864E+01  -0.4776013497E-01  -0.4776013497E-01   0.6919008464E-02  -0.6919008460E-02  -0.8573539448E-07   0.2448200275E-03   0.1056064388E+01
   0.0000000000E+00   0.9994553441E+00   0.5446558622E-03   0.0000000000E+00  -0.1096054393E-04   0.1096054393E-04   0.0000000000E+00  -0.5336953183E-03   0.5336953183E-03   0.1079441375E+01  -0.3367137688E-02  -0.3367137688E-02   0.7914627548E-02  -0.7914627543E-02  -0.1127706536E-06   0.3152668870E-03   0.1083329500E+01
   0.0000000000E+00   0.5446558622E-03   0.9994553441E+00   0.0000000000E+00   0.1096054393E-04  -0.1096054393E-04   0.0000000000E+00   0.5336953183E-03  -0.5336953183E-03   0.1079441375E+01  -0.3367137688E-02  -0.3367137688E-02  -0.7914627543E-02   0.7914627548E-02  -0.1127706536E-06   0.3152668870E-03   0.1083329500E+01
   0.1002306153E+01   0.4094347566E-03   0.9995905652E+00   0.6916046144E-04   0.8746848880E-05  -0.8746848879E-05   0.2236992169E-02   0.4006879077E-03  -0.4006879077E-03   0.1007883864E+01  -0.4776013497E-01  -0.4776013497E-01  -0.6919008460E-02   0.6919008464E-02  -0.8573539449E-07   0.2448200275E-03   0.1056064388E+01
   0.1002306153E+01   0.9995905652E+00   0.9995905652E+00   0.6916046144E-04  -0.8746848880E-05  -0.8746848880E-05   0.2236992169E-02  -0.4006879077E-03  -0.4006879077E-03   0.1007883864E+01  -0.4776013497E-01  -0.4776013497E-01   0.6919008463E-02   0.6919008463E-02   0.8573513746E-07   0.2448200275E-03   0.1056064388E+01
   0.0000000000E+00   0.9994553441E+00   0.9994553441E+00   0.0000000000E+00  -0.1096054393E-04  -0.1096054393E-04   0.0000000000E+00  -0.5336953183E-03  -0.5336953183E-03   0.1079441375E+01  -0.3367137688E-02  -0.3367137688E-02   0.7914627548E-02   0.7914627548E-02   0.1127706523E-06   0.3152668870E-03   0.1083329500E+01
   0.2004100000E+01   0.3616967788E-03   0.3616967788E-03   0.1000000000E-03   0.9814571893E-05   0.9814571893E-05   0.4000000000E-02   0.3518822069E-03   0.3518822069E-03   0.9379103245E+00  -0.9295415343E-01  -0.9295415343E-01  -0.6237477895E-02  -0.6237477895E-02   0.6907644474E-07   0.1856082480E-03   0.1031205825E+01
   0.2004100000E+01   0.9996383032E+00   0.3616967788E-03   0.1000000000E-03  -0.9814571892E-05   0.9814571893E-05   0.4000000000E-02  -0.3518822069E-03   0.3518822069E-03   0.9379103245E+00  -0.9295415343E-01  -0.9295415343E-01   0.6237477900E-02  -0.6237477895E-02  -0.6907590882E-07   0.1856082480E-03   0.1031205824E+01
   0.2004100000E+01   0.3616967788E-03   0.9996383032E+00   0.1000000000E-03   0.9814571893E-05  -0.9814571892E-05   0.4000000000E-02   0.3518822069E-03  -0.3518822069E-03   0.9379103245E+00  -0.9295415343E-01  -0.9295415343E-01  -0.6237477895E-02   0.6237477900E-02  -0.6907590882E-07   0.1856082480E-03   0.1031205824E+01
   0.2004100000E+01   0.9996383032E+00   0.9996383032E+00   0.1000000000E-03  -0.9814571891E-05  -0.9814571891E-05   0.4000000000E-02  -0.3518822069E-03  -0.3518822069E-03   0.9379103244E+00  -0.9295415342E-01  -0.9295415342E-01   0.6237477900E-02   0.6237477900E-02   0.6907537292E-07   0.1856082480E-03   0.1031205824E+01
     1     2     3     4     5     6     7     8
     2     9    10     3     6    11    12     7
 VARIABLES = X,Y,Z,DU1,DU2,DU3,U1,U2,U3,S11,S22,S33,S12,S13,S23,Vf,SMISES
 ZONE, T="0.4200D+00" F=FEPOINT, I=   12 J=    2 ET=BRICK
   0.0000000000E+00   0.5562895169E-03   0.5562895169E-03   0.0000000000E+00   0.1163365467E-04   0.1163365467E-04   0.0000000000E+00   0.5446558622E-03   0.5446558622E-03   0.1106656547E+01   0.2645240211E-01   0.2645240211E-01  -0.7694530531E-02  -0.7694530531E-02   0.1114018820E-06   0.3319200869E-03   0.1080697743E+01
   0.1002373386E+01   0.4176132899E-03   0.4176132899E-03   0.6723372875E-04   0.8178533294E-05   0.8178533294E-05   0.2306152630E-02   0.4094347566E-03   0.4094347566E-03   0.1017690278E+01  -0.3563324166E-01  -0.3563324166E-01  -0.6635915880E-02  -0.6635915880E-02   0.8307783749E-07   0.2573541831E-03   0.1053713156E+01
   0.1002373386E+01   0.9995823867E+00   0.4176132899E-03   0.6723372875E-04  -0.8178533293E-05   0.8178533294E-05   0.2306152630E-02  -0.4094347566E-03   0.4094347566E-03   0.1017690278E+01  -0.3563324166E-01  -0.3563324166E-01   0.6635915884E-02  -0.6635915879E-02  -0.8307753862E-07   0.2573541831E-03   0.1053713156E+01
   0.0000000000E+00   0.9994437105E+00   0.5562895169E-03   0.0000000000E+00  -0.1163365467E-04   0.1163365467E-04   0.0000000000E+00  -0.5446558622E-03   0.5446558622E-03   0.1106656547E+01   0.2645240211E-01   0.2645240211E-01   0.7694530535E-02  -0.7694530530E-02  -0.1114017854E-06   0.3319200869E-03   0.1080697743E+01
   0.0000000000E+00   0.5562895169E-03   0.9994437105E+00   0.0000000000E+00   0.1163365467E-04  -0.1163365467E-04   0.0000000000E+00   0.5446558622E-03  -0.5446558622E-03   0.1106656547E+01   0.2645240211E-01   0.2645240211E-01  -0.7694530530E-02   0.7694530535E-02  -0.1114017854E-06   0.3319200869E-03   0.1080697743E+01
   0.1002373386E+01   0.4176132899E-03   0.9995823867E+00   0.6723372875E-04   0.8178533294E-05  -0.8178533293E-05   0.2306152630E-02   0.4094347566E-03  -0.4094347566E-03   0.1017690278E+01  -0.3563324166E-01  -0.3563324166E-01  -0.6635915879E-02   0.6635915884E-02  -0.8307753863E-07   0.2573541831E-03   0.1053713156E+01
   0.1002373386E+01   0.9995823867E+00   0.9995823867E+00   0.6723372875E-04  -0.8178533293E-05  -0.8178533293E-05   0.2306152630E-02  -0.4094347566E-03  -0.4094347566E-03   0.1017690278E+01  -0.3563324166E-01  -0.3563324166E-01   0.6635915883E-02   0.6635915883E-02   0.8307723973E-07   0.2573541831E-03   0.1053713156E+01
   0.0000000000E+00   0.9994437105E+00   0.9994437105E+00   0.0000000000E+00  -0.1163365467E-04  -0.1163365467E-04   0.0000000000E+00  -0.5446558622E-03  -0.5446558622E-03   0.1106656547E+01   0.2645240211E-01   0.2645240211E-01   0.7694530535E-02   0.7694530535E-02   0.1114016887E-06   0.3319200869E-03   0.1080697743E+01
   0.2004200000E+01   0.3695902007E-03   0.3695902007E-03   0.1000000000E-03   0.7893421907E-05   0.7893421907E-05   0.4100000000E-02   0.3616967788E-03   0.3616967788E-03   0.9304014879E+00  -0.9856864577E-01  -0.9856864577E-01  -0.5879264990E-02  -0.5879264990E-02   0.6439915949E-07   0.1944221469E-03   0.1029274020E+01
   0.2004200000E+01   0.9996304098E+00   0.3695902007E-03   0.1000000000E-03  -0.7893421906E-05   0.7893421907E-05   0.4100000000E-02  -0.3616967788E-03   0.3616967788E-03   0.9304014879E+00  -0.9856864577E-01  -0.9856864577E-01   0.5879264996E-02  -0.5879264990E-02  -0.6439864322E-07   0.1944221469E-03   0.1029274020E+01
   0.2004200000E+01   0.3695902007E-03   0.9996304098E+00   0.1000000000E-03   0.7893421907E-05  -0.7893421906E-05   0.4100000000E-02   0.3616967788E-03  -0.3616967788E-03   0.9304014879E+00  -0.9856864577E-01  -0.9856864577E-01  -0.5879264990E-02   0.5879264996E-02  -0.6439864322E-07   0.1944221469E-03   0.1029274020E+01
   0.2004200000E+01   0.9996304098E+00   0.9996304098E+00   0.1000000000E-03  -0.7893421906E-05  -0.7893421906E-05   0.4100000000E-02  -0.3616967788E-03  -0.3616967788E-03   0.9304014879E+00  -0.9856864576E-01  -0.9856864576E-01   0.5879264995E-02   0.5879264995E-02   0.6439812697E-07   0.1944221469E-03   0.1029274020E+01
     1     2     3     4     5     6     7     8
     2     9    10     3     6    11    12     7
 VARIABLES = X,Y,Z,DU1,DU2,DU3,U1,U2,U3,S11,S22,S33,S12,S13,S23,Vf,SMISES
 ZONE, T="0.4300D+00" F=FEPOINT, I=   12 J=    2 ET=BRICK
   0.0000000000E+00   0.5691251782E-03   0.5691251782E-03   0.0000000000E+00   0.1283566128E-04   0.1283566128E-04   0.0000000000E+00   0.5562895169E-03   0.5562895169E-03   0.1132074790E+01   0.5402349093E-01   0.5402349093E-01  -0.7642953163E-02  -0.7642953163E-02   0.1130838482E-06   0.3482057001E-03   0.1078539263E+01
   0.1002438481E+01   0.4255339595E-03   0.4255339595E-03   0.6509483157E-04   0.7920669611E-05   0.7920669611E-05   0.2373386359E-02   0.4176132899E-03   0.4176132899E-03   0.1030064636E+01  -0.2128688791E-01  -0.2128688791E-01  -0.6527820749E-02  -0.6527820749E-02   0.8330899646E-07   0.2695890716E-03   0.1051730755E+01
   0.1002438481E+01   0.9995744660E+00   0.4255339595E-03   0.6509483157E-04  -0.7920669611E-05   0.7920669611E-05   0.2373386359E-02  -0.4176132899E-03   0.4176132899E-03   0.1030064636E+01  -0.2128688790E-01  -0.2128688791E-01   0.6527820753E-02  -0.6527820749E-02  -0.8330865538E-07   0.2695890716E-03   0.1051730755E+01
   0.0000000000E+00   0.9994308748E+00   0.5691251782E-03   0.0000000000E+00  -0.1283566128E-04   0.1283566128E-04   0.0000000000E+00  -0.5562895169E-03   0.5562895169E-03   0.1132074790E+01   0.5402349092E-01   0.5402349092E-01   0.7642953168E-02  -0.7642953163E-02  -0.1130836661E-06   0.3482057001E-03   0.1078539263E+01
   0.0000000000E+00   0.5691251782E-03   0.9994308748E+00   0.0000000000E+00   0.1283566128E-04  -0.1283566128E-04   0.0000000000E+00   0.5562895169E-03  -0.5562895169E-03   0.1132074790E+01   0.5402349092E-01   0.5402349092E-01  -0.7642953163E-02   0.7642953168E-02  -0.1130836661E-06   0.3482057001E-03   0.1078539263E+01
   0.1002438481E+01   0.4255339595E-03   0.9995744660E+00   0.6509483157E-04   0.7920669611E-05  -0.7920669611E-05   0.2373386359E-02   0.4176132899E-03  -0.4176132899E-03   0.1030064636E+01  -0.2128688791E-01  -0.2128688790E-01  -0.6527820749E-02   0.6527820753E-02  -0.8330865539E-07   0.2695890716E-03   0.1051730755E+01
   0.1002438481E+01   0.9995744660E+00   0.9995744660E+00   0.6509483157E-04  -0.7920669611E-05  -0.7920669611E-05   0.2373386359E-02  -0.4176132899E-03  -0.4176132899E-03   0.1030064636E+01  -0.2128688790E-01  -0.2128688790E-01   0.6527820753E-02   0.6527820753E-02   0.8330831428E-07   0.2695890716E-03   0.1051730755E+01
   0.0000000000E+00   0.9994308748E+00   0.9994308748E+00   0.0000000000E+00  -0.1283566128E-04  -0.1283566128E-04   0.0000000000E+00  -0.5562895169E-03  -0.5562895169E-03   0.1132074790E+01   0.5402349092E-01   0.5402349092E-01   0.7642953168E-02   0.7642953168E-02   0.1130834840E-06   0.3482057001E-03   0.1078539263E+01
   0.2004300000E+01   0.3756507981E-03   0.3756507981E-03   0.1000000000E-03   0.6060597346E-05   0.6060597346E-05   0.4200000000E-02   0.3695902007E-03   0.3695902007E-03   0.9297264176E+00  -0.9744655229E-01  -0.9744655229E-01  -0.5701756555E-02  -0.5701756555E-02   0.6261400021E-07   0.2030331222E-03   0.1027459273E+01
   0.2004300000E+01   0.9996243492E+00   0.3756507981E-03   0.1000000000E-03  -0.6060597345E-05   0.6060597346E-05   0.4200000000E-02  -0.3695902007E-03   0.3695902007E-03   0.9297264175E+00  -0.9744655229E-01  -0.9744655229E-01   0.5701756560E-02  -0.5701756555E-02  -0.6261349275E-07   0.2030331222E-03   0.1027459273E+01
   0.2004300000E+01   0.3756507981E-03   0.9996243492E+00   0.1000000000E-03   0.6060597346E-05  -0.6060597345E-05   0.4200000000E-02   0.3695902007E-03  -0.3695902007E-03   0.9297264175E+00  -0.9744655229E-01  -0.9744655229E-01  -0.5701756555E-02   0.5701756560E-02  -0.6261349276E-07   0.2030331222E-03   0.1027459273E+01
   0.2004300000E+01   0.9996243492E+00   0.9996243492E+00   0.1000000000E-03  -0.6060597345E-05  -0.6060597345E-05   0.4200000000E-02  -0.3695902007E-03  -0.3695902007E-03   0.9297264175E+00  -0.9744655229E-01  -0.9744655229E-01   0.5701756560E-02   0.5701756560E-02   0.6261298531E-07   0.2030331222E-03   0.1027459273E+01
     1     2     3     4     5     6     7     8
     2     9    10     3     6    11    12     7
 VARIABLES = X,Y,Z,DU1,DU2,DU3,U1,U2,U3,S11,S22,S33,S12,S13,S23,Vf,SMISES
 ZONE, T="0.4400D+00" F=FEPOINT, I=   12 J=    2 ET=BRICK
   0.0000000000E+00   0.5835862223E-03   0.5835862223E-03   0.0000000000E+00   0.1446104411E-04   0.1446104411E-04   0.0000000000E+00   0.5691251782E-03   0.5691251782E-03   0.1153910461E+01   0.7745723157E-01   0.7745723157E-01  -0.7773065408E-02  -0.7773065408E-02   0.1182026969E-06   0.3642335665E-03   0.1076958678E+01
   0.1002501333E+01   0.4335133952E-03   0.4335133952E-03   0.6285211127E-04   0.7979435718E-05   0.7979435718E-05   0.2438481191E-02   0.4255339595E-03   0.4255339595E-03   0.1043898960E+01  -0.5989158504E-02  -0.5989158504E-02  -0.6611192917E-02  -0.6611192917E-02   0.8666641307E-07   0.2816010617E-03   0.1050278177E+01
   0.1002501333E+01   0.9995664866E+00   0.4335133952E-03   0.6285211127E-04  -0.7979435717E-05   0.7979435718E-05   0.2438481191E-02  -0.4255339595E-03   0.4255339595E-03   0.1043898960E+01  -0.5989158504E-02  -0.5989158504E-02   0.6611192921E-02  -0.6611192917E-02  -0.8666603269E-07   0.2816010617E-03   0.1050278177E+01
   0.0000000000E+00   0.9994164138E+00   0.5835862223E-03   0.0000000000E+00  -0.1446104411E-04   0.1446104411E-04   0.0000000000E+00  -0.5691251782E-03   0.5691251782E-03   0.1153910461E+01   0.7745723156E-01   0.7745723156E-01   0.7773065413E-02  -0.7773065408E-02  -0.1182024434E-06   0.3642335664E-03   0.1076958678E+01
   0.0000000000E+00   0.5835862223E-03   0.9994164138E+00   0.0000000000E+00   0.1446104411E-04  -0.1446104411E-04   0.0000000000E+00   0.5691251782E-03  -0.5691251782E-03   0.1153910461E+01   0.7745723156E-01   0.7745723156E-01  -0.7773065408E-02   0.7773065413E-02  -0.1182024435E-06   0.3642335664E-03   0.1076958678E+01
   0.1002501333E+01   0.4335133952E-03   0.9995664866E+00   0.6285211127E-04   0.7979435718E-05  -0.7979435717E-05   0.2438481191E-02   0.4255339595E-03  -0.4255339595E-03   0.1043898960E+01  -0.5989158504E-02  -0.5989158504E-02  -0.6611192917E-02   0.6611192921E-02  -0.8666603270E-07   0.2816010617E-03   0.1050278177E+01
   0.1002501333E+01   0.9995664866E+00   0.9995664866E+00   0.6285211127E-04  -0.7979435718E-05  -0.7979435718E-05   0.2438481190E-02  -0.4255339595E-03  -0.4255339595E-03   0.1043898960E+01  -0.5989158504E-02  -0.5989158504E-02   0.6611192921E-02   0.6611192921E-02   0.8666565227E-07   0.2816010617E-03   0.1050278177E+01
   0.0000000000E+00   0.9994164138E+00   0.9994164138E+00   0.0000000000E+00  -0.1446104411E-04  -0.1446104411E-04   0.0000000000E+00  -0.5691251782E-03  -0.5691251782E-03   0.1153910461E+01   0.7745723156E-01   0.7745723156E-01   0.7773065413E-02   0.7773065413E-02   0.1182021899E-06   0.3642335664E-03   0.1076958678E+01
   0.2004400000E+01   0.3800863546E-03   0.3800863546E-03   0.1000000000E-03   0.4435556543E-05   0.4435556543E-05   0.4300000000E-02   0.3756507981E-03   0.3756507981E-03   0.9354624253E+00  -0.9023902804E-01  -0.9023902804E-01  -0.5724309278E-02  -0.5724309278E-02   0.6379809019E-07   0.2114837484E-03   0.1025990347E+01
   0.2004400000E+01   0.9996199136E+00   0.3800863546E-03   0.1000000000E-03  -0.4435556542E-05   0.4435556543E-05   0.4300000000E-02  -0.3756507980E-03   0.3756507981E-03   0.9354624252E+00  -0.9023902803E-01  -0.9023902804E-01   0.5724309284E-02  -0.5724309278E-02  -0.6379758280E-07   0.2114837484E-03   0.1025990347E+01
   0.2004400000E+01   0.3800863546E-03   0.9996199136E+00   0.1000000000E-03   0.4435556543E-05  -0.4435556542E-05   0.4300000000E-02   0.3756507981E-03  -0.3756507980E-03   0.9354624252E+00  -0.9023902804E-01  -0.9023902803E-01  -0.5724309278E-02   0.5724309284E-02  -0.6379758280E-07   0.2114837484E-03   0.1025990347E+01
   0.2004400000E+01   0.9996199136E+00   0.9996199136E+00   0.1000000000E-03  -0.4435556542E-05  -0.4435556542E-05   0.4300000000E-02  -0.3756507980E-03  -0.3756507980E-03   0.9354624252E+00  -0.9023902803E-01  -0.9023902803E-01   0.5724309284E-02   0.5724309284E-02   0.6379707542E-07   0.2114837484E-03   0.1025990347E+01
     1     2     3     4     5     6     7     8
     2     9    10     3     6    11    12     7
 VARIABLES = X,Y,Z,DU1,DU2,DU3,U1,U2,U3,S11,S22,S33,S12,S13,S23,Vf,SMISES
 ZONE, T="0.4500D+00" F=FEPOINT, I=   12 J=    2 ET=BRICK
   0.0000000000E+00   0.5999623408E-03   0.5999623408E-03   0.0000000000E+00   0.1637611849E-04   0.1637611849E-04   0.0000000000E+00   0.5835862223E-03   0.5835862223E-03   0.1170647312E+01   0.9518143932E-01   0.9518143932E-01  -0.8084254155E-02  -0.8084254155E-02   0.1270987798E-06   0.3801201836E-03   0.1076013076E+01
   0.1002561951E+01   0.4418486737E-03   0.4418486737E-03   0.6061724780E-04   0.8335278482E-05   0.8335278482E-05   0.2501333302E-02   0.4335133952E-03   0.4335133952E-03   0.1058027594E+01   0.8981887813E-02   0.8981887813E-02  -0.6888341676E-02  -0.6888341676E-02   0.9339607610E-07   0.2934808942E-03   0.1049468891E+01
   0.1002561951E+01   0.9995581513E+00   0.4418486737E-03   0.6061724780E-04  -0.8335278481E-05   0.8335278482E-05   0.2501333302E-02  -0.4335133952E-03   0.4335133952E-03   0.1058027594E+01   0.8981887813E-02   0.8981887812E-02   0.6888341680E-02  -0.6888341676E-02  -0.9339566244E-07   0.2934808942E-03   0.1049468890E+01
   0.0000000000E+00   0.9994000377E+00   0.5999623408E-03   0.0000000000E+00  -0.1637611849E-04   0.1637611849E-04   0.0000000000E+00  -0.5835862223E-03   0.5835862223E-03   0.1170647312E+01   0.9518143932E-01   0.9518143932E-01   0.8084254160E-02  -0.8084254155E-02  -0.1270984722E-06   0.3801201835E-03   0.1076013076E+01
   0.0000000000E+00   0.5999623408E-03   0.9994000377E+00   0.0000000000E+00   0.1637611849E-04  -0.1637611849E-04   0.0000000000E+00   0.5835862223E-03  -0.5835862223E-03   0.1170647312E+01   0.9518143932E-01   0.9518143932E-01  -0.8084254155E-02   0.8084254160E-02  -0.1270984722E-06   0.3801201835E-03   0.1076013076E+01
   0.1002561951E+01   0.4418486737E-03   0.9995581513E+00   0.6061724780E-04   0.8335278482E-05  -0.8335278481E-05   0.2501333302E-02   0.4335133952E-03  -0.4335133952E-03   0.1058027594E+01   0.8981887812E-02   0.8981887813E-02  -0.6888341676E-02   0.6888341680E-02  -0.9339566245E-07   0.2934808942E-03   0.1049468890E+01
   0.1002561951E+01   0.9995581513E+00   0.9995581513E+00   0.6061724780E-04  -0.8335278481E-05  -0.8335278481E-05   0.2501333302E-02  -0.4335133952E-03  -0.4335133952E-03   0.1058027594E+01   0.8981887812E-02   0.8981887812E-02   0.6888341680E-02   0.6888341680E-02   0.9339524876E-07   0.2934808942E-03   0.1049468890E+01
   0.0000000000E+00   0.9994000377E+00   0.9994000377E+00   0.0000000000E+00  -0.1637611849E-04  -0.1637611849E-04   0.0000000000E+00  -0.5835862223E-03  -0.5835862223E-03   0.1170647312E+01   0.9518143931E-01   0.9518143931E-01   0.8084254160E-02   0.8084254160E-02   0.1270981645E-06   0.3801201835E-03   0.1076013076E+01
   0.2004500000E+01   0.3832008539E-03   0.3832008539E-03   0.1000000000E-03   0.3114499295E-05   0.3114499295E-05   0.4400000000E-02   0.3800863546E-03   0.3800863546E-03   0.9468065882E+00  -0.7793613465E-01  -0.7793613465E-01  -0.5951811653E-02  -0.5951811653E-02   0.6807622374E-07   0.2198365954E-03   0.1025055157E+01
   0.2004500000E+01   0.9996167991E+00   0.3832008539E-03   0.1000000000E-03  -0.3114499294E-05   0.3114499295E-05   0.4400000000E-02  -0.3800863546E-03   0.3800863546E-03   0.9468065881E+00  -0.7793613465E-01  -0.7793613465E-01   0.5951811658E-02  -0.5951811653E-02  -0.6807571055E-07   0.2198365953E-03   0.1025055157E+01
   0.2004500000E+01   0.3832008539E-03   0.9996167991E+00   0.1000000000E-03   0.3114499295E-05  -0.3114499294E-05   0.4400000000E-02   0.3800863546E-03  -0.3800863546E-03   0.9468065881E+00  -0.7793613465E-01  -0.7793613465E-01  -0.5951811653E-02   0.5951811658E-02  -0.6807571055E-07   0.2198365953E-03   0.1025055157E+01
   0.2004500000E+01   0.9996167991E+00   0.9996167991E+00   0.1000000000E-03  -0.3114499294E-05  -0.3114499294E-05   0.4400000000E-02  -0.3800863546E-03  -0.3800863546E-03   0.9468065881E+00  -0.7793613464E-01  -0.7793613464E-01   0.5951811658E-02   0.5951811658E-02   0.6807519736E-07   0.2198365953E-03   0.1025055157E+01
     1     2     3     4     5     6     7     8
     2     9    10     3     6    11    12     7
 VARIABLES = X,Y,Z,DU1,DU2,DU3,U1,U2,U3,S11,S22,S33,S12,S13,S23,Vf,SMISES
 ZONE, T="0.4600D+00" F=FEPOINT, I=   12 J=    2 ET=BRICK
   0.0000000000E+00   0.6183913130E-03   0.6183913130E-03   0.0000000000E+00   0.1842897225E-04   0.1842897225E-04   0.0000000000E+00   0.5999623408E-03   0.5999623408E-03   0.1181143516E+01   0.1060516672E+00   0.1060516672E+00  -0.8562461321E-02  -0.8562461321E-02   0.1400793778E-06   0.3959804342E-03   0.1075705886E+01
   0.1002620449E+01   0.4507945333E-03   0.4507945333E-03   0.5849835450E-04   0.8945859571E-05   0.8945859571E-05   0.2561950550E-02   0.4418486737E-03   0.4418486737E-03   0.1071321241E+01   0.2244262197E-01   0.2244262197E-01  -0.7347560902E-02  -0.7347560902E-02   0.1037872779E-06   0.3053267722E-03   0.1049358452E+01
   0.1002620449E+01   0.9995492055E+00   0.4507945333E-03   0.5849835450E-04  -0.8945859571E-05   0.8945859572E-05   0.2561950550E-02  -0.4418486737E-03   0.4418486737E-03   0.1071321241E+01   0.2244262197E-01   0.2244262197E-01   0.7347560906E-02  -0.7347560901E-02  -0.1037868398E-06   0.3053267721E-03   0.1049358452E+01
   0.0000000000E+00   0.9993816087E+00   0.6183913130E-03   0.0000000000E+00  -0.1842897225E-04   0.1842897225E-04   0.0000000000E+00  -0.5999623408E-03   0.5999623408E-03   0.1181143516E+01   0.1060516672E+00   0.1060516672E+00   0.8562461325E-02  -0.8562461320E-02  -0.1400790354E-06   0.3959804341E-03   0.1075705886E+01
   0.0000000000E+00   0.6183913130E-03   0.9993816087E+00   0.0000000000E+00   0.1842897225E-04  -0.1842897225E-04   0.0000000000E+00   0.5999623408E-03  -0.5999623408E-03   0.1181143516E+01   0.1060516672E+00   0.1060516672E+00  -0.8562461320E-02   0.8562461325E-02  -0.1400790354E-06   0.3959804341E-03   0.1075705886E+01
   0.1002620449E+01   0.4507945333E-03   0.9995492055E+00   0.5849835450E-04   0.8945859572E-05  -0.8945859571E-05   0.2561950550E-02   0.4418486737E-03  -0.4418486737E-03   0.1071321241E+01   0.2244262197E-01   0.2244262197E-01  -0.7347560901E-02   0.7347560906E-02  -0.1037868398E-06   0.3053267721E-03   0.1049358452E+01
   0.1002620449E+01   0.9995492055E+00   0.9995492055E+00   0.5849835450E-04  -0.8945859571E-05  -0.8945859571E-05   0.2561950550E-02  -0.4418486737E-03  -0.4418486737E-03   0.1071321241E+01   0.2244262197E-01   0.2244262197E-01   0.7347560906E-02   0.7347560906E-02   0.1037864017E-06   0.3053267721E-03   0.1049358452E+01
   0.0000000000E+00   0.9993816087E+00   0.9993816087E+00   0.0000000000E+00  -0.1842897225E-04  -0.1842897225E-04   0.0000000000E+00  -0.5999623408E-03  -0.5999623408E-03   0.1181143516E+01   0.1060516672E+00   0.1060516672E+00   0.8562461325E-02   0.8562461325E-02   0.1400786930E-06   0.3959804341E-03   0.1075705886E+01
   0.2004600000E+01   0.3853670689E-03   0.3853670689E-03   0.1000000000E-03   0.2166214956E-05   0.2166214956E-05   0.4500000000E-02   0.3832008539E-03   0.3832008539E-03   0.9626597051E+00  -0.6176948202E-01  -0.6176948202E-01  -0.6374733977E-02  -0.6374733977E-02   0.7567950472E-07   0.2281681851E-03   0.1024787481E+01
   0.2004600000E+01   0.9996146329E+00   0.3853670689E-03   0.1000000000E-03  -0.2166214956E-05   0.2166214956E-05   0.4500000000E-02  -0.3832008538E-03   0.3832008539E-03   0.9626597051E+00  -0.6176948202E-01  -0.6176948202E-01   0.6374733982E-02  -0.6374733977E-02  -0.7567898317E-07   0.2281681851E-03   0.1024787481E+01
   0.2004600000E+01   0.3853670689E-03   0.9996146329E+00   0.1000000000E-03   0.2166214956E-05  -0.2166214956E-05   0.4500000000E-02   0.3832008539E-03  -0.3832008538E-03   0.9626597051E+00  -0.6176948202E-01  -0.6176948202E-01  -0.6374733977E-02   0.6374733982E-02  -0.7567898318E-07   0.2281681851E-03   0.1024787481E+01
   0.2004600000E+01   0.9996146329E+00   0.9996146329E+00   0.1000000000E-03  -0.2166214956E-05  -0.2166214956E-05   0.4500000000E-02  -0.3832008539E-03  -0.3832008539E-03   0.9626597050E+00  -0.6176948202E-01  -0.6176948202E-01   0.6374733982E-02   0.6374733982E-02   0.7567846164E-07   0.2281681851E-03   0.1024787481E+01
     1     2     3     4     5     6     7     8
     2     9    10     3     6    11    12     7
 VARIABLES = X,Y,Z,DU1,DU2,DU3,U1,U2,U3,S11,S22,S33,S12,S13,S23,Vf,SMISES
 ZONE, T="0.4700D+00" F=FEPOINT, I=   12 J=    2 ET=BRICK
   0.0000000000E+00   0.6388518878E-03   0.6388518878E-03   0.0000000000E+00   0.2046057473E-04   0.2046057473E-04   0.0000000000E+00   0.6183913130E-03   0.6183913130E-03   0.1184708478E+01   0.1094282826E+00   0.1094282826E+00  -0.9181385203E-02  -0.9181385203E-02   0.1573538075E-06   0.4119194234E-03   0.1075986052E+01
   0.1002677042E+01   0.4605452268E-03   0.4605452268E-03   0.5659351056E-04   0.9750693558E-05   0.9750693558E-05   0.2620448904E-02   0.4507945333E-03   0.4507945333E-03   0.1082773364E+01   0.3339489667E-01   0.3339489667E-01  -0.7964111102E-02  -0.7964111102E-02   0.1181173653E-06   0.3172371626E-03   0.1049939284E+01
   0.1002677042E+01   0.9995394548E+00   0.4605452268E-03   0.5659351056E-04  -0.9750693557E-05   0.9750693558E-05   0.2620448904E-02  -0.4507945333E-03   0.4507945333E-03   0.1082773364E+01   0.3339489667E-01   0.3339489667E-01   0.7964111106E-02  -0.7964111101E-02  -0.1181169139E-06   0.3172371626E-03   0.1049939284E+01
   0.0000000000E+00   0.9993611481E+00   0.6388518877E-03   0.0000000000E+00  -0.2046057473E-04   0.2046057473E-04   0.0000000000E+00  -0.6183913130E-03   0.6183913130E-03   0.1184708478E+01   0.1094282825E+00   0.1094282825E+00   0.9181385208E-02  -0.9181385203E-02  -0.1573534505E-06   0.4119194234E-03   0.1075986052E+01
   0.0000000000E+00   0.6388518877E-03   0.9993611481E+00   0.0000000000E+00   0.2046057473E-04  -0.2046057473E-04   0.0000000000E+00   0.6183913130E-03  -0.6183913130E-03   0.1184708478E+01   0.1094282825E+00   0.1094282825E+00  -0.9181385203E-02   0.9181385208E-02  -0.1573534505E-06   0.4119194234E-03   0.1075986052E+01
   0.1002677042E+01   0.4605452268E-03   0.9995394548E+00   0.5659351056E-04   0.9750693558E-05  -0.9750693557E-05   0.2620448904E-02   0.4507945333E-03  -0.4507945333E-03   0.1082773364E+01   0.3339489667E-01   0.3339489667E-01  -0.7964111101E-02   0.7964111106E-02  -0.1181169139E-06   0.3172371626E-03   0.1049939284E+01
   0.1002677042E+01   0.9995394548E+00   0.9995394548E+00   0.5659351056E-04  -0.9750693557E-05  -0.9750693557E-05   0.2620448904E-02  -0.4507945333E-03  -0.4507945333E-03   0.1082773364E+01   0.3339489667E-01   0.3339489667E-01   0.7964111106E-02   0.7964111106E-02   0.1181164624E-06   0.3172371626E-03   0.1049939284E+01
   0.0000000000E+00   0.9993611481E+00   0.9993611481E+00   0.0000000000E+00  -0.2046057473E-04  -0.2046057473E-04   0.0000000000E+00  -0.6183913130E-03  -0.6183913130E-03   0.1184708478E+01   0.1094282825E+00   0.1094282825E+00   0.9181385208E-02   0.9181385208E-02   0.1573530934E-06   0.4119194234E-03   0.1075986052E+01
   0.2004700000E+01   0.3869972101E-03   0.3869972101E-03   0.1000000000E-03   0.1630141274E-05   0.1630141274E-05   0.4600000000E-02   0.3853670689E-03   0.3853670689E-03   0.9817219375E+00  -0.4310701573E-01  -0.4310701573E-01  -0.6969968885E-02  -0.6969968885E-02   0.8690412249E-07   0.2365627154E-03   0.1025256852E+01
   0.2004700000E+01   0.9996130028E+00   0.3869972101E-03   0.1000000000E-03  -0.1630141273E-05   0.1630141274E-05   0.4600000000E-02  -0.3853670688E-03   0.3853670689E-03   0.9817219375E+00  -0.4310701573E-01  -0.4310701573E-01   0.6969968890E-02  -0.6969968884E-02  -0.8690359355E-07   0.2365627154E-03   0.1025256852E+01
   0.2004700000E+01   0.3869972101E-03   0.9996130028E+00   0.1000000000E-03   0.1630141274E-05  -0.1630141273E-05   0.4600000000E-02   0.3853670689E-03  -0.3853670688E-03   0.9817219375E+00  -0.4310701573E-01  -0.4310701573E-01  -0.6969968884E-02   0.6969968890E-02  -0.8690359355E-07   0.2365627154E-03   0.1025256852E+01
   0.2004700000E+01   0.9996130028E+00   0.9996130028E+00   0.1000000000E-03  -0.1630141273E-05  -0.1630141273E-05   0.4600000000E-02  -0.3853670688E-03  -0.3853670688E-03   0.9817219374E+00  -0.4310701573E-01  -0.4310701573E-01   0.6969968890E-02   0.6969968890E-02   0.8690306462E-07   0.2365627154E-03   0.1025256852E+01
     1     2     3     4     5     6     7     8
     2     9    10     3     6    11    12     7
 VARIABLES = X,Y,Z,DU1,DU2,DU3,U1,U2,U3,S11,S22,S33,S12,S13,S23,Vf,SMISES
 ZONE, T="0.4800D+00" F=FEPOINT, I=   12 J=    2 ET=BRICK
   0.0000000000E+00   0.6611680899E-03   0.6611680899E-03   0.0000000000E+00   0.2231620213E-04   0.2231620213E-04   0.0000000000E+00   0.6388518878E-03   0.6388518878E-03   0.1181146523E+01   0.1052142742E+00   0.1052142742E+00  -0.9904535014E-02  -0.9904535014E-02   0.1789114394E-06   0.4280248512E-03   0.1076753142E+01
   0.1002732028E+01   0.4712222247E-03   0.4712222247E-03   0.5498511674E-04   0.1067699786E-04   0.1067699786E-04   0.2677042415E-02   0.4605452268E-03   0.4605452268E-03   0.1091573159E+01   0.4109667200E-01   0.4109667200E-01  -0.8702063426E-02  -0.8702063426E-02   0.1365234725E-06   0.3293035322E-03   0.1051142111E+01
   0.1002732028E+01   0.9995287778E+00   0.4712222247E-03   0.5498511674E-04  -0.1067699786E-04   0.1067699786E-04   0.2677042415E-02  -0.4605452268E-03   0.4605452268E-03   0.1091573159E+01   0.4109667200E-01   0.4109667200E-01   0.8702063430E-02  -0.8702063425E-02  -0.1365230202E-06   0.3293035321E-03   0.1051142111E+01
   0.0000000000E+00   0.9993388319E+00   0.6611680899E-03   0.0000000000E+00  -0.2231620213E-04   0.2231620213E-04   0.0000000000E+00  -0.6388518878E-03   0.6388518877E-03   0.1181146523E+01   0.1052142742E+00   0.1052142742E+00   0.9904535019E-02  -0.9904535014E-02  -0.1789110873E-06   0.4280248512E-03   0.1076753142E+01
   0.0000000000E+00   0.6611680899E-03   0.9993388319E+00   0.0000000000E+00   0.2231620213E-04  -0.2231620213E-04   0.0000000000E+00   0.6388518877E-03  -0.6388518878E-03   0.1181146523E+01   0.1052142742E+00   0.1052142742E+00  -0.9904535014E-02   0.9904535019E-02  -0.1789110873E-06   0.4280248512E-03   0.1076753142E+01
   0.1002732028E+01   0.4712222247E-03   0.9995287778E+00   0.5498511674E-04   0.1067699786E-04  -0.1067699786E-04   0.2677042415E-02   0.4605452268E-03  -0.4605452268E-03   0.1091573159E+01   0.4109667200E-01   0.4109667200E-01  -0.8702063425E-02   0.8702063430E-02  -0.1365230202E-06   0.3293035321E-03   0.1051142111E+01
   0.1002732028E+01   0.9995287778E+00   0.9995287778E+00   0.5498511674E-04  -0.1067699786E-04  -0.1067699786E-04   0.2677042415E-02  -0.4605452268E-03  -0.4605452268E-03   0.1091573159E+01   0.4109667200E-01   0.4109667200E-01   0.8702063430E-02   0.8702063430E-02   0.1365225678E-06   0.3293035321E-03   0.1051142111E+01
   0.0000000000E+00   0.9993388319E+00   0.9993388319E+00   0.0000000000E+00  -0.2231620213E-04  -0.2231620213E-04   0.0000000000E+00  -0.6388518878E-03  -0.6388518878E-03   0.1181146523E+01   0.1052142742E+00   0.1052142742E+00   0.9904535018E-02   0.9904535018E-02   0.1789107353E-06   0.4280248511E-03   0.1076753142E+01
   0.2004800000E+01   0.3885137572E-03   0.3885137572E-03   0.1000000000E-03   0.1516547048E-05   0.1516547048E-05   0.4700000000E-02   0.3869972101E-03   0.3869972101E-03   0.1002593313E+01  -0.2334867785E-01  -0.2334867785E-01  -0.7702500050E-02  -0.7702500050E-02   0.1019836331E-06   0.2451056899E-03   0.1026463721E+01
   0.2004800000E+01   0.9996114862E+00   0.3885137572E-03   0.1000000000E-03  -0.1516547048E-05   0.1516547048E-05   0.4700000000E-02  -0.3869972101E-03   0.3869972101E-03   0.1002593313E+01  -0.2334867785E-01  -0.2334867785E-01   0.7702500055E-02  -0.7702500050E-02  -0.1019831011E-06   0.2451056899E-03   0.1026463721E+01
   0.2004800000E+01   0.3885137572E-03   0.9996114862E+00   0.1000000000E-03   0.1516547048E-05  -0.1516547048E-05   0.4700000000E-02   0.3869972101E-03  -0.3869972101E-03   0.1002593313E+01  -0.2334867785E-01  -0.2334867785E-01  -0.7702500050E-02   0.7702500055E-02  -0.1019831011E-06   0.2451056899E-03   0.1026463721E+01
   0.2004800000E+01   0.9996114862E+00   0.9996114862E+00   0.1000000000E-03  -0.1516547048E-05  -0.1516547048E-05   0.4700000000E-02  -0.3869972101E-03  -0.3869972101E-03   0.1002593313E+01  -0.2334867785E-01  -0.2334867785E-01   0.7702500055E-02   0.7702500055E-02   0.1019825691E-06   0.2451056899E-03   0.1026463721E+01
     1     2     3     4     5     6     7     8
     2     9    10     3     6    11    12     7
 VARIABLES = X,Y,Z,DU1,DU2,DU3,U1,U2,U3,S11,S22,S33,S12,S13,S23,Vf,SMISES
 ZONE, T="0.4900D+00" F=FEPOINT, I=   12 J=    2 ET=BRICK
   0.0000000000E+00   0.6850244123E-03   0.6850244123E-03   0.0000000000E+00   0.2385632238E-04   0.2385632238E-04   0.0000000000E+00   0.6611680899E-03   0.6611680899E-03   0.1170764746E+01   0.9385185182E-01   0.9385185182E-01  -0.1068802466E-01  -0.1068802466E-01   0.2043837426E-06   0.4443604646E-03   0.1077867893E+01
   0.1002785763E+01   0.4828684253E-03   0.4828684253E-03   0.5373540030E-04   0.1164620062E-04   0.1164620062E-04   0.2732027531E-02   0.4712222247E-03   0.4712222247E-03   0.1097160393E+01   0.4510742556E-01   0.4510742556E-01  -0.9516943464E-02  -0.9516943464E-02   0.1588420746E-06   0.3416033764E-03   0.1052844426E+01
   0.1002785763E+01   0.9995171316E+00   0.4828684253E-03   0.5373540030E-04  -0.1164620062E-04   0.1164620062E-04   0.2732027531E-02  -0.4712222247E-03   0.4712222247E-03   0.1097160393E+01   0.4510742555E-01   0.4510742555E-01   0.9516943468E-02  -0.9516943464E-02  -0.1588416344E-06   0.3416033764E-03   0.1052844426E+01
   0.0000000000E+00   0.9993149756E+00   0.6850244123E-03   0.0000000000E+00  -0.2385632238E-04   0.2385632238E-04   0.0000000000E+00  -0.6611680899E-03   0.6611680899E-03   0.1170764746E+01   0.9385185182E-01   0.9385185182E-01   0.1068802466E-01  -0.1068802466E-01  -0.2043834132E-06   0.4443604646E-03   0.1077867893E+01
   0.0000000000E+00   0.6850244123E-03   0.9993149756E+00   0.0000000000E+00   0.2385632238E-04  -0.2385632238E-04   0.0000000000E+00   0.6611680899E-03  -0.6611680899E-03   0.1170764746E+01   0.9385185182E-01   0.9385185182E-01  -0.1068802466E-01   0.1068802466E-01  -0.2043834132E-06   0.4443604646E-03   0.1077867893E+01
   0.1002785763E+01   0.4828684253E-03   0.9995171316E+00   0.5373540030E-04   0.1164620062E-04  -0.1164620062E-04   0.2732027531E-02   0.4712222247E-03  -0.4712222247E-03   0.1097160393E+01   0.4510742555E-01   0.4510742555E-01  -0.9516943464E-02   0.9516943468E-02  -0.1588416344E-06   0.3416033764E-03   0.1052844426E+01
   0.1002785763E+01   0.9995171316E+00   0.9995171316E+00   0.5373540030E-04  -0.1164620062E-04  -0.1164620062E-04   0.2732027531E-02  -0.4712222247E-03  -0.4712222247E-03   0.1097160393E+01   0.4510742555E-01   0.4510742555E-01   0.9516943468E-02   0.9516943468E-02   0.1588411942E-06   0.3416033764E-03   0.1052844426E+01
   0.0000000000E+00   0.9993149756E+00   0.9993149756E+00   0.0000000000E+00  -0.2385632238E-04  -0.2385632238E-04   0.0000000000E+00  -0.6611680899E-03  -0.6611680899E-03   0.1170764746E+01   0.9385185181E-01   0.9385185181E-01   0.1068802466E-01   0.1068802466E-01   0.2043830837E-06   0.4443604646E-03   0.1077867892E+01
   0.2004900000E+01   0.3903223614E-03   0.3903223614E-03   0.1000000000E-03   0.1808604197E-05   0.1808604197E-05   0.4800000000E-02   0.3885137572E-03   0.3885137572E-03   0.1023872564E+01  -0.3830706237E-02  -0.3830706237E-02  -0.8527870704E-02  -0.8527870704E-02   0.1209143557E-06   0.2538775839E-03   0.1028341445E+01
   0.2004900000E+01   0.9996096776E+00   0.3903223614E-03   0.1000000000E-03  -0.1808604197E-05   0.1808604197E-05   0.4800000000E-02  -0.3885137571E-03   0.3885137572E-03   0.1023872564E+01  -0.3830706236E-02  -0.3830706237E-02   0.8527870709E-02  -0.8527870704E-02  -0.1209138280E-06   0.2538775839E-03   0.1028341445E+01
   0.2004900000E+01   0.3903223614E-03   0.9996096776E+00   0.1000000000E-03   0.1808604197E-05  -0.1808604197E-05   0.4800000000E-02   0.3885137572E-03  -0.3885137571E-03   0.1023872564E+01  -0.3830706237E-02  -0.3830706236E-02  -0.8527870704E-02   0.8527870709E-02  -0.1209138280E-06   0.2538775839E-03   0.1028341445E+01
   0.2004900000E+01   0.9996096776E+00   0.9996096776E+00   0.1000000000E-03  -0.1808604197E-05  -0.1808604197E-05   0.4800000000E-02  -0.3885137571E-03  -0.3885137571E-03   0.1023872564E+01  -0.3830706237E-02  -0.3830706237E-02   0.8527870709E-02   0.8527870709E-02   0.1209133002E-06   0.2538775839E-03   0.1028341445E+01
     1     2     3     4     5     6     7     8
     2     9    10     3     6    11    12     7
 VARIABLES = X,Y,Z,DU1,DU2,DU3,U1,U2,U3,S11,S22,S33,S12,S13,S23,Vf,SMISES
 ZONE, T="0.5000D+00" F=FEPOINT, I=   12 J=    2 ET=BRICK
   0.0000000000E+00   0.7099905633E-03   0.7099905633E-03   0.0000000000E+00   0.2496615108E-04   0.2496615108E-04   0.0000000000E+00   0.6850244123E-03   0.6850244123E-03   0.1154344750E+01   0.7627932239E-01   0.7627932239E-01  -0.1148388580E-01  -0.1148388580E-01   0.2329398923E-06   0.4609612239E-03   0.1079166738E+01
   0.1002838646E+01   0.4954489607E-03   0.4954489607E-03   0.5288331324E-04   0.1258053543E-04   0.1258053543E-04   0.2785762932E-02   0.4828684253E-03   0.4828684253E-03   0.1099258541E+01   0.4530619627E-01   0.4530619627E-01  -0.1035900747E-01  -0.1035900747E-01   0.1844698194E-06   0.3541940914E-03   0.1054884961E+01
   0.1002838646E+01   0.9995045510E+00   0.4954489607E-03   0.5288331324E-04  -0.1258053543E-04   0.1258053543E-04   0.2785762932E-02  -0.4828684253E-03   0.4828684253E-03   0.1099258540E+01   0.4530619627E-01   0.4530619627E-01   0.1035900748E-01  -0.1035900747E-01  -0.1844694040E-06   0.3541940914E-03   0.1054884961E+01
   0.0000000000E+00   0.9992900094E+00   0.7099905633E-03   0.0000000000E+00  -0.2496615108E-04   0.2496615108E-04   0.0000000000E+00  -0.6850244123E-03   0.6850244123E-03   0.1154344750E+01   0.7627932239E-01   0.7627932239E-01   0.1148388581E-01  -0.1148388580E-01  -0.2329395998E-06   0.4609612239E-03   0.1079166738E+01
   0.0000000000E+00   0.7099905633E-03   0.9992900094E+00   0.0000000000E+00   0.2496615108E-04  -0.2496615108E-04   0.0000000000E+00   0.6850244123E-03  -0.6850244123E-03   0.1154344750E+01   0.7627932239E-01   0.7627932239E-01  -0.1148388580E-01   0.1148388581E-01  -0.2329395998E-06   0.4609612239E-03   0.1079166738E+01
   0.1002838646E+01   0.4954489607E-03   0.9995045510E+00   0.5288331324E-04   0.1258053543E-04  -0.1258053543E-04   0.2785762932E-02   0.4828684253E-03  -0.4828684253E-03   0.1099258540E+01   0.4530619627E-01   0.4530619627E-01  -0.1035900747E-01   0.1035900748E-01  -0.1844694040E-06   0.3541940914E-03   0.1054884961E+01
   0.1002838646E+01   0.9995045510E+00   0.9995045510E+00   0.5288331324E-04  -0.1258053542E-04  -0.1258053542E-04   0.2785762932E-02  -0.4828684253E-03  -0.4828684253E-03   0.1099258540E+01   0.4530619627E-01   0.4530619627E-01   0.1035900748E-01   0.1035900748E-01   0.1844689887E-06   0.3541940914E-03   0.1054884961E+01
   0.0000000000E+00   0.9992900094E+00   0.9992900094E+00   0.0000000000E+00  -0.2496615108E-04  -0.2496615108E-04   0.0000000000E+00  -0.6850244123E-03  -0.6850244123E-03   0.1154344750E+01   0.7627932238E-01   0.7627932238E-01   0.1148388581E-01   0.1148388581E-01   0.2329393074E-06   0.4609612239E-03   0.1079166737E+01
   0.2005000000E+01   0.3927883654E-03   0.3927883654E-03   0.1000000000E-03   0.2466004068E-05   0.2466004068E-05   0.4900000000E-02   0.3903223614E-03   0.3903223614E-03   0.1044248204E+01   0.1425528411E-01   0.1425528411E-01  -0.9395334707E-02  -0.9395334707E-02   0.1432892251E-06   0.2629477884E-03   0.1030765566E+01
   0.2005000000E+01   0.9996072116E+00   0.3927883654E-03   0.1000000000E-03  -0.2466004068E-05   0.2466004068E-05   0.4900000000E-02  -0.3903223613E-03   0.3903223614E-03   0.1044248204E+01   0.1425528411E-01   0.1425528411E-01   0.9395334711E-02  -0.9395334706E-02  -0.1432887114E-06   0.2629477884E-03   0.1030765566E+01
   0.2005000000E+01   0.3927883654E-03   0.9996072116E+00   0.1000000000E-03   0.2466004068E-05  -0.2466004068E-05   0.4900000000E-02   0.3903223614E-03  -0.3903223613E-03   0.1044248204E+01   0.1425528411E-01   0.1425528411E-01  -0.9395334706E-02   0.9395334711E-02  -0.1432887114E-06   0.2629477884E-03   0.1030765566E+01
   0.2005000000E+01   0.9996072116E+00   0.9996072116E+00   0.1000000000E-03  -0.2466004068E-05  -0.2466004068E-05   0.4900000000E-02  -0.3903223613E-03  -0.3903223613E-03   0.1044248204E+01   0.1425528411E-01   0.1425528411E-01   0.9395334711E-02   0.9395334711E-02   0.1432881977E-06   0.2629477884E-03   0.1030765566E+01
     1     2     3     4     5     6     7     8
     2     9    10     3     6    11    12     7
 VARIABLES = X,Y,Z,DU1,DU2,DU3,U1,U2,U3,S11,S22,S33,S12,S13,S23,Vf,SMISES
 ZONE, T="0.5100D+00" F=FEPOINT, I=   12 J=    2 ET=BRICK
   0.0000000000E+00   0.7355537823E-03   0.7355537823E-03   0.0000000000E+00   0.2556321891E-04   0.2556321891E-04   0.0000000000E+00   0.7099905633E-03   0.7099905633E-03   0.1133080479E+01   0.5385282796E-01   0.5385282796E-01  -0.1224359877E-01  -0.1224359877E-01   0.2632589123E-06   0.4778307882E-03   0.1080478122E+01
   0.1002891089E+01   0.5088581480E-03   0.5088581480E-03   0.5244296940E-04   0.1340918725E-04   0.1340918725E-04   0.2838646245E-02   0.4954489607E-03   0.4954489607E-03   0.1097884145E+01   0.4188272465E-01   0.4188272465E-01  -0.1117688339E-01  -0.1117688339E-01   0.2122962140E-06   0.3671083713E-03   0.1057081881E+01
   0.1002891089E+01   0.9994911419E+00   0.5088581480E-03   0.5244296940E-04  -0.1340918725E-04   0.1340918725E-04   0.2838646245E-02  -0.4954489607E-03   0.4954489607E-03   0.1097884145E+01   0.4188272465E-01   0.4188272465E-01   0.1117688339E-01  -0.1117688339E-01  -0.2122958348E-06   0.3671083712E-03   0.1057081881E+01
   0.0000000000E+00   0.9992644462E+00   0.7355537822E-03   0.0000000000E+00  -0.2556321891E-04   0.2556321891E-04   0.0000000000E+00  -0.7099905634E-03   0.7099905633E-03   0.1133080479E+01   0.5385282796E-01   0.5385282796E-01   0.1224359877E-01  -0.1224359877E-01  -0.2632586672E-06   0.4778307881E-03   0.1080478122E+01
   0.0000000000E+00   0.7355537822E-03   0.9992644462E+00   0.0000000000E+00   0.2556321891E-04  -0.2556321891E-04   0.0000000000E+00   0.7099905633E-03  -0.7099905634E-03   0.1133080479E+01   0.5385282796E-01   0.5385282796E-01  -0.1224359877E-01   0.1224359877E-01  -0.2632586672E-06   0.4778307881E-03   0.1080478122E+01
   0.1002891089E+01   0.5088581480E-03   0.9994911419E+00   0.5244296940E-04   0.1340918725E-04  -0.1340918725E-04   0.2838646245E-02   0.4954489607E-03  -0.4954489607E-03   0.1097884145E+01   0.4188272465E-01   0.4188272465E-01  -0.1117688339E-01   0.1117688339E-01  -0.2122958348E-06   0.3671083712E-03   0.1057081881E+01
   0.1002891089E+01   0.9994911419E+00   0.9994911419E+00   0.5244296940E-04  -0.1340918725E-04  -0.1340918725E-04   0.2838646245E-02  -0.4954489607E-03  -0.4954489607E-03   0.1097884145E+01   0.4188272464E-01   0.4188272464E-01   0.1117688339E-01   0.1117688339E-01   0.2122954557E-06   0.3671083712E-03   0.1057081881E+01
   0.0000000000E+00   0.9992644462E+00   0.9992644462E+00   0.0000000000E+00  -0.2556321891E-04  -0.2556321891E-04   0.0000000000E+00  -0.7099905634E-03  -0.7099905634E-03   0.1133080479E+01   0.5385282796E-01   0.5385282796E-01   0.1224359877E-01   0.1224359877E-01   0.2632584221E-06   0.4778307881E-03   0.1080478122E+01
   0.2005100000E+01   0.3962180698E-03   0.3962180698E-03   0.1000000000E-03   0.3429704361E-05   0.3429704361E-05   0.5000000000E-02   0.3927883654E-03   0.3927883654E-03   0.1062576424E+01   0.2992430991E-01   0.2992430991E-01  -0.1025147610E-01  -0.1025147610E-01   0.1681959472E-06   0.2723692406E-03   0.1033569401E+01
   0.2005100000E+01   0.9996037819E+00   0.3962180698E-03   0.1000000000E-03  -0.3429704361E-05   0.3429704361E-05   0.5000000000E-02  -0.3927883654E-03   0.3927883654E-03   0.1062576424E+01   0.2992430991E-01   0.2992430991E-01   0.1025147611E-01  -0.1025147610E-01  -0.1681954589E-06   0.2723692406E-03   0.1033569401E+01
   0.2005100000E+01   0.3962180698E-03   0.9996037819E+00   0.1000000000E-03   0.3429704361E-05  -0.3429704361E-05   0.5000000000E-02   0.3927883654E-03  -0.3927883654E-03   0.1062576424E+01   0.2992430991E-01   0.2992430991E-01  -0.1025147610E-01   0.1025147611E-01  -0.1681954589E-06   0.2723692406E-03   0.1033569401E+01
   0.2005100000E+01   0.9996037819E+00   0.9996037819E+00   0.1000000000E-03  -0.3429704361E-05  -0.3429704361E-05   0.5000000000E-02  -0.3927883654E-03  -0.3927883654E-03   0.1062576424E+01   0.2992430991E-01   0.2992430991E-01   0.1025147611E-01   0.1025147611E-01   0.1681949705E-06   0.2723692406E-03   0.1033569401E+01
     1     2     3     4     5     6     7     8
     2     9    10     3     6    11    12     7
 VARIABLES = X,Y,Z,DU1,DU2,DU3,U1,U2,U3,S11,S22,S33,S12,S13,S23,Vf,SMISES
 ZONE, T="0.5200D+00" F=FEPOINT, I=   12 J=    2 ET=BRICK
   0.0000000000E+00   0.7611562452E-03   0.7611562452E-03   0.0000000000E+00   0.2560246290E-04   0.2560246290E-04   0.0000000000E+00   0.7355537823E-03   0.7355537823E-03   0.1108486891E+01   0.2823999811E-01   0.2823999811E-01  -0.1292150636E-01  -0.1292150636E-01   0.2936016403E-06   0.4949417452E-03   0.1081638341E+01
   0.1002943493E+01   0.5229316788E-03   0.5229316788E-03   0.5240366075E-04   0.1407353082E-04   0.1407353082E-04   0.2891089214E-02   0.5088581480E-03   0.5088581480E-03   0.1093332123E+01   0.3530440264E-01   0.3530440264E-01  -0.1192124201E-01  -0.1192124201E-01   0.2407407590E-06   0.3803517857E-03   0.1059251805E+01
   0.1002943493E+01   0.9994770683E+00   0.5229316788E-03   0.5240366075E-04  -0.1407353082E-04   0.1407353082E-04   0.2891089214E-02  -0.5088581480E-03   0.5088581480E-03   0.1093332123E+01   0.3530440264E-01   0.3530440263E-01   0.1192124201E-01  -0.1192124201E-01  -0.2407404253E-06   0.3803517857E-03   0.1059251805E+01
   0.0000000000E+00   0.9992388438E+00   0.7611562451E-03   0.0000000000E+00  -0.2560246290E-04   0.2560246290E-04   0.0000000000E+00  -0.7355537823E-03   0.7355537822E-03   0.1108486891E+01   0.2823999811E-01   0.2823999811E-01   0.1292150636E-01  -0.1292150636E-01  -0.2936014482E-06   0.4949417452E-03   0.1081638341E+01
   0.0000000000E+00   0.7611562451E-03   0.9992388438E+00   0.0000000000E+00   0.2560246290E-04  -0.2560246290E-04   0.0000000000E+00   0.7355537822E-03  -0.7355537823E-03   0.1108486891E+01   0.2823999811E-01   0.2823999811E-01  -0.1292150636E-01   0.1292150636E-01  -0.2936014482E-06   0.4949417452E-03   0.1081638341E+01
   0.1002943493E+01   0.5229316788E-03   0.9994770683E+00   0.5240366075E-04   0.1407353082E-04  -0.1407353082E-04   0.2891089214E-02   0.5088581480E-03  -0.5088581480E-03   0.1093332123E+01   0.3530440263E-01   0.3530440264E-01  -0.1192124201E-01   0.1192124201E-01  -0.2407404254E-06   0.3803517857E-03   0.1059251805E+01
   0.1002943493E+01   0.9994770683E+00   0.9994770683E+00   0.5240366075E-04  -0.1407353082E-04  -0.1407353082E-04   0.2891089214E-02  -0.5088581480E-03  -0.5088581480E-03   0.1093332123E+01   0.3530440263E-01   0.3530440263E-01   0.1192124201E-01   0.1192124201E-01   0.2407400917E-06   0.3803517857E-03   0.1059251805E+01
   0.0000000000E+00   0.9992388438E+00   0.9992388438E+00   0.0000000000E+00  -0.2560246290E-04  -0.2560246290E-04   0.0000000000E+00  -0.7355537823E-03  -0.7355537823E-03   0.1108486891E+01   0.2823999811E-01   0.2823999811E-01   0.1292150636E-01   0.1292150636E-01   0.2936012562E-06   0.4949417451E-03   0.1081638341E+01
   0.2005200000E+01   0.4008454358E-03   0.4008454358E-03   0.1000000000E-03   0.4627366029E-05   0.4627366029E-05   0.5100000000E-02   0.3962180698E-03   0.3962180698E-03   0.1077941305E+01   0.4243909054E-01   0.4243909054E-01  -0.1104400017E-01  -0.1104400017E-01   0.1942198375E-06   0.2821742877E-03   0.1036563689E+01
   0.2005200000E+01   0.9995991546E+00   0.4008454358E-03   0.1000000000E-03  -0.4627366029E-05   0.4627366029E-05   0.5100000000E-02  -0.3962180698E-03   0.3962180698E-03   0.1077941305E+01   0.4243909053E-01   0.4243909053E-01   0.1104400017E-01  -0.1104400017E-01  -0.1942193866E-06   0.2821742876E-03   0.1036563689E+01
   0.2005200000E+01   0.4008454358E-03   0.9995991546E+00   0.1000000000E-03   0.4627366029E-05  -0.4627366029E-05   0.5100000000E-02   0.3962180698E-03  -0.3962180698E-03   0.1077941305E+01   0.4243909053E-01   0.4243909053E-01  -0.1104400017E-01   0.1104400017E-01  -0.1942193866E-06   0.2821742876E-03   0.1036563689E+01
   0.2005200000E+01   0.9995991546E+00   0.9995991546E+00   0.1000000000E-03  -0.4627366029E-05  -0.4627366029E-05   0.5100000000E-02  -0.3962180698E-03  -0.3962180698E-03   0.1077941305E+01   0.4243909053E-01   0.4243909053E-01   0.1104400017E-01   0.1104400017E-01   0.1942189357E-06   0.2821742876E-03   0.1036563689E+01
     1     2     3     4     5     6     7     8
     2     9    10     3     6    11    12     7
 VARIABLES = X,Y,Z,DU1,DU2,DU3,U1,U2,U3,S11,S22,S33,S12,S13,S23,Vf,SMISES
 ZONE, T="0.5300D+00" F=FEPOINT, I=   12 J=    2 ET=BRICK
   0.0000000000E+00   0.7862347970E-03   0.7862347970E-03   0.0000000000E+00   0.2507855188E-04   0.2507855188E-04   0.0000000000E+00   0.7611562452E-03   0.7611562452E-03   0.1082286502E+01   0.1294275410E-02   0.1294275410E-02  -0.1347780160E-01  -0.1347780160E-01   0.3219791483E-06   0.5122386892E-03   0.1082505014E+01
   0.1002996224E+01   0.5374627871E-03   0.5374627871E-03   0.5273138953E-04   0.1453110829E-04   0.1453110829E-04   0.2943492875E-02   0.5229316788E-03   0.5229316788E-03   0.1086138797E+01   0.2626343277E-01   0.2626343277E-01  -0.1254815318E-01  -0.1254815318E-01   0.2678992893E-06   0.3939029703E-03   0.1061226948E+01
   0.1002996224E+01   0.9994625372E+00   0.5374627871E-03   0.5273138953E-04  -0.1453110829E-04   0.1453110829E-04   0.2943492875E-02  -0.5229316788E-03   0.5229316788E-03   0.1086138797E+01   0.2626343277E-01   0.2626343277E-01   0.1254815318E-01  -0.1254815317E-01  -0.2678990079E-06   0.3939029702E-03   0.1061226948E+01
   0.0000000000E+00   0.9992137652E+00   0.7862347970E-03   0.0000000000E+00  -0.2507855188E-04   0.2507855188E-04   0.0000000000E+00  -0.7611562452E-03   0.7611562451E-03   0.1082286502E+01   0.1294275410E-02   0.1294275410E-02   0.1347780161E-01  -0.1347780160E-01  -0.3219790100E-06   0.5122386892E-03   0.1082505014E+01
   0.0000000000E+00   0.7862347970E-03   0.9992137652E+00   0.0000000000E+00   0.2507855188E-04  -0.2507855188E-04   0.0000000000E+00   0.7611562451E-03  -0.7611562452E-03   0.1082286502E+01   0.1294275410E-02   0.1294275410E-02  -0.1347780160E-01   0.1347780161E-01  -0.3219790100E-06   0.5122386892E-03   0.1082505014E+01
   0.1002996224E+01   0.5374627871E-03   0.9994625372E+00   0.5273138953E-04   0.1453110829E-04  -0.1453110829E-04   0.2943492875E-02   0.5229316788E-03  -0.5229316788E-03   0.1086138797E+01   0.2626343277E-01   0.2626343277E-01  -0.1254815317E-01   0.1254815318E-01  -0.2678990079E-06   0.3939029702E-03   0.1061226948E+01
   0.1002996224E+01   0.9994625372E+00   0.9994625372E+00   0.5273138953E-04  -0.1453110829E-04  -0.1453110829E-04   0.2943492875E-02  -0.5229316788E-03  -0.5229316788E-03   0.1086138797E+01   0.2626343276E-01   0.2626343276E-01   0.1254815318E-01   0.1254815318E-01   0.2678987266E-06   0.3939029702E-03   0.1061226948E+01
   0.0000000000E+00   0.9992137652E+00   0.9992137652E+00   0.0000000000E+00  -0.2507855188E-04  -0.2507855188E-04   0.0000000000E+00  -0.7611562452E-03  -0.7611562452E-03   0.1082286502E+01   0.1294275410E-02   0.1294275410E-02   0.1347780161E-01   0.1347780161E-01   0.3219788717E-06   0.5122386892E-03   0.1082505014E+01
   0.2005300000E+01   0.4068244844E-03   0.4068244844E-03   0.1000000000E-03   0.5979048614E-05   0.5979048614E-05   0.5200000000E-02   0.4008454358E-03   0.4008454358E-03   0.1089694257E+01   0.5133005467E-01   0.5133005467E-01  -0.1172535445E-01  -0.1172535445E-01   0.2195643000E-06   0.2923723455E-03   0.1039557229E+01
   0.2005300000E+01   0.9995931755E+00   0.4068244844E-03   0.1000000000E-03  -0.5979048613E-05   0.5979048613E-05   0.5200000000E-02  -0.4008454358E-03   0.4008454358E-03   0.1089694257E+01   0.5133005466E-01   0.5133005466E-01   0.1172535446E-01  -0.1172535445E-01  -0.2195638986E-06   0.2923723455E-03   0.1039557229E+01
   0.2005300000E+01   0.4068244844E-03   0.9995931755E+00   0.1000000000E-03   0.5979048613E-05  -0.5979048613E-05   0.5200000000E-02   0.4008454358E-03  -0.4008454358E-03   0.1089694257E+01   0.5133005466E-01   0.5133005466E-01  -0.1172535445E-01   0.1172535446E-01  -0.2195638986E-06   0.2923723455E-03   0.1039557229E+01
   0.2005300000E+01   0.9995931755E+00   0.9995931755E+00   0.1000000000E-03  -0.5979048613E-05  -0.5979048613E-05   0.5200000000E-02  -0.4008454358E-03  -0.4008454358E-03   0.1089694257E+01   0.5133005466E-01   0.5133005466E-01   0.1172535445E-01   0.1172535445E-01   0.2195634972E-06   0.2923723455E-03   0.1039557228E+01
     1     2     3     4     5     6     7     8
     2     9    10     3     6    11    12     7
 VARIABLES = X,Y,Z,DU1,DU2,DU3,U1,U2,U3,S11,S22,S33,S12,S13,S23,Vf,SMISES
 ZONE, T="0.5400D+00" F=FEPOINT, I=   12 J=    2 ET=BRICK
   0.0000000000E+00   0.8102601601E-03   0.8102601601E-03   0.0000000000E+00   0.2402536307E-04   0.2402536307E-04   0.0000000000E+00   0.7862347970E-03   0.7862347970E-03   0.1056282578E+01  -0.2508041342E-01  -0.2508041342E-01  -0.1388085829E-01  -0.1388085829E-01   0.3463888594E-06   0.5296438665E-03   0.1082967070E+01
   0.1003049596E+01   0.5522209014E-03   0.5522209014E-03   0.5337176043E-04   0.1475811434E-04   0.1475811434E-04   0.2996224265E-02   0.5374627871E-03   0.5374627871E-03   0.1077026469E+01   0.1560967623E-01   0.1560967623E-01  -0.1302183398E-01  -0.1302183398E-01   0.2917751057E-06   0.4077164840E-03   0.1062868442E+01
   0.1003049596E+01   0.9994477791E+00   0.5522209014E-03   0.5337176042E-04  -0.1475811434E-04   0.1475811434E-04   0.2996224265E-02  -0.5374627871E-03   0.5374627871E-03   0.1077026469E+01   0.1560967623E-01   0.1560967623E-01   0.1302183399E-01  -0.1302183398E-01  -0.2917748805E-06   0.4077164840E-03   0.1062868442E+01
   0.0000000000E+00   0.9991897398E+00   0.8102601601E-03   0.0000000000E+00  -0.2402536307E-04   0.2402536307E-04   0.0000000000E+00  -0.7862347970E-03   0.7862347970E-03   0.1056282578E+01  -0.2508041342E-01  -0.2508041342E-01   0.1388085829E-01  -0.1388085829E-01  -0.3463887710E-06   0.5296438665E-03   0.1082967070E+01
   0.0000000000E+00   0.8102601601E-03   0.9991897398E+00   0.0000000000E+00   0.2402536307E-04  -0.2402536307E-04   0.0000000000E+00   0.7862347970E-03  -0.7862347970E-03   0.1056282578E+01  -0.2508041342E-01  -0.2508041342E-01  -0.1388085829E-01   0.1388085829E-01  -0.3463887710E-06   0.5296438665E-03   0.1082967070E+01
   0.1003049596E+01   0.5522209014E-03   0.9994477791E+00   0.5337176042E-04   0.1475811434E-04  -0.1475811434E-04   0.2996224265E-02   0.5374627871E-03  -0.5374627871E-03   0.1077026469E+01   0.1560967623E-01   0.1560967623E-01  -0.1302183398E-01   0.1302183399E-01  -0.2917748805E-06   0.4077164840E-03   0.1062868442E+01
   0.1003049596E+01   0.9994477791E+00   0.9994477791E+00   0.5337176042E-04  -0.1475811434E-04  -0.1475811434E-04   0.2996224265E-02  -0.5374627871E-03  -0.5374627871E-03   0.1077026469E+01   0.1560967623E-01   0.1560967623E-01   0.1302183399E-01   0.1302183399E-01   0.2917746553E-06   0.4077164839E-03   0.1062868442E+01
   0.0000000000E+00   0.9991897398E+00   0.9991897398E+00   0.0000000000E+00  -0.2402536307E-04  -0.2402536307E-04   0.0000000000E+00  -0.7862347970E-03  -0.7862347970E-03   0.1056282578E+01  -0.2508041342E-01  -0.2508041342E-01   0.1388085829E-01   0.1388085829E-01   0.3463886827E-06   0.5296438665E-03   0.1082967070E+01
   0.2005400000E+01   0.4142272541E-03   0.4142272541E-03   0.1000000000E-03   0.7402769634E-05   0.7402769634E-05   0.5300000000E-02   0.4068244844E-03   0.4068244844E-03   0.1097471321E+01   0.5639567999E-01   0.5639567999E-01  -0.1225584990E-01  -0.1225584990E-01   0.2422704581E-06   0.3029497534E-03   0.1042375534E+01
   0.2005400000E+01   0.9995857727E+00   0.4142272541E-03   0.1000000000E-03  -0.7402769634E-05   0.7402769634E-05   0.5300000000E-02  -0.4068244844E-03   0.4068244844E-03   0.1097471321E+01   0.5639567999E-01   0.5639567999E-01   0.1225584991E-01  -0.1225584990E-01  -0.2422701174E-06   0.3029497534E-03   0.1042375534E+01
   0.2005400000E+01   0.4142272541E-03   0.9995857727E+00   0.1000000000E-03   0.7402769634E-05  -0.7402769634E-05   0.5300000000E-02   0.4068244844E-03  -0.4068244844E-03   0.1097471321E+01   0.5639567999E-01   0.5639567999E-01  -0.1225584990E-01   0.1225584991E-01  -0.2422701174E-06   0.3029497534E-03   0.1042375534E+01
   0.2005400000E+01   0.9995857727E+00   0.9995857727E+00   0.1000000000E-03  -0.7402769633E-05  -0.7402769633E-05   0.5300000000E-02  -0.4068244844E-03  -0.4068244844E-03   0.1097471321E+01   0.5639567999E-01   0.5639567999E-01   0.1225584991E-01   0.1225584991E-01   0.2422697766E-06   0.3029497534E-03   0.1042375534E+01
     1     2     3     4     5     6     7     8
     2     9    10     3     6    11    12     7
 VARIABLES = X,Y,Z,DU1,DU2,DU3,U1,U2,U3,S11,S22,S33,S12,S13,S23,Vf,SMISES
 ZONE, T="0.5500D+00" F=FEPOINT, I=   12 J=    2 ET=BRICK
   0.0000000000E+00   0.8327728883E-03   0.8327728883E-03   0.0000000000E+00   0.2251272820E-04   0.2251272820E-04   0.0000000000E+00   0.8102601601E-03   0.8102601601E-03   0.1032228793E+01  -0.4906477418E-01  -0.4906477418E-01  -0.1410878087E-01  -0.1410878087E-01   0.3650727494E-06   0.5470647572E-03   0.1082950884E+01
   0.1003103850E+01   0.5669711847E-03   0.5669711847E-03   0.5425400088E-04   0.1475028331E-04   0.1475028331E-04   0.3049596025E-02   0.5522209014E-03   0.5522209014E-03   0.1066835061E+01   0.4275216128E-02   0.4275216128E-02  -0.1331659654E-01  -0.1331659654E-01   0.3105486451E-06   0.4217279781E-03   0.1064074994E+01
   0.1003103850E+01   0.9994330288E+00   0.5669711847E-03   0.5425400088E-04  -0.1475028330E-04   0.1475028331E-04   0.3049596025E-02  -0.5522209014E-03   0.5522209014E-03   0.1066835061E+01   0.4275216128E-02   0.4275216128E-02   0.1331659654E-01  -0.1331659654E-01  -0.3105484769E-06   0.4217279781E-03   0.1064074994E+01
   0.0000000000E+00   0.9991672271E+00   0.8327728883E-03   0.0000000000E+00  -0.2251272820E-04   0.2251272820E-04   0.0000000000E+00  -0.8102601601E-03   0.8102601601E-03   0.1032228793E+01  -0.4906477418E-01  -0.4906477418E-01   0.1410878088E-01  -0.1410878087E-01  -0.3650727028E-06   0.5470647572E-03   0.1082950884E+01
   0.0000000000E+00   0.8327728883E-03   0.9991672271E+00   0.0000000000E+00   0.2251272820E-04  -0.2251272820E-04   0.0000000000E+00   0.8102601601E-03  -0.8102601601E-03   0.1032228793E+01  -0.4906477418E-01  -0.4906477418E-01  -0.1410878087E-01   0.1410878088E-01  -0.3650727028E-06   0.5470647572E-03   0.1082950884E+01
   0.1003103850E+01   0.5669711847E-03   0.9994330288E+00   0.5425400088E-04   0.1475028331E-04  -0.1475028330E-04   0.3049596025E-02   0.5522209014E-03  -0.5522209014E-03   0.1066835061E+01   0.4275216128E-02   0.4275216128E-02  -0.1331659654E-01   0.1331659654E-01  -0.3105484769E-06   0.4217279781E-03   0.1064074994E+01
   0.1003103850E+01   0.9994330288E+00   0.9994330288E+00   0.5425400088E-04  -0.1475028330E-04  -0.1475028330E-04   0.3049596025E-02  -0.5522209014E-03  -0.5522209014E-03   0.1066835060E+01   0.4275216128E-02   0.4275216128E-02   0.1331659654E-01   0.1331659654E-01   0.3105483087E-06   0.4217279781E-03   0.1064074994E+01
   0.0000000000E+00   0.9991672271E+00   0.9991672271E+00   0.0000000000E+00  -0.2251272820E-04  -0.2251272820E-04   0.0000000000E+00  -0.8102601601E-03  -0.8102601601E-03   0.1032228793E+01  -0.4906477418E-01  -0.4906477418E-01   0.1410878088E-01   0.1410878088E-01   0.3650726563E-06   0.5470647572E-03   0.1082950884E+01
   0.2005500000E+01   0.4230468449E-03   0.4230468449E-03   0.1000000000E-03   0.8819590794E-05   0.8819590794E-05   0.5400000000E-02   0.4142272541E-03   0.4142272541E-03   0.1101188943E+01   0.5768565611E-01   0.5768565611E-01  -0.1260602199E-01  -0.1260602199E-01   0.2604912839E-06   0.3138719232E-03   0.1044875222E+01
   0.2005500000E+01   0.9995769532E+00   0.4230468449E-03   0.1000000000E-03  -0.8819590794E-05   0.8819590794E-05   0.5400000000E-02  -0.4142272540E-03   0.4142272541E-03   0.1101188943E+01   0.5768565611E-01   0.5768565611E-01   0.1260602199E-01  -0.1260602199E-01  -0.2604910135E-06   0.3138719232E-03   0.1044875222E+01
   0.2005500000E+01   0.4230468449E-03   0.9995769532E+00   0.1000000000E-03   0.8819590794E-05  -0.8819590794E-05   0.5400000000E-02   0.4142272541E-03  -0.4142272540E-03   0.1101188943E+01   0.5768565611E-01   0.5768565611E-01  -0.1260602199E-01   0.1260602199E-01  -0.2604910135E-06   0.3138719232E-03   0.1044875222E+01
   0.2005500000E+01   0.9995769532E+00   0.9995769532E+00   0.1000000000E-03  -0.8819590794E-05  -0.8819590794E-05   0.5400000000E-02  -0.4142272540E-03  -0.4142272540E-03   0.1101188943E+01   0.5768565611E-01   0.5768565611E-01   0.1260602199E-01   0.1260602199E-01   0.2604907430E-06   0.3138719232E-03   0.1044875222E+01
     1     2     3     4     5     6     7     8
     2     9    10     3     6    11    12     7
 VARIABLES = X,Y,Z,DU1,DU2,DU3,U1,U2,U3,S11,S22,S33,S12,S13,S23,Vf,SMISES
 ZONE, T="0.5600D+00" F=FEPOINT, I=   12 J=    2 ET=BRICK
   0.0000000000E+00   0.8534136403E-03   0.8534136403E-03   0.0000000000E+00   0.2064075197E-04   0.2064075197E-04   0.0000000000E+00   0.8327728883E-03   0.8327728883E-03   0.1011705293E+01  -0.6904962153E-01  -0.6904962153E-01  -0.1415015948E-01  -0.1415015948E-01   0.3767476161E-06   0.5644027255E-03   0.1082422834E+01
   0.1003159146E+01   0.5814933827E-03   0.5814933827E-03   0.5529582071E-04   0.1452219793E-04   0.1452219793E-04   0.3103850026E-02   0.5669711847E-03   0.5669711847E-03   0.1056447352E+01  -0.6803221757E-02  -0.6803221757E-02  -0.1341792268E-01  -0.1341792268E-01   0.3228306806E-06   0.4358609841E-03   0.1064786970E+01
   0.1003159146E+01   0.9994185066E+00   0.5814933827E-03   0.5529582071E-04  -0.1452219793E-04   0.1452219793E-04   0.3103850026E-02  -0.5669711847E-03   0.5669711847E-03   0.1056447351E+01  -0.6803221756E-02  -0.6803221757E-02   0.1341792269E-01  -0.1341792268E-01  -0.3228305675E-06   0.4358609841E-03   0.1064786970E+01
   0.0000000000E+00   0.9991465864E+00   0.8534136403E-03   0.0000000000E+00  -0.2064075196E-04   0.2064075197E-04   0.0000000000E+00  -0.8327728883E-03   0.8327728883E-03   0.1011705293E+01  -0.6904962153E-01  -0.6904962153E-01   0.1415015948E-01  -0.1415015948E-01  -0.3767475998E-06   0.5644027255E-03   0.1082422834E+01
   0.0000000000E+00   0.8534136403E-03   0.9991465864E+00   0.0000000000E+00   0.2064075197E-04  -0.2064075196E-04   0.0000000000E+00   0.8327728883E-03  -0.8327728883E-03   0.1011705293E+01  -0.6904962153E-01  -0.6904962153E-01  -0.1415015948E-01   0.1415015948E-01  -0.3767475998E-06   0.5644027255E-03   0.1082422834E+01
   0.1003159146E+01   0.5814933827E-03   0.9994185066E+00   0.5529582071E-04   0.1452219793E-04  -0.1452219793E-04   0.3103850026E-02   0.5669711847E-03  -0.5669711847E-03   0.1056447351E+01  -0.6803221757E-02  -0.6803221756E-02  -0.1341792268E-01   0.1341792269E-01  -0.3228305675E-06   0.4358609841E-03   0.1064786970E+01
   0.1003159146E+01   0.9994185066E+00   0.9994185066E+00   0.5529582071E-04  -0.1452219793E-04  -0.1452219793E-04   0.3103850026E-02  -0.5669711847E-03  -0.5669711847E-03   0.1056447351E+01  -0.6803221756E-02  -0.6803221756E-02   0.1341792269E-01   0.1341792269E-01   0.3228304544E-06   0.4358609841E-03   0.1064786970E+01
   0.0000000000E+00   0.9991465864E+00   0.9991465864E+00   0.0000000000E+00  -0.2064075196E-04  -0.2064075196E-04   0.0000000000E+00  -0.8327728883E-03  -0.8327728883E-03   0.1011705293E+01  -0.6904962153E-01  -0.6904962153E-01   0.1415015948E-01   0.1415015948E-01   0.3767475835E-06   0.5644027255E-03   0.1082422834E+01
   0.2005600000E+01   0.4332048090E-03   0.4332048090E-03   0.1000000000E-03   0.1015796414E-04   0.1015796414E-04   0.5500000000E-02   0.4230468449E-03   0.4230468449E-03   0.1101020690E+01   0.5547007347E-01   0.5547007347E-01  -0.1275808276E-01  -0.1275808276E-01   0.2727620869E-06   0.3250875156E-03   0.1046953032E+01
   0.2005600000E+01   0.9995667952E+00   0.4332048090E-03   0.1000000000E-03  -0.1015796414E-04   0.1015796414E-04   0.5500000000E-02  -0.4230468448E-03   0.4230468449E-03   0.1101020690E+01   0.5547007347E-01   0.5547007347E-01   0.1275808277E-01  -0.1275808276E-01  -0.2727618943E-06   0.3250875156E-03   0.1046953032E+01
   0.2005600000E+01   0.4332048090E-03   0.9995667952E+00   0.1000000000E-03   0.1015796414E-04  -0.1015796414E-04   0.5500000000E-02   0.4230468449E-03  -0.4230468448E-03   0.1101020690E+01   0.5547007347E-01   0.5547007347E-01  -0.1275808276E-01   0.1275808277E-01  -0.2727618943E-06   0.3250875156E-03   0.1046953032E+01
   0.2005600000E+01   0.9995667952E+00   0.9995667952E+00   0.1000000000E-03  -0.1015796414E-04  -0.1015796414E-04   0.5500000000E-02  -0.4230468448E-03  -0.4230468448E-03   0.1101020690E+01   0.5547007347E-01   0.5547007347E-01   0.1275808277E-01   0.1275808277E-01   0.2727617018E-06   0.3250875156E-03   0.1046953032E+01
     1     2     3     4     5     6     7     8
     2     9    10     3     6    11    12     7
 VARIABLES = X,Y,Z,DU1,DU2,DU3,U1,U2,U3,S11,S22,S33,S12,S13,S23,Vf,SMISES
 ZONE, T="0.5700D+00" F=FEPOINT, I=   12 J=    2 ET=BRICK
   0.0000000000E+00   0.8719458036E-03   0.8719458036E-03   0.0000000000E+00   0.1853216334E-04   0.1853216334E-04   0.0000000000E+00   0.8534136403E-03   0.8534136403E-03   0.9960103553E+00  -0.8374327698E-01  -0.8374327698E-01  -0.1400410185E-01  -0.1400410185E-01   0.3807651859E-06   0.5815617850E-03   0.1081388862E+01
   0.1003215555E+01   0.5955985378E-03   0.5955985378E-03   0.5640878626E-04   0.1410515507E-04   0.1410515507E-04   0.3159145847E-02   0.5814933827E-03   0.5814933827E-03   0.1046714665E+01  -0.1675808811E-01  -0.1675808811E-01  -0.1332270167E-01  -0.1332270167E-01   0.3278495052E-06   0.4500344467E-03   0.1064986599E+01
   0.1003215555E+01   0.9994044015E+00   0.5955985378E-03   0.5640878625E-04  -0.1410515507E-04   0.1410515507E-04   0.3159145847E-02  -0.5814933827E-03   0.5814933827E-03   0.1046714665E+01  -0.1675808811E-01  -0.1675808811E-01   0.1332270167E-01  -0.1332270167E-01  -0.3278494428E-06   0.4500344467E-03   0.1064986599E+01
   0.0000000000E+00   0.9991280542E+00   0.8719458036E-03   0.0000000000E+00  -0.1853216334E-04   0.1853216334E-04   0.0000000000E+00  -0.8534136403E-03   0.8534136403E-03   0.9960103553E+00  -0.8374327698E-01  -0.8374327698E-01   0.1400410186E-01  -0.1400410185E-01  -0.3807651859E-06   0.5815617850E-03   0.1081388862E+01
   0.0000000000E+00   0.8719458036E-03   0.9991280542E+00   0.0000000000E+00   0.1853216334E-04  -0.1853216334E-04   0.0000000000E+00   0.8534136403E-03  -0.8534136403E-03   0.9960103553E+00  -0.8374327698E-01  -0.8374327698E-01  -0.1400410185E-01   0.1400410186E-01  -0.3807651859E-06   0.5815617850E-03   0.1081388862E+01
   0.1003215555E+01   0.5955985378E-03   0.9994044015E+00   0.5640878625E-04   0.1410515507E-04  -0.1410515507E-04   0.3159145847E-02   0.5814933827E-03  -0.5814933827E-03   0.1046714665E+01  -0.1675808811E-01  -0.1675808811E-01  -0.1332270167E-01   0.1332270167E-01  -0.3278494428E-06   0.4500344467E-03   0.1064986599E+01
   0.1003215555E+01   0.9994044015E+00   0.9994044015E+00   0.5640878625E-04  -0.1410515507E-04  -0.1410515507E-04   0.3159145847E-02  -0.5814933827E-03  -0.5814933827E-03   0.1046714665E+01  -0.1675808811E-01  -0.1675808811E-01   0.1332270167E-01   0.1332270167E-01   0.3278493804E-06   0.4500344467E-03   0.1064986599E+01
   0.0000000000E+00   0.9991280542E+00   0.9991280542E+00   0.0000000000E+00  -0.1853216334E-04  -0.1853216334E-04   0.0000000000E+00  -0.8534136403E-03  -0.8534136403E-03   0.9960103553E+00  -0.8374327697E-01  -0.8374327697E-01   0.1400410186E-01   0.1400410186E-01   0.3807651860E-06   0.5815617850E-03   0.1081388862E+01
   0.2005700000E+01   0.4445619586E-03   0.4445619586E-03   0.1000000000E-03   0.1135714957E-04   0.1135714957E-04   0.5600000000E-02   0.4332048090E-03   0.4332048090E-03   0.1097358838E+01   0.5019826427E-01   0.5019826427E-01  -0.1270643759E-01  -0.1270643759E-01   0.2782113824E-06   0.3365340606E-03   0.1048549490E+01
   0.2005700000E+01   0.9995554380E+00   0.4445619586E-03   0.1000000000E-03  -0.1135714957E-04   0.1135714957E-04   0.5600000000E-02  -0.4332048090E-03   0.4332048090E-03   0.1097358838E+01   0.5019826427E-01   0.5019826427E-01   0.1270643759E-01  -0.1270643759E-01  -0.2782112730E-06   0.3365340606E-03   0.1048549490E+01
   0.2005700000E+01   0.4445619586E-03   0.9995554380E+00   0.1000000000E-03   0.1135714957E-04  -0.1135714957E-04   0.5600000000E-02   0.4332048090E-03  -0.4332048090E-03   0.1097358838E+01   0.5019826427E-01   0.5019826427E-01  -0.1270643759E-01   0.1270643759E-01  -0.2782112730E-06   0.3365340606E-03   0.1048549490E+01
   0.2005700000E+01   0.9995554380E+00   0.9995554380E+00   0.1000000000E-03  -0.1135714957E-04  -0.1135714957E-04   0.5600000000E-02  -0.4332048090E-03  -0.4332048090E-03   0.1097358838E+01   0.5019826426E-01   0.5019826426E-01   0.1270643759E-01   0.1270643759E-01   0.2782111636E-06   0.3365340606E-03   0.1048549490E+01
     1     2     3     4     5     6     7     8
     2     9    10     3     6    11    12     7
 VARIABLES = X,Y,Z,DU1,DU2,DU3,U1,U2,U3,S11,S22,S33,S12,S13,S23,Vf,SMISES
 ZONE, T="0.5800D+00" F=FEPOINT, I=   12 J=    2 ET=BRICK
   0.0000000000E+00   0.8882690862E-03   0.8882690862E-03   0.0000000000E+00   0.1632328258E-04   0.1632328258E-04   0.0000000000E+00   0.8719458036E-03   0.8719458036E-03   0.9860753210E+00  -0.9225392075E-01  -0.9225392075E-01  -0.1367966468E-01  -0.1367966468E-01   0.3771762420E-06   0.5984565920E-03   0.1079891703E+01
   0.1003273059E+01   0.6091423628E-03   0.6091423628E-03   0.5750386819E-04   0.1354382510E-04   0.1354382510E-04   0.3215554633E-02   0.5955985378E-03   0.5955985378E-03   0.1038389342E+01  -0.2485572789E-01  -0.2485572789E-01  -0.1303874238E-01  -0.1303874238E-01   0.3255391256E-06   0.4641701161E-03   0.1064695230E+01
   0.1003273059E+01   0.9993908576E+00   0.6091423629E-03   0.5750386819E-04  -0.1354382510E-04   0.1354382510E-04   0.3215554633E-02  -0.5955985377E-03   0.5955985378E-03   0.1038389342E+01  -0.2485572789E-01  -0.2485572789E-01   0.1303874238E-01  -0.1303874238E-01  -0.3255391076E-06   0.4641701161E-03   0.1064695229E+01
   0.0000000000E+00   0.9991117309E+00   0.8882690862E-03   0.0000000000E+00  -0.1632328258E-04   0.1632328259E-04   0.0000000000E+00  -0.8719458036E-03   0.8719458036E-03   0.9860753209E+00  -0.9225392074E-01  -0.9225392074E-01   0.1367966469E-01  -0.1367966468E-01  -0.3771762430E-06   0.5984565919E-03   0.1079891703E+01
   0.0000000000E+00   0.8882690862E-03   0.9991117309E+00   0.0000000000E+00   0.1632328259E-04  -0.1632328258E-04   0.0000000000E+00   0.8719458036E-03  -0.8719458036E-03   0.9860753209E+00  -0.9225392074E-01  -0.9225392074E-01  -0.1367966468E-01   0.1367966469E-01  -0.3771762430E-06   0.5984565919E-03   0.1079891703E+01
   0.1003273059E+01   0.6091423629E-03   0.9993908576E+00   0.5750386819E-04   0.1354382510E-04  -0.1354382510E-04   0.3215554633E-02   0.5955985378E-03  -0.5955985377E-03   0.1038389342E+01  -0.2485572789E-01  -0.2485572789E-01  -0.1303874238E-01   0.1303874238E-01  -0.3255391076E-06   0.4641701161E-03   0.1064695229E+01
   0.1003273059E+01   0.9993908576E+00   0.9993908576E+00   0.5750386819E-04  -0.1354382510E-04  -0.1354382510E-04   0.3215554633E-02  -0.5955985377E-03  -0.5955985377E-03   0.1038389342E+01  -0.2485572788E-01  -0.2485572788E-01   0.1303874238E-01   0.1303874238E-01   0.3255390895E-06   0.4641701161E-03   0.1064695229E+01
   0.0000000000E+00   0.9991117309E+00   0.9991117309E+00   0.0000000000E+00  -0.1632328258E-04  -0.1632328258E-04   0.0000000000E+00  -0.8719458036E-03  -0.8719458036E-03   0.9860753209E+00  -0.9225392074E-01  -0.9225392074E-01   0.1367966469E-01   0.1367966469E-01   0.3771762441E-06   0.5984565919E-03   0.1079891703E+01
   0.2005800000E+01   0.4569315553E-03   0.4569315553E-03   0.1000000000E-03   0.1236959672E-04   0.1236959672E-04   0.5700000000E-02   0.4445619586E-03   0.4445619586E-03   0.1090765635E+01   0.4245112644E-01   0.4245112644E-01  -0.1245734486E-01  -0.1245734486E-01   0.2766719356E-06   0.3481442544E-03   0.1049648037E+01
   0.2005800000E+01   0.9995430684E+00   0.4569315553E-03   0.1000000000E-03  -0.1236959672E-04   0.1236959672E-04   0.5700000000E-02  -0.4445619585E-03   0.4445619586E-03   0.1090765635E+01   0.4245112644E-01   0.4245112644E-01   0.1245734487E-01  -0.1245734486E-01  -0.2766719121E-06   0.3481442544E-03   0.1049648037E+01
   0.2005800000E+01   0.4569315553E-03   0.9995430684E+00   0.1000000000E-03   0.1236959672E-04  -0.1236959672E-04   0.5700000000E-02   0.4445619586E-03  -0.4445619585E-03   0.1090765635E+01   0.4245112644E-01   0.4245112644E-01  -0.1245734486E-01   0.1245734487E-01  -0.2766719121E-06   0.3481442544E-03   0.1049648037E+01
   0.2005800000E+01   0.9995430684E+00   0.9995430684E+00   0.1000000000E-03  -0.1236959672E-04  -0.1236959672E-04   0.5700000000E-02  -0.4445619585E-03  -0.4445619585E-03   0.1090765635E+01   0.4245112644E-01   0.4245112644E-01   0.1245734486E-01   0.1245734486E-01   0.2766718885E-06   0.3481442544E-03   0.1049648037E+01
     1     2     3     4     5     6     7     8
     2     9    10     3     6    11    12     7
 VARIABLES = X,Y,Z,DU1,DU2,DU3,U1,U2,U3,S11,S22,S33,S12,S13,S23,Vf,SMISES
 ZONE, T="0.5900D+00" F=FEPOINT, I=   12 J=    2 ET=BRICK
   0.0000000000E+00   0.9024233542E-03   0.9024233542E-03   0.0000000000E+00   0.1415426798E-04   0.1415426798E-04   0.0000000000E+00   0.8882690862E-03   0.8882690862E-03   0.9824084028E+00  -0.9414180300E-01  -0.9414180300E-01  -0.1319482101E-01  -0.1319482101E-01   0.3666929566E-06   0.6150189607E-03   0.1078006345E+01
   0.1003331555E+01   0.6220343857E-03   0.6220343857E-03   0.5849682590E-04   0.1289202282E-04   0.1289202282E-04   0.3273058501E-02   0.6091423628E-03   0.6091423628E-03   0.1032069324E+01  -0.3054752274E-01  -0.3054752274E-01  -0.1258370765E-01  -0.1258370765E-01   0.3165176404E-06   0.4781990423E-03   0.1063968514E+01
   0.1003331555E+01   0.9993779656E+00   0.6220343857E-03   0.5849682590E-04  -0.1289202282E-04   0.1289202282E-04   0.3273058501E-02  -0.6091423628E-03   0.6091423629E-03   0.1032069324E+01  -0.3054752274E-01  -0.3054752274E-01   0.1258370765E-01  -0.1258370765E-01  -0.3165176590E-06   0.4781990423E-03   0.1063968514E+01
   0.0000000000E+00   0.9990975766E+00   0.9024233542E-03   0.0000000000E+00  -0.1415426798E-04   0.1415426798E-04   0.0000000000E+00  -0.8882690862E-03   0.8882690862E-03   0.9824084028E+00  -0.9414180300E-01  -0.9414180300E-01   0.1319482101E-01  -0.1319482101E-01  -0.3666929431E-06   0.6150189606E-03   0.1078006345E+01
   0.0000000000E+00   0.9024233542E-03   0.9990975766E+00   0.0000000000E+00   0.1415426798E-04  -0.1415426798E-04   0.0000000000E+00   0.8882690862E-03  -0.8882690862E-03   0.9824084028E+00  -0.9414180300E-01  -0.9414180300E-01  -0.1319482101E-01   0.1319482101E-01  -0.3666929431E-06   0.6150189606E-03   0.1078006345E+01
   0.1003331555E+01   0.6220343857E-03   0.9993779656E+00   0.5849682590E-04   0.1289202282E-04  -0.1289202282E-04   0.3273058501E-02   0.6091423629E-03  -0.6091423628E-03   0.1032069324E+01  -0.3054752274E-01  -0.3054752274E-01  -0.1258370765E-01   0.1258370765E-01  -0.3165176591E-06   0.4781990423E-03   0.1063968514E+01
   0.1003331555E+01   0.9993779656E+00   0.9993779656E+00   0.5849682590E-04  -0.1289202282E-04  -0.1289202282E-04   0.3273058501E-02  -0.6091423628E-03  -0.6091423628E-03   0.1032069324E+01  -0.3054752274E-01  -0.3054752274E-01   0.1258370765E-01   0.1258370765E-01   0.3165176777E-06   0.4781990422E-03   0.1063968514E+01
   0.0000000000E+00   0.9990975766E+00   0.9990975766E+00   0.0000000000E+00  -0.1415426798E-04  -0.1415426798E-04   0.0000000000E+00  -0.8882690862E-03  -0.8882690862E-03   0.9824084028E+00  -0.9414180300E-01  -0.9414180300E-01   0.1319482101E-01   0.1319482101E-01   0.3666929297E-06   0.6150189606E-03   0.1078006345E+01
   0.2005900000E+01   0.4700938202E-03   0.4700938202E-03   0.1000000000E-03   0.1316226493E-04   0.1316226493E-04   0.5800000000E-02   0.4569315553E-03   0.4569315553E-03   0.1081919250E+01   0.3289077447E-01   0.3289077447E-01  -0.1202786416E-01  -0.1202786416E-01   0.2686755260E-06   0.3598521466E-03   0.1050270826E+01
   0.2005900000E+01   0.9995299062E+00   0.4700938202E-03   0.1000000000E-03  -0.1316226493E-04   0.1316226493E-04   0.5800000000E-02  -0.4569315553E-03   0.4569315553E-03   0.1081919250E+01   0.3289077447E-01   0.3289077447E-01   0.1202786416E-01  -0.1202786416E-01  -0.2686755885E-06   0.3598521466E-03   0.1050270826E+01
   0.2005900000E+01   0.4700938202E-03   0.9995299062E+00   0.1000000000E-03   0.1316226493E-04  -0.1316226493E-04   0.5800000000E-02   0.4569315553E-03  -0.4569315553E-03   0.1081919250E+01   0.3289077447E-01   0.3289077447E-01  -0.1202786416E-01   0.1202786416E-01  -0.2686755886E-06   0.3598521466E-03   0.1050270826E+01
   0.2005900000E+01   0.9995299062E+00   0.9995299062E+00   0.1000000000E-03  -0.1316226493E-04  -0.1316226493E-04   0.5800000000E-02  -0.4569315553E-03  -0.4569315553E-03   0.1081919250E+01   0.3289077446E-01   0.3289077446E-01   0.1202786416E-01   0.1202786416E-01   0.2686756511E-06   0.3598521466E-03   0.1050270826E+01
     1     2     3     4     5     6     7     8
     2     9    10     3     6    11    12     7
 VARIABLES = X,Y,Z,DU1,DU2,DU3,U1,U2,U3,S11,S22,S33,S12,S13,S23,Vf,SMISES
 ZONE, T="0.6000D+00" F=FEPOINT, I=   12 J=    2 ET=BRICK
   0.0000000000E+00   0.9145826949E-03   0.9145826949E-03   0.0000000000E+00   0.1215934072E-04   0.1215934072E-04   0.0000000000E+00   0.9024233542E-03   0.9024233542E-03   0.9850705427E+00  -0.8943839512E-01  -0.8943839512E-01  -0.1257508775E-01  -0.1257508775E-01   0.3505624183E-06   0.6312024434E-03   0.1075834090E+01
   0.1003390868E+01   0.6342423481E-03   0.6342423481E-03   0.5931311361E-04   0.1220796247E-04   0.1220796247E-04   0.3331555327E-02   0.6220343857E-03   0.6220343857E-03   0.1028158669E+01  -0.3350413085E-01  -0.3350413085E-01  -0.1198361998E-01  -0.1198361998E-01   0.3019668800E-06   0.4920666297E-03   0.1062890161E+01
   0.1003390868E+01   0.9993657577E+00   0.6342423481E-03   0.5931311361E-04  -0.1220796247E-04   0.1220796247E-04   0.3331555327E-02  -0.6220343856E-03   0.6220343857E-03   0.1028158669E+01  -0.3350413085E-01  -0.3350413085E-01   0.1198361998E-01  -0.1198361998E-01  -0.3019669270E-06   0.4920666297E-03   0.1062890161E+01
   0.0000000000E+00   0.9990854173E+00   0.9145826949E-03   0.0000000000E+00  -0.1215934072E-04   0.1215934072E-04   0.0000000000E+00  -0.9024233542E-03   0.9024233542E-03   0.9850705427E+00  -0.8943839511E-01  -0.8943839511E-01   0.1257508775E-01  -0.1257508775E-01  -0.3505623758E-06   0.6312024434E-03   0.1075834090E+01
   0.0000000000E+00   0.9145826949E-03   0.9990854173E+00   0.0000000000E+00   0.1215934072E-04  -0.1215934072E-04   0.0000000000E+00   0.9024233542E-03  -0.9024233542E-03   0.9850705427E+00  -0.8943839511E-01  -0.8943839511E-01  -0.1257508775E-01   0.1257508775E-01  -0.3505623758E-06   0.6312024434E-03   0.1075834090E+01
   0.1003390868E+01   0.6342423481E-03   0.9993657577E+00   0.5931311361E-04   0.1220796247E-04  -0.1220796247E-04   0.3331555327E-02   0.6220343857E-03  -0.6220343856E-03   0.1028158669E+01  -0.3350413085E-01  -0.3350413085E-01  -0.1198361998E-01   0.1198361998E-01  -0.3019669270E-06   0.4920666297E-03   0.1062890161E+01
   0.1003390868E+01   0.9993657577E+00   0.9993657577E+00   0.5931311361E-04  -0.1220796247E-04  -0.1220796247E-04   0.3331555327E-02  -0.6220343856E-03  -0.6220343856E-03   0.1028158669E+01  -0.3350413085E-01  -0.3350413085E-01   0.1198361998E-01   0.1198361998E-01   0.3019669739E-06   0.4920666297E-03   0.1062890161E+01
   0.0000000000E+00   0.9990854173E+00   0.9990854173E+00   0.0000000000E+00  -0.1215934072E-04  -0.1215934072E-04   0.0000000000E+00  -0.9024233542E-03  -0.9024233542E-03   0.9850705426E+00  -0.8943839511E-01  -0.8943839511E-01   0.1257508775E-01   0.1257508775E-01   0.3505623334E-06   0.6312024434E-03   0.1075834090E+01
   0.2006000000E+01   0.4838107495E-03   0.4838107495E-03   0.1000000000E-03   0.1371692930E-04   0.1371692930E-04   0.5900000000E-02   0.4700938202E-03   0.4700938202E-03   0.1071559077E+01   0.2221116805E-01   0.2221116805E-01  -0.1144426415E-01  -0.1144426415E-01   0.2553398902E-06   0.3715985520E-03   0.1050472337E+01
   0.2006000000E+01   0.9995161893E+00   0.4838107495E-03   0.1000000000E-03  -0.1371692930E-04   0.1371692930E-04   0.5900000000E-02  -0.4700938202E-03   0.4700938202E-03   0.1071559077E+01   0.2221116805E-01   0.2221116805E-01   0.1144426415E-01  -0.1144426415E-01  -0.2553400368E-06   0.3715985520E-03   0.1050472337E+01
   0.2006000000E+01   0.4838107495E-03   0.9995161893E+00   0.1000000000E-03   0.1371692930E-04  -0.1371692930E-04   0.5900000000E-02   0.4700938202E-03  -0.4700938202E-03   0.1071559077E+01   0.2221116805E-01   0.2221116805E-01  -0.1144426415E-01   0.1144426415E-01  -0.2553400368E-06   0.3715985520E-03   0.1050472337E+01
   0.2006000000E+01   0.9995161893E+00   0.9995161893E+00   0.1000000000E-03  -0.1371692930E-04  -0.1371692930E-04   0.5900000000E-02  -0.4700938202E-03  -0.4700938202E-03   0.1071559077E+01   0.2221116805E-01   0.2221116805E-01   0.1144426415E-01   0.1144426415E-01   0.2553401834E-06   0.3715985520E-03   0.1050472337E+01
     1     2     3     4     5     6     7     8
     2     9    10     3     6    11    12     7
 VARIABLES = X,Y,Z,DU1,DU2,DU3,U1,U2,U3,S11,S22,S33,S12,S13,S23,Vf,SMISES
 ZONE, T="0.6100D+00" F=FEPOINT, I=   12 J=    2 ET=BRICK
   0.0000000000E+00   0.9250403674E-03   0.9250403674E-03   0.0000000000E+00   0.1045767245E-04   0.1045767245E-04   0.0000000000E+00   0.9145826949E-03   0.9145826949E-03   0.9936839471E+00  -0.7863190911E-01  -0.7863190911E-01  -0.1185191070E-01  -0.1185191070E-01   0.3303785311E-06   0.6469847841E-03   0.1073495455E+01
   0.1003450760E+01   0.6457917430E-03   0.6457917430E-03   0.5989203243E-04   0.1154939481E-04   0.1154939481E-04   0.3390868441E-02   0.6342423481E-03   0.6342423481E-03   0.1026846212E+01  -0.3363086688E-01  -0.3363086688E-01  -0.1127106785E-01  -0.1127106785E-01   0.2834415261E-06   0.5057359602E-03   0.1061564703E+01
   0.1003450760E+01   0.9993542083E+00   0.6457917430E-03   0.5989203243E-04  -0.1154939481E-04   0.1154939481E-04   0.3390868441E-02  -0.6342423481E-03   0.6342423481E-03   0.1026846212E+01  -0.3363086687E-01  -0.3363086687E-01   0.1127106785E-01  -0.1127106785E-01  -0.2834415930E-06   0.5057359602E-03   0.1061564703E+01
   0.0000000000E+00   0.9990749596E+00   0.9250403673E-03   0.0000000000E+00  -0.1045767245E-04   0.1045767245E-04   0.0000000000E+00  -0.9145826949E-03   0.9145826949E-03   0.9936839471E+00  -0.7863190910E-01  -0.7863190911E-01   0.1185191070E-01  -0.1185191070E-01  -0.3303784469E-06   0.6469847840E-03   0.1073495455E+01
   0.0000000000E+00   0.9250403673E-03   0.9990749596E+00   0.0000000000E+00   0.1045767245E-04  -0.1045767245E-04   0.0000000000E+00   0.9145826949E-03  -0.9145826949E-03   0.9936839471E+00  -0.7863190911E-01  -0.7863190910E-01  -0.1185191070E-01   0.1185191070E-01  -0.3303784469E-06   0.6469847840E-03   0.1073495455E+01
   0.1003450760E+01   0.6457917430E-03   0.9993542083E+00   0.5989203243E-04   0.1154939481E-04  -0.1154939481E-04   0.3390868441E-02   0.6342423481E-03  -0.6342423481E-03   0.1026846212E+01  -0.3363086687E-01  -0.3363086687E-01  -0.1127106785E-01   0.1127106785E-01  -0.2834415931E-06   0.5057359602E-03   0.1061564703E+01
   0.1003450760E+01   0.9993542083E+00   0.9993542083E+00   0.5989203243E-04  -0.1154939481E-04  -0.1154939481E-04   0.3390868441E-02  -0.6342423481E-03  -0.6342423481E-03   0.1026846212E+01  -0.3363086687E-01  -0.3363086687E-01   0.1127106785E-01   0.1127106785E-01   0.2834416600E-06   0.5057359602E-03   0.1061564703E+01
   0.0000000000E+00   0.9990749596E+00   0.9990749596E+00   0.0000000000E+00  -0.1045767245E-04  -0.1045767245E-04   0.0000000000E+00  -0.9145826949E-03  -0.9145826949E-03   0.9936839470E+00  -0.7863190910E-01  -0.7863190910E-01   0.1185191070E-01   0.1185191070E-01   0.3303783628E-06   0.6469847840E-03   0.1073495455E+01
   0.2006100000E+01   0.4978403340E-03   0.4978403340E-03   0.1000000000E-03   0.1402958443E-04   0.1402958443E-04   0.6000000000E-02   0.4838107495E-03   0.4838107495E-03   0.1060434346E+01   0.1109295714E-01   0.1109295714E-01  -0.1074005570E-01  -0.1074005570E-01   0.2381765743E-06   0.3833352259E-03   0.1050331770E+01
   0.2006100000E+01   0.9995021597E+00   0.4978403340E-03   0.1000000000E-03  -0.1402958443E-04   0.1402958443E-04   0.6000000000E-02  -0.4838107495E-03   0.4838107495E-03   0.1060434346E+01   0.1109295714E-01   0.1109295714E-01   0.1074005570E-01  -0.1074005570E-01  -0.2381768007E-06   0.3833352258E-03   0.1050331770E+01
   0.2006100000E+01   0.4978403340E-03   0.9995021597E+00   0.1000000000E-03   0.1402958443E-04  -0.1402958443E-04   0.6000000000E-02   0.4838107495E-03  -0.4838107495E-03   0.1060434346E+01   0.1109295714E-01   0.1109295714E-01  -0.1074005570E-01   0.1074005570E-01  -0.2381768007E-06   0.3833352258E-03   0.1050331770E+01
   0.2006100000E+01   0.9995021597E+00   0.9995021597E+00   0.1000000000E-03  -0.1402958443E-04  -0.1402958443E-04   0.6000000000E-02  -0.4838107495E-03  -0.4838107495E-03   0.1060434346E+01   0.1109295714E-01   0.1109295714E-01   0.1074005570E-01   0.1074005570E-01   0.2381770271E-06   0.3833352258E-03   0.1050331770E+01
     1     2     3     4     5     6     7     8
     2     9    10     3     6    11    12     7
 VARIABLES = X,Y,Z,DU1,DU2,DU3,U1,U2,U3,S11,S22,S33,S12,S13,S23,Vf,SMISES
 ZONE, T="0.6200D+00" F=FEPOINT, I=   12 J=    2 ET=BRICK
   0.0000000000E+00   0.9341859262E-03   0.9341859262E-03   0.0000000000E+00   0.9145558865E-05   0.9145558865E-05   0.0000000000E+00   0.9250403674E-03   0.9250403674E-03   0.1007471473E+01  -0.6262098110E-01  -0.6262098110E-01  -0.1106087692E-01  -0.1106087692E-01   0.3078672534E-06   0.6623682952E-03   0.1071122051E+01
   0.1003510950E+01   0.6567607612E-03   0.6567607612E-03   0.6018990612E-04   0.1096901825E-04   0.1096901825E-04   0.3450760473E-02   0.6457917430E-03   0.6457917430E-03   0.1028102846E+01  -0.3106376919E-01  -0.3106376919E-01  -0.1048321538E-01  -0.1048321538E-01   0.2626457386E-06   0.5191893258E-03   0.1060109531E+01
   0.1003510950E+01   0.9993432392E+00   0.6567607612E-03   0.6018990612E-04  -0.1096901825E-04   0.1096901825E-04   0.3450760473E-02  -0.6457917429E-03   0.6457917430E-03   0.1028102846E+01  -0.3106376919E-01  -0.3106376919E-01   0.1048321538E-01  -0.1048321538E-01  -0.2626458177E-06   0.5191893258E-03   0.1060109531E+01
   0.0000000000E+00   0.9990658141E+00   0.9341859262E-03   0.0000000000E+00  -0.9145558864E-05   0.9145558865E-05   0.0000000000E+00  -0.9250403674E-03   0.9250403673E-03   0.1007471472E+01  -0.6262098110E-01  -0.6262098110E-01   0.1106087692E-01  -0.1106087692E-01  -0.3078671178E-06   0.6623682952E-03   0.1071122051E+01
   0.0000000000E+00   0.9341859262E-03   0.9990658141E+00   0.0000000000E+00   0.9145558865E-05  -0.9145558864E-05   0.0000000000E+00   0.9250403673E-03  -0.9250403674E-03   0.1007471472E+01  -0.6262098110E-01  -0.6262098110E-01  -0.1106087692E-01   0.1106087692E-01  -0.3078671178E-06   0.6623682952E-03   0.1071122051E+01
   0.1003510950E+01   0.6567607612E-03   0.9993432392E+00   0.6018990612E-04   0.1096901825E-04  -0.1096901825E-04   0.3450760473E-02   0.6457917430E-03  -0.6457917429E-03   0.1028102846E+01  -0.3106376919E-01  -0.3106376919E-01  -0.1048321538E-01   0.1048321538E-01  -0.2626458177E-06   0.5191893258E-03   0.1060109531E+01
   0.1003510950E+01   0.9993432392E+00   0.9993432392E+00   0.6018990612E-04  -0.1096901825E-04  -0.1096901825E-04   0.3450760473E-02  -0.6457917429E-03  -0.6457917429E-03   0.1028102846E+01  -0.3106376919E-01  -0.3106376919E-01   0.1048321538E-01   0.1048321538E-01   0.2626458967E-06   0.5191893258E-03   0.1060109531E+01
   0.0000000000E+00   0.9990658141E+00   0.9990658141E+00   0.0000000000E+00  -0.9145558865E-05  -0.9145558865E-05   0.0000000000E+00  -0.9250403674E-03  -0.9250403674E-03   0.1007471472E+01  -0.6262098110E-01  -0.6262098110E-01   0.1106087692E-01   0.1106087692E-01   0.3078669822E-06   0.6623682952E-03   0.1071122051E+01
   0.2006200000E+01   0.5119494393E-03   0.5119494393E-03   0.1000000000E-03   0.1410910531E-04   0.1410910531E-04   0.6100000000E-02   0.4978403340E-03   0.4978403340E-03   0.1049259054E+01   0.1651546348E-03   0.1651546348E-03  -0.9953791745E-02  -0.9953791745E-02   0.2188604942E-06   0.3950275733E-03   0.1049944862E+01
   0.2006200000E+01   0.9994880506E+00   0.5119494393E-03   0.1000000000E-03  -0.1410910531E-04   0.1410910531E-04   0.6100000000E-02  -0.4978403339E-03   0.4978403340E-03   0.1049259054E+01   0.1651546344E-03   0.1651546350E-03   0.9953791745E-02  -0.9953791745E-02  -0.2188607945E-06   0.3950275733E-03   0.1049944861E+01
   0.2006200000E+01   0.5119494393E-03   0.9994880506E+00   0.1000000000E-03   0.1410910531E-04  -0.1410910531E-04   0.6100000000E-02   0.4978403340E-03  -0.4978403339E-03   0.1049259054E+01   0.1651546350E-03   0.1651546344E-03  -0.9953791745E-02   0.9953791745E-02  -0.2188607945E-06   0.3950275733E-03   0.1049944861E+01
   0.2006200000E+01   0.9994880506E+00   0.9994880506E+00   0.1000000000E-03  -0.1410910531E-04  -0.1410910531E-04   0.6100000000E-02  -0.4978403339E-03  -0.4978403339E-03   0.1049259054E+01   0.1651546347E-03   0.1651546347E-03   0.9953791745E-02   0.9953791745E-02   0.2188610948E-06   0.3950275733E-03   0.1049944861E+01
     1     2     3     4     5     6     7     8
     2     9    10     3     6    11    12     7
 VARIABLES = X,Y,Z,DU1,DU2,DU3,U1,U2,U3,S11,S22,S33,S12,S13,S23,Vf,SMISES
 ZONE, T="0.6300D+00" F=FEPOINT, I=   12 J=    2 ET=BRICK
   0.0000000000E+00   0.9424763248E-03   0.9424763248E-03   0.0000000000E+00   0.8290398616E-05   0.8290398616E-05   0.0000000000E+00   0.9341859262E-03   0.9341859262E-03   0.1025322846E+01  -0.4264054110E-01  -0.4264054110E-01  -0.1023980621E-01  -0.1023980621E-01   0.2846811629E-06   0.6773783954E-03   0.1068847624E+01
   0.1003571133E+01   0.6672712799E-03   0.6672712799E-03   0.6018212333E-04   0.1051051868E-04   0.1051051868E-04   0.3510950379E-02   0.6567607612E-03   0.6567607612E-03   0.1031696374E+01  -0.2614742849E-01  -0.2614742849E-01  -0.9659695167E-02  -0.9659695167E-02   0.2412170931E-06   0.5324281001E-03   0.1058646411E+01
   0.1003571133E+01   0.9993327287E+00   0.6672712799E-03   0.6018212333E-04  -0.1051051868E-04   0.1051051868E-04   0.3510950379E-02  -0.6567607612E-03   0.6567607612E-03   0.1031696374E+01  -0.2614742849E-01  -0.2614742849E-01   0.9659695166E-02  -0.9659695167E-02  -0.2412171775E-06   0.5324281001E-03   0.1058646411E+01
   0.0000000000E+00   0.9990575237E+00   0.9424763248E-03   0.0000000000E+00  -0.8290398615E-05   0.8290398616E-05   0.0000000000E+00  -0.9341859262E-03   0.9341859262E-03   0.1025322846E+01  -0.4264054110E-01  -0.4264054110E-01   0.1023980621E-01  -0.1023980620E-01  -0.2846809693E-06   0.6773783954E-03   0.1068847624E+01
   0.0000000000E+00   0.9424763248E-03   0.9990575237E+00   0.0000000000E+00   0.8290398616E-05  -0.8290398615E-05   0.0000000000E+00   0.9341859262E-03  -0.9341859262E-03   0.1025322846E+01  -0.4264054110E-01  -0.4264054110E-01  -0.1023980620E-01   0.1023980621E-01  -0.2846809693E-06   0.6773783954E-03   0.1068847624E+01
   0.1003571133E+01   0.6672712799E-03   0.9993327287E+00   0.6018212333E-04   0.1051051868E-04  -0.1051051868E-04   0.3510950379E-02   0.6567607612E-03  -0.6567607612E-03   0.1031696374E+01  -0.2614742849E-01  -0.2614742849E-01  -0.9659695167E-02   0.9659695166E-02  -0.2412171775E-06   0.5324281001E-03   0.1058646411E+01
   0.1003571133E+01   0.9993327287E+00   0.9993327287E+00   0.6018212332E-04  -0.1051051868E-04  -0.1051051868E-04   0.3510950379E-02  -0.6567607612E-03  -0.6567607612E-03   0.1031696374E+01  -0.2614742849E-01  -0.2614742849E-01   0.9659695166E-02   0.9659695166E-02   0.2412172619E-06   0.5324281001E-03   0.1058646411E+01
   0.0000000000E+00   0.9990575237E+00   0.9990575237E+00   0.0000000000E+00  -0.8290398616E-05  -0.8290398616E-05   0.0000000000E+00  -0.9341859262E-03  -0.9341859262E-03   0.1025322846E+01  -0.4264054109E-01  -0.4264054109E-01   0.1023980621E-01   0.1023980621E-01   0.2846807758E-06   0.6773783954E-03   0.1068847624E+01
   0.2006300000E+01   0.5259247944E-03   0.5259247944E-03   0.1000000000E-03   0.1397535509E-04   0.1397535509E-04   0.6200000000E-02   0.5119494393E-03   0.5119494393E-03   0.1038675217E+01  -0.1002455009E-01  -0.1002455009E-01  -0.9126749502E-02  -0.9126749502E-02   0.1990047073E-06   0.4066558704E-03   0.1049415547E+01
   0.2006300000E+01   0.9994740752E+00   0.5259247944E-03   0.1000000000E-03  -0.1397535509E-04   0.1397535509E-04   0.6200000000E-02  -0.5119494392E-03   0.5119494393E-03   0.1038675217E+01  -0.1002455009E-01  -0.1002455009E-01   0.9126749502E-02  -0.9126749502E-02  -0.1990050742E-06   0.4066558704E-03   0.1049415547E+01
   0.2006300000E+01   0.5259247944E-03   0.9994740752E+00   0.1000000000E-03   0.1397535509E-04  -0.1397535509E-04   0.6200000000E-02   0.5119494393E-03  -0.5119494392E-03   0.1038675217E+01  -0.1002455009E-01  -0.1002455009E-01  -0.9126749502E-02   0.9126749502E-02  -0.1990050742E-06   0.4066558704E-03   0.1049415547E+01
   0.2006300000E+01   0.9994740752E+00   0.9994740752E+00   0.1000000000E-03  -0.1397535509E-04  -0.1397535509E-04   0.6200000000E-02  -0.5119494392E-03  -0.5119494392E-03   0.1038675217E+01  -0.1002455009E-01  -0.1002455009E-01   0.9126749502E-02   0.9126749502E-02   0.1990054411E-06   0.4066558704E-03   0.1049415547E+01
     1     2     3     4     5     6     7     8
     2     9    10     3     6    11    12     7
 VARIABLES = X,Y,Z,DU1,DU2,DU3,U1,U2,U3,S11,S22,S33,S12,S13,S23,Vf,SMISES
 ZONE, T="0.6400D+00" F=FEPOINT, I=   12 J=    2 ET=BRICK
   0.0000000000E+00   0.9504031814E-03   0.9504031814E-03   0.0000000000E+00   0.7926856545E-05   0.7926856545E-05   0.0000000000E+00   0.9424763248E-03   0.9424763248E-03   0.1045881953E+01  -0.2016581831E-01  -0.2016581831E-01  -0.9426768851E-02  -0.9426768851E-02   0.2622341936E-06   0.6920606554E-03   0.1066798570E+01
   0.1003630996E+01   0.6774768081E-03   0.6774768081E-03   0.5986396135E-04   0.1020552819E-04   0.1020552819E-04   0.3571132502E-02   0.6672712799E-03   0.6672712799E-03   0.1037221530E+01  -0.1939707918E-01  -0.1939707918E-01  -0.8840453252E-02  -0.8840453252E-02   0.2205521047E-06   0.5454712044E-03   0.1057292751E+01
   0.1003630996E+01   0.9993225232E+00   0.6774768081E-03   0.5986396135E-04  -0.1020552819E-04   0.1020552819E-04   0.3571132502E-02  -0.6672712799E-03   0.6672712799E-03   0.1037221530E+01  -0.1939707918E-01  -0.1939707918E-01   0.8840453251E-02  -0.8840453252E-02  -0.2205521892E-06   0.5454712044E-03   0.1057292751E+01
   0.0000000000E+00   0.9990495968E+00   0.9504031814E-03   0.0000000000E+00  -0.7926856545E-05   0.7926856546E-05   0.0000000000E+00  -0.9424763248E-03   0.9424763248E-03   0.1045881953E+01  -0.2016581831E-01  -0.2016581831E-01   0.9426768851E-02  -0.9426768851E-02  -0.2622339396E-06   0.6920606554E-03   0.1066798570E+01
   0.0000000000E+00   0.9504031814E-03   0.9990495968E+00   0.0000000000E+00   0.7926856546E-05  -0.7926856545E-05   0.0000000000E+00   0.9424763248E-03  -0.9424763248E-03   0.1045881953E+01  -0.2016581831E-01  -0.2016581831E-01  -0.9426768851E-02   0.9426768851E-02  -0.2622339396E-06   0.6920606554E-03   0.1066798570E+01
   0.1003630996E+01   0.6774768081E-03   0.9993225232E+00   0.5986396135E-04   0.1020552819E-04  -0.1020552819E-04   0.3571132502E-02   0.6672712799E-03  -0.6672712799E-03   0.1037221530E+01  -0.1939707918E-01  -0.1939707918E-01  -0.8840453252E-02   0.8840453251E-02  -0.2205521892E-06   0.5454712044E-03   0.1057292751E+01
   0.1003630996E+01   0.9993225232E+00   0.9993225232E+00   0.5986396135E-04  -0.1020552819E-04  -0.1020552819E-04   0.3571132502E-02  -0.6672712799E-03  -0.6672712799E-03   0.1037221530E+01  -0.1939707918E-01  -0.1939707918E-01   0.8840453251E-02   0.8840453251E-02   0.2205522737E-06   0.5454712043E-03   0.1057292751E+01
   0.0000000000E+00   0.9990495968E+00   0.9990495968E+00   0.0000000000E+00  -0.7926856545E-05  -0.7926856545E-05   0.0000000000E+00  -0.9424763248E-03  -0.9424763248E-03   0.1045881953E+01  -0.2016581831E-01  -0.2016581831E-01   0.9426768851E-02   0.9426768851E-02   0.2622336857E-06   0.6920606554E-03   0.1066798570E+01
   0.2006400000E+01   0.5395817342E-03   0.5395817342E-03   0.1000000000E-03   0.1365693983E-04   0.1365693983E-04   0.6300000000E-02   0.5259247944E-03   0.5259247944E-03   0.1029225497E+01  -0.1902992113E-01  -0.1902992113E-01  -0.8300590521E-02  -0.8300590521E-02   0.1799780328E-06   0.4182151279E-03   0.1048847813E+01
   0.2006400000E+01   0.9994604183E+00   0.5395817342E-03   0.1000000000E-03  -0.1365693983E-04   0.1365693983E-04   0.6300000000E-02  -0.5259247943E-03   0.5259247944E-03   0.1029225497E+01  -0.1902992113E-01  -0.1902992112E-01   0.8300590521E-02  -0.8300590521E-02  -0.1799784581E-06   0.4182151279E-03   0.1048847813E+01
   0.2006400000E+01   0.5395817342E-03   0.9994604183E+00   0.1000000000E-03   0.1365693983E-04  -0.1365693983E-04   0.6300000000E-02   0.5259247944E-03  -0.5259247943E-03   0.1029225497E+01  -0.1902992112E-01  -0.1902992113E-01  -0.8300590521E-02   0.8300590521E-02  -0.1799784581E-06   0.4182151279E-03   0.1048847813E+01
   0.2006400000E+01   0.9994604183E+00   0.9994604183E+00   0.1000000000E-03  -0.1365693983E-04  -0.1365693983E-04   0.6300000000E-02  -0.5259247943E-03  -0.5259247943E-03   0.1029225497E+01  -0.1902992112E-01  -0.1902992112E-01   0.8300590521E-02   0.8300590521E-02   0.1799788833E-06   0.4182151278E-03   0.1048847813E+01
     1     2     3     4     5     6     7     8
     2     9    10     3     6    11    12     7
 VARIABLES = X,Y,Z,DU1,DU2,DU3,U1,U2,U3,S11,S22,S33,S12,S13,S23,Vf,SMISES
 ZONE, T="0.6500D+00" F=FEPOINT, I=   12 J=    2 ET=BRICK
   0.0000000000E+00   0.9584586065E-03   0.9584586065E-03   0.0000000000E+00   0.8055425106E-05   0.8055425106E-05   0.0000000000E+00   0.9504031814E-03   0.9504031814E-03   0.1067648198E+01   0.3198082879E-02   0.3198082879E-02  -0.8658086621E-02  -0.8658086621E-02   0.2415974286E-06   0.7064767450E-03   0.1065084461E+01
   0.1003690247E+01   0.6875485145E-03   0.6875485145E-03   0.5925018214E-04   0.1007170641E-04   0.1007170641E-04   0.3630996464E-02   0.6774768081E-03   0.6774768081E-03   0.1044141785E+01  -0.1144866248E-01  -0.1144866248E-01  -0.8063616143E-02  -0.8063616143E-02   0.2016964852E-06   0.5583524786E-03   0.1056153026E+01
   0.1003690247E+01   0.9993124515E+00   0.6875485145E-03   0.5925018214E-04  -0.1007170641E-04   0.1007170641E-04   0.3630996464E-02  -0.6774768080E-03   0.6774768081E-03   0.1044141785E+01  -0.1144866248E-01  -0.1144866248E-01   0.8063616141E-02  -0.8063616142E-02  -0.2016965662E-06   0.5583524786E-03   0.1056153026E+01
   0.0000000000E+00   0.9990415414E+00   0.9584586065E-03   0.0000000000E+00  -0.8055425106E-05   0.8055425107E-05   0.0000000000E+00  -0.9504031814E-03   0.9504031814E-03   0.1067648198E+01   0.3198082879E-02   0.3198082879E-02   0.8658086621E-02  -0.8658086620E-02  -0.2415971158E-06   0.7064767450E-03   0.1065084461E+01
   0.0000000000E+00   0.9584586065E-03   0.9990415414E+00   0.0000000000E+00   0.8055425107E-05  -0.8055425106E-05   0.0000000000E+00   0.9504031814E-03  -0.9504031814E-03   0.1067648198E+01   0.3198082879E-02   0.3198082879E-02  -0.8658086620E-02   0.8658086621E-02  -0.2415971158E-06   0.7064767450E-03   0.1065084461E+01
   0.1003690247E+01   0.6875485145E-03   0.9993124515E+00   0.5925018214E-04   0.1007170641E-04  -0.1007170641E-04   0.3630996464E-02   0.6774768081E-03  -0.6774768080E-03   0.1044141785E+01  -0.1144866248E-01  -0.1144866248E-01  -0.8063616142E-02   0.8063616141E-02  -0.2016965662E-06   0.5583524786E-03   0.1056153026E+01
   0.1003690247E+01   0.9993124515E+00   0.9993124515E+00   0.5925018214E-04  -0.1007170641E-04  -0.1007170641E-04   0.3630996464E-02  -0.6774768080E-03  -0.6774768080E-03   0.1044141785E+01  -0.1144866248E-01  -0.1144866248E-01   0.8063616141E-02   0.8063616141E-02   0.2016966472E-06   0.5583524786E-03   0.1056153026E+01
   0.0000000000E+00   0.9990415414E+00   0.9990415414E+00   0.0000000000E+00  -0.8055425106E-05  -0.8055425106E-05   0.0000000000E+00  -0.9504031814E-03  -0.9504031814E-03   0.1067648198E+01   0.3198082879E-02   0.3198082879E-02   0.8658086620E-02   0.8658086620E-02   0.2415968029E-06   0.7064767450E-03   0.1065084461E+01
   0.2006500000E+01   0.5527705377E-03   0.5527705377E-03   0.1000000000E-03   0.1318880345E-04   0.1318880345E-04   0.6400000000E-02   0.5395817342E-03   0.5395817342E-03   0.1021335443E+01  -0.2651673812E-01  -0.2651673812E-01  -0.7515085361E-02  -0.7515085361E-02   0.1627908659E-06   0.4297138247E-03   0.1048338027E+01
   0.2006500000E+01   0.9994472295E+00   0.5527705377E-03   0.1000000000E-03  -0.1318880345E-04   0.1318880345E-04   0.6400000000E-02  -0.5395817342E-03   0.5395817342E-03   0.1021335443E+01  -0.2651673812E-01  -0.2651673812E-01   0.7515085361E-02  -0.7515085361E-02  -0.1627913405E-06   0.4297138247E-03   0.1048338027E+01
   0.2006500000E+01   0.5527705377E-03   0.9994472295E+00   0.1000000000E-03   0.1318880345E-04  -0.1318880345E-04   0.6400000000E-02   0.5395817342E-03  -0.5395817342E-03   0.1021335443E+01  -0.2651673812E-01  -0.2651673812E-01  -0.7515085361E-02   0.7515085361E-02  -0.1627913405E-06   0.4297138247E-03   0.1048338027E+01
   0.2006500000E+01   0.9994472295E+00   0.9994472295E+00   0.1000000000E-03  -0.1318880345E-04  -0.1318880345E-04   0.6400000000E-02  -0.5395817342E-03  -0.5395817342E-03   0.1021335443E+01  -0.2651673812E-01  -0.2651673812E-01   0.7515085361E-02   0.7515085361E-02   0.1627918151E-06   0.4297138246E-03   0.1048338027E+01
     1     2     3     4     5     6     7     8
     2     9    10     3     6    11    12     7
 VARIABLES = X,Y,Z,DU1,DU2,DU3,U1,U2,U3,S11,S22,S33,S12,S13,S23,Vf,SMISES
 ZONE, T="0.6600D+00" F=FEPOINT, I=   12 J=    2 ET=BRICK
   0.0000000000E+00   0.9671020253E-03   0.9671020253E-03   0.0000000000E+00   0.8643418814E-05   0.8643418814E-05   0.0000000000E+00   0.9584586065E-03   0.9584586065E-03   0.1089084314E+01   0.2583267578E-01   0.2583267578E-01  -0.7966393168E-02  -0.7966393168E-02   0.2234638947E-06   0.7206996506E-03   0.1063789322E+01
   0.1003748620E+01   0.6976605615E-03   0.6976605615E-03   0.5837346521E-04   0.1011204698E-04   0.1011204698E-04   0.3690246646E-02   0.6875485145E-03   0.6875485145E-03   0.1051838897E+01  -0.3001452616E-02  -0.3001452616E-02  -0.7363460473E-02  -0.7363460473E-02   0.1853089147E-06   0.5711172738E-03   0.1055310943E+01
   0.1003748620E+01   0.9993023394E+00   0.6976605615E-03   0.5837346521E-04  -0.1011204698E-04   0.1011204698E-04   0.3690246646E-02  -0.6875485145E-03   0.6875485145E-03   0.1051838897E+01  -0.3001452616E-02  -0.3001452616E-02   0.7363460471E-02  -0.7363460473E-02  -0.1853089904E-06   0.5711172738E-03   0.1055310943E+01
   0.0000000000E+00   0.9990328980E+00   0.9671020253E-03   0.0000000000E+00  -0.8643418814E-05   0.8643418815E-05   0.0000000000E+00  -0.9584586065E-03   0.9584586065E-03   0.1089084314E+01   0.2583267578E-01   0.2583267578E-01   0.7966393168E-02  -0.7966393168E-02  -0.2234635283E-06   0.7206996506E-03   0.1063789322E+01
   0.0000000000E+00   0.9671020253E-03   0.9990328980E+00   0.0000000000E+00   0.8643418815E-05  -0.8643418814E-05   0.0000000000E+00   0.9584586065E-03  -0.9584586065E-03   0.1089084314E+01   0.2583267578E-01   0.2583267578E-01  -0.7966393168E-02   0.7966393168E-02  -0.2234635283E-06   0.7206996506E-03   0.1063789322E+01
   0.1003748620E+01   0.6976605615E-03   0.9993023394E+00   0.5837346521E-04   0.1011204698E-04  -0.1011204698E-04   0.3690246646E-02   0.6875485145E-03  -0.6875485145E-03   0.1051838897E+01  -0.3001452616E-02  -0.3001452616E-02  -0.7363460473E-02   0.7363460471E-02  -0.1853089904E-06   0.5711172738E-03   0.1055310943E+01
   0.1003748620E+01   0.9993023394E+00   0.9993023394E+00   0.5837346521E-04  -0.1011204698E-04  -0.1011204698E-04   0.3690246646E-02  -0.6875485145E-03  -0.6875485145E-03   0.1051838897E+01  -0.3001452616E-02  -0.3001452616E-02   0.7363460471E-02   0.7363460471E-02   0.1853090660E-06   0.5711172737E-03   0.1055310943E+01
   0.0000000000E+00   0.9990328980E+00   0.9990328980E+00   0.0000000000E+00  -0.8643418814E-05  -0.8643418814E-05   0.0000000000E+00  -0.9584586065E-03  -0.9584586065E-03   0.1089084314E+01   0.2583267578E-01   0.2583267578E-01   0.7966393168E-02   0.7966393168E-02   0.2234631620E-06   0.7206996506E-03   0.1063789322E+01
   0.2006600000E+01   0.5653803709E-03   0.5653803709E-03   0.1000000000E-03   0.1260983326E-04   0.1260983326E-04   0.6500000000E-02   0.5527705377E-03   0.5527705377E-03   0.1015304876E+01  -0.3226459812E-01  -0.3226459812E-01  -0.6805989771E-02  -0.6805989771E-02   0.1480587116E-06   0.4411717740E-03   0.1047968137E+01
   0.2006600000E+01   0.9994346196E+00   0.5653803709E-03   0.1000000000E-03  -0.1260983326E-04   0.1260983326E-04   0.6500000000E-02  -0.5527705376E-03   0.5527705377E-03   0.1015304876E+01  -0.3226459812E-01  -0.3226459811E-01   0.6805989770E-02  -0.6805989771E-02  -0.1480592264E-06   0.4411717740E-03   0.1047968137E+01
   0.2006600000E+01   0.5653803709E-03   0.9994346196E+00   0.1000000000E-03   0.1260983326E-04  -0.1260983326E-04   0.6500000000E-02   0.5527705377E-03  -0.5527705376E-03   0.1015304876E+01  -0.3226459811E-01  -0.3226459812E-01  -0.6805989771E-02   0.6805989770E-02  -0.1480592264E-06   0.4411717740E-03   0.1047968137E+01
   0.2006600000E+01   0.9994346196E+00   0.9994346196E+00   0.1000000000E-03  -0.1260983326E-04  -0.1260983326E-04   0.6500000000E-02  -0.5527705376E-03  -0.5527705376E-03   0.1015304876E+01  -0.3226459811E-01  -0.3226459811E-01   0.6805989770E-02   0.6805989770E-02   0.1480597412E-06   0.4411717740E-03   0.1047968137E+01
     1     2     3     4     5     6     7     8
     2     9    10     3     6    11    12     7
 VARIABLES = X,Y,Z,DU1,DU2,DU3,U1,U2,U3,S11,S22,S33,S12,S13,S23,Vf,SMISES
 ZONE, T="0.6700D+00" F=FEPOINT, I=   12 J=    2 ET=BRICK
   0.0000000000E+00   0.9767302838E-03   0.9767302838E-03   0.0000000000E+00   0.9628258482E-05   0.9628258482E-05   0.0000000000E+00   0.9671020253E-03   0.9671020253E-03   0.1108722956E+01   0.4622000783E-01   0.4622000783E-01  -0.7378852037E-02  -0.7378852037E-02   0.2081767393E-06   0.7348084815E-03   0.1062964600E+01
   0.1003805902E+01   0.7079759672E-03   0.7079759672E-03   0.5728181069E-04   0.1031540571E-04   0.1031540571E-04   0.3748620111E-02   0.6976605615E-03   0.6976605615E-03   0.1059665934E+01   0.5241688408E-02   0.5241688408E-02  -0.6768580104E-02  -0.6768580104E-02   0.1716922577E-06   0.5838185455E-03   0.1054823056E+01
   0.1003805902E+01   0.9992920240E+00   0.7079759672E-03   0.5728181069E-04  -0.1031540571E-04   0.1031540571E-04   0.3748620111E-02  -0.6976605614E-03   0.6976605615E-03   0.1059665934E+01   0.5241688408E-02   0.5241688408E-02   0.6768580102E-02  -0.6768580104E-02  -0.1716923280E-06   0.5838185455E-03   0.1054823056E+01
   0.0000000000E+00   0.9990232697E+00   0.9767302838E-03   0.0000000000E+00  -0.9628258481E-05   0.9628258482E-05   0.0000000000E+00  -0.9671020253E-03   0.9671020253E-03   0.1108722956E+01   0.4622000783E-01   0.4622000783E-01   0.7378852037E-02  -0.7378852037E-02  -0.2081763284E-06   0.7348084814E-03   0.1062964600E+01
   0.0000000000E+00   0.9767302838E-03   0.9990232697E+00   0.0000000000E+00   0.9628258482E-05  -0.9628258481E-05   0.0000000000E+00   0.9671020253E-03  -0.9671020253E-03   0.1108722956E+01   0.4622000783E-01   0.4622000783E-01  -0.7378852037E-02   0.7378852037E-02  -0.2081763284E-06   0.7348084814E-03   0.1062964600E+01
   0.1003805902E+01   0.7079759672E-03   0.9992920240E+00   0.5728181069E-04   0.1031540571E-04  -0.1031540571E-04   0.3748620111E-02   0.6976605615E-03  -0.6976605614E-03   0.1059665934E+01   0.5241688408E-02   0.5241688408E-02  -0.6768580104E-02   0.6768580102E-02  -0.1716923280E-06   0.5838185455E-03   0.1054823056E+01
   0.1003805902E+01   0.9992920240E+00   0.9992920240E+00   0.5728181069E-04  -0.1031540571E-04  -0.1031540571E-04   0.3748620111E-02  -0.6976605614E-03  -0.6976605614E-03   0.1059665934E+01   0.5241688408E-02   0.5241688408E-02   0.6768580102E-02   0.6768580102E-02   0.1716923983E-06   0.5838185454E-03   0.1054823056E+01
   0.0000000000E+00   0.9990232697E+00   0.9990232697E+00   0.0000000000E+00  -0.9628258481E-05  -0.9628258481E-05   0.0000000000E+00  -0.9671020253E-03  -0.9671020253E-03   0.1108722956E+01   0.4622000783E-01   0.4622000783E-01   0.7378852037E-02   0.7378852037E-02   0.2081759175E-06   0.7348084814E-03   0.1062964600E+01
   0.2006700000E+01   0.5773409837E-03   0.5773409837E-03   0.1000000000E-03   0.1196061276E-04   0.1196061276E-04   0.6600000000E-02   0.5653803709E-03   0.5653803709E-03   0.1011307482E+01  -0.3616141490E-01  -0.3616141490E-01  -0.6203164363E-02  -0.6203164363E-02   0.1360368464E-06   0.4526173839E-03   0.1047800154E+01
   0.2006700000E+01   0.9994226590E+00   0.5773409837E-03   0.1000000000E-03  -0.1196061276E-04   0.1196061276E-04   0.6600000000E-02  -0.5653803709E-03   0.5653803709E-03   0.1011307482E+01  -0.3616141490E-01  -0.3616141490E-01   0.6203164362E-02  -0.6203164363E-02  -0.1360373922E-06   0.4526173839E-03   0.1047800154E+01
   0.2006700000E+01   0.5773409837E-03   0.9994226590E+00   0.1000000000E-03   0.1196061276E-04  -0.1196061276E-04   0.6600000000E-02   0.5653803709E-03  -0.5653803709E-03   0.1011307482E+01  -0.3616141490E-01  -0.3616141490E-01  -0.6203164363E-02   0.6203164362E-02  -0.1360373922E-06   0.4526173839E-03   0.1047800154E+01
   0.2006700000E+01   0.9994226590E+00   0.9994226590E+00   0.1000000000E-03  -0.1196061276E-04  -0.1196061276E-04   0.6600000000E-02  -0.5653803709E-03  -0.5653803709E-03   0.1011307482E+01  -0.3616141490E-01  -0.3616141490E-01   0.6203164362E-02   0.6203164362E-02   0.1360379380E-06   0.4526173839E-03   0.1047800154E+01
     1     2     3     4     5     6     7     8
     2     9    10     3     6    11    12     7
 VARIABLES = X,Y,Z,DU1,DU2,DU3,U1,U2,U3,S11,S22,S33,S12,S13,S23,Vf,SMISES
 ZONE, T="0.6800D+00" F=FEPOINT, I=   12 J=    2 ET=BRICK
   0.0000000000E+00   0.9876530222E-03   0.9876530222E-03   0.0000000000E+00   0.1092273841E-04   0.1092273841E-04   0.0000000000E+00   0.9767302838E-03   0.9767302838E-03   0.1125264857E+01   0.6304574988E-01   0.6304574988E-01  -0.6915647131E-02  -0.6915647131E-02   0.1958035259E-06   0.7488831272E-03   0.1062624743E+01
   0.1003861937E+01   0.7186341120E-03   0.7186341120E-03   0.5603510375E-04   0.1065814483E-04   0.1065814483E-04   0.3805901922E-02   0.7079759672E-03   0.7079759672E-03   0.1066999545E+01   0.1263134571E-01   0.1263134571E-01  -0.6300356199E-02  -0.6300356199E-02   0.1608736422E-06   0.5965126872E-03   0.1054714585E+01
   0.1003861937E+01   0.9992813659E+00   0.7186341120E-03   0.5603510375E-04  -0.1065814483E-04   0.1065814483E-04   0.3805901922E-02  -0.7079759671E-03   0.7079759672E-03   0.1066999544E+01   0.1263134571E-01   0.1263134571E-01   0.6300356197E-02  -0.6300356199E-02  -0.1608737086E-06   0.5965126872E-03   0.1054714585E+01
   0.0000000000E+00   0.9990123470E+00   0.9876530222E-03   0.0000000000E+00  -0.1092273841E-04   0.1092273841E-04   0.0000000000E+00  -0.9767302838E-03   0.9767302838E-03   0.1125264857E+01   0.6304574988E-01   0.6304574988E-01   0.6915647131E-02  -0.6915647131E-02  -0.1958030823E-06   0.7488831272E-03   0.1062624743E+01
   0.0000000000E+00   0.9876530222E-03   0.9990123470E+00   0.0000000000E+00   0.1092273841E-04  -0.1092273841E-04   0.0000000000E+00   0.9767302838E-03  -0.9767302838E-03   0.1125264857E+01   0.6304574988E-01   0.6304574988E-01  -0.6915647131E-02   0.6915647131E-02  -0.1958030823E-06   0.7488831272E-03   0.1062624743E+01
   0.1003861937E+01   0.7186341120E-03   0.9992813659E+00   0.5603510375E-04   0.1065814483E-04  -0.1065814483E-04   0.3805901922E-02   0.7079759672E-03  -0.7079759671E-03   0.1066999544E+01   0.1263134571E-01   0.1263134571E-01  -0.6300356199E-02   0.6300356197E-02  -0.1608737086E-06   0.5965126872E-03   0.1054714585E+01
   0.1003861937E+01   0.9992813659E+00   0.9992813659E+00   0.5603510375E-04  -0.1065814483E-04  -0.1065814483E-04   0.3805901922E-02  -0.7079759671E-03  -0.7079759671E-03   0.1066999544E+01   0.1263134571E-01   0.1263134571E-01   0.6300356197E-02   0.6300356197E-02   0.1608737749E-06   0.5965126871E-03   0.1054714585E+01
   0.0000000000E+00   0.9990123470E+00   0.9990123470E+00   0.0000000000E+00  -0.1092273841E-04  -0.1092273841E-04   0.0000000000E+00  -0.9767302838E-03  -0.9767302838E-03   0.1125264857E+01   0.6304574988E-01   0.6304574988E-01   0.6915647131E-02   0.6915647131E-02   0.1958026388E-06   0.7488831271E-03   0.1062624743E+01
   0.2006800000E+01   0.5886224028E-03   0.5886224028E-03   0.1000000000E-03   0.1128141913E-04   0.1128141913E-04   0.6700000000E-02   0.5773409837E-03   0.5773409837E-03   0.1009397320E+01  -0.3819249284E-01  -0.3819249284E-01  -0.5729033585E-02  -0.5729033585E-02   0.1267061962E-06   0.4640845498E-03   0.1047872373E+01
   0.2006800000E+01   0.9994113776E+00   0.5886224028E-03   0.1000000000E-03  -0.1128141913E-04   0.1128141913E-04   0.6700000000E-02  -0.5773409836E-03   0.5773409837E-03   0.1009397320E+01  -0.3819249284E-01  -0.3819249283E-01   0.5729033585E-02  -0.5729033585E-02  -0.1267067641E-06   0.4640845498E-03   0.1047872373E+01
   0.2006800000E+01   0.5886224028E-03   0.9994113776E+00   0.1000000000E-03   0.1128141913E-04  -0.1128141913E-04   0.6700000000E-02   0.5773409837E-03  -0.5773409836E-03   0.1009397320E+01  -0.3819249283E-01  -0.3819249284E-01  -0.5729033585E-02   0.5729033585E-02  -0.1267067641E-06   0.4640845498E-03   0.1047872373E+01
   0.2006800000E+01   0.9994113776E+00   0.9994113776E+00   0.1000000000E-03  -0.1128141913E-04  -0.1128141913E-04   0.6700000000E-02  -0.5773409836E-03  -0.5773409836E-03   0.1009397320E+01  -0.3819249283E-01  -0.3819249283E-01   0.5729033584E-02   0.5729033584E-02   0.1267073319E-06   0.4640845497E-03   0.1047872373E+01
     1     2     3     4     5     6     7     8
     2     9    10     3     6    11    12     7
 VARIABLES = X,Y,Z,DU1,DU2,DU3,U1,U2,U3,S11,S22,S33,S12,S13,S23,Vf,SMISES
 ZONE, T="0.6900D+00" F=FEPOINT, I=   12 J=    2 ET=BRICK
   0.0000000000E+00   0.1000074856E-02   0.1000074856E-02   0.0000000000E+00   0.1242183397E-04   0.1242183397E-04   0.0000000000E+00   0.9876530222E-03   0.9876530222E-03   0.1137662238E+01   0.7528425712E-01   0.7528425712E-01  -0.6588864784E-02  -0.6588864784E-02   0.1862320395E-06   0.7629989977E-03   0.1062746139E+01
   0.1003916638E+01   0.7297408117E-03   0.7297408117E-03   0.5470107687E-04   0.1110669967E-04   0.1110669967E-04   0.3861937026E-02   0.7186341120E-03   0.7186341120E-03   0.1073287614E+01   0.1862123989E-01   0.1862123989E-01  -0.5971836946E-02  -0.5971836946E-02   0.1527071010E-06   0.6092553098E-03   0.1054978034E+01
   0.1003916638E+01   0.9992702592E+00   0.7297408117E-03   0.5470107687E-04  -0.1110669967E-04   0.1110669967E-04   0.3861937026E-02  -0.7186341120E-03   0.7186341120E-03   0.1073287614E+01   0.1862123989E-01   0.1862123989E-01   0.5971836944E-02  -0.5971836946E-02  -0.1527071662E-06   0.6092553098E-03   0.1054978034E+01
   0.0000000000E+00   0.9989999251E+00   0.1000074856E-02   0.0000000000E+00  -0.1242183397E-04   0.1242183397E-04   0.0000000000E+00  -0.9876530222E-03   0.9876530222E-03   0.1137662238E+01   0.7528425712E-01   0.7528425712E-01   0.6588864783E-02  -0.6588864783E-02  -0.1862315772E-06   0.7629989976E-03   0.1062746139E+01
   0.0000000000E+00   0.1000074856E-02   0.9989999251E+00   0.0000000000E+00   0.1242183397E-04  -0.1242183397E-04   0.0000000000E+00   0.9876530222E-03  -0.9876530222E-03   0.1137662238E+01   0.7528425712E-01   0.7528425712E-01  -0.6588864783E-02   0.6588864783E-02  -0.1862315772E-06   0.7629989976E-03   0.1062746139E+01
   0.1003916638E+01   0.7297408117E-03   0.9992702592E+00   0.5470107687E-04   0.1110669967E-04  -0.1110669967E-04   0.3861937026E-02   0.7186341120E-03  -0.7186341120E-03   0.1073287614E+01   0.1862123989E-01   0.1862123989E-01  -0.5971836946E-02   0.5971836944E-02  -0.1527071662E-06   0.6092553098E-03   0.1054978034E+01
   0.1003916638E+01   0.9992702592E+00   0.9992702592E+00   0.5470107687E-04  -0.1110669967E-04  -0.1110669967E-04   0.3861937026E-02  -0.7186341120E-03  -0.7186341120E-03   0.1073287614E+01   0.1862123989E-01   0.1862123989E-01   0.5971836944E-02   0.5971836944E-02   0.1527072313E-06   0.6092553098E-03   0.1054978034E+01
   0.0000000000E+00   0.9989999251E+00   0.9989999251E+00   0.0000000000E+00  -0.1242183397E-04  -0.1242183397E-04   0.0000000000E+00  -0.9876530222E-03  -0.9876530222E-03   0.1137662238E+01   0.7528425711E-01   0.7528425711E-01   0.6588864783E-02   0.6588864783E-02   0.1862311148E-06   0.7629989976E-03   0.1062746139E+01
   0.2006900000E+01   0.5992329249E-03   0.5992329249E-03   0.1000000000E-03   0.1061052212E-04   0.1061052212E-04   0.6800000000E-02   0.5886224028E-03   0.5886224028E-03   0.1009520759E+01  -0.3842621054E-01  -0.3842621054E-01  -0.5397476718E-02  -0.5397476718E-02   0.1198825181E-06   0.4756093906E-03   0.1048197701E+01
   0.2006900000E+01   0.9994007671E+00   0.5992329249E-03   0.1000000000E-03  -0.1061052212E-04   0.1061052212E-04   0.6800000000E-02  -0.5886224028E-03   0.5886224028E-03   0.1009520759E+01  -0.3842621054E-01  -0.3842621054E-01   0.5397476717E-02  -0.5397476718E-02  -0.1198830995E-06   0.4756093906E-03   0.1048197701E+01
   0.2006900000E+01   0.5992329249E-03   0.9994007671E+00   0.1000000000E-03   0.1061052212E-04  -0.1061052212E-04   0.6800000000E-02   0.5886224028E-03  -0.5886224028E-03   0.1009520759E+01  -0.3842621054E-01  -0.3842621054E-01  -0.5397476718E-02   0.5397476717E-02  -0.1198830995E-06   0.4756093906E-03   0.1048197701E+01
   0.2006900000E+01   0.9994007671E+00   0.9994007671E+00   0.1000000000E-03  -0.1061052211E-04  -0.1061052211E-04   0.6800000000E-02  -0.5886224028E-03  -0.5886224028E-03   0.1009520759E+01  -0.3842621054E-01  -0.3842621054E-01   0.5397476717E-02   0.5397476717E-02   0.1198836809E-06   0.4756093906E-03   0.1048197701E+01
     1     2     3     4     5     6     7     8
     2     9    10     3     6    11    12     7
 VARIABLES = X,Y,Z,DU1,DU2,DU3,U1,U2,U3,S11,S22,S33,S12,S13,S23,Vf,SMISES
 ZONE, T="0.7000D+00" F=FEPOINT, I=   12 J=    2 ET=BRICK
   0.0000000000E+00   0.1014085366E-02   0.1014085366E-02   0.0000000000E+00   0.1401050992E-04   0.1401050992E-04   0.0000000000E+00   0.1000074856E-02   0.1000074856E-02   0.1145182368E+01   0.8226001573E-01   0.8226001573E-01  -0.6401873411E-02  -0.6401873411E-02   0.1792615639E-06   0.7772220845E-03   0.1063269726E+01
   0.1003969989E+01   0.7413616187E-03   0.7413616187E-03   0.5335093536E-04   0.1162080704E-04   0.1162080704E-04   0.3916638102E-02   0.7297408117E-03   0.7297408117E-03   0.1078089002E+01   0.2280679463E-01   0.2280679463E-01  -0.5787120511E-02  -0.5787120511E-02   0.1469710811E-06   0.6220971729E-03   0.1055574916E+01
   0.1003969989E+01   0.9992586384E+00   0.7413616187E-03   0.5335093536E-04  -0.1162080704E-04   0.1162080704E-04   0.3916638102E-02  -0.7297408116E-03   0.7297408117E-03   0.1078089002E+01   0.2280679463E-01   0.2280679463E-01   0.5787120508E-02  -0.5787120510E-02  -0.1469711485E-06   0.6220971729E-03   0.1055574916E+01
   0.0000000000E+00   0.9989859146E+00   0.1014085366E-02   0.0000000000E+00  -0.1401050992E-04   0.1401050992E-04   0.0000000000E+00  -0.1000074856E-02   0.1000074856E-02   0.1145182368E+01   0.8226001573E-01   0.8226001573E-01   0.6401873410E-02  -0.6401873411E-02  -0.1792610977E-06   0.7772220845E-03   0.1063269726E+01
   0.0000000000E+00   0.1014085366E-02   0.9989859146E+00   0.0000000000E+00   0.1401050992E-04  -0.1401050992E-04   0.0000000000E+00   0.1000074856E-02  -0.1000074856E-02   0.1145182368E+01   0.8226001573E-01   0.8226001573E-01  -0.6401873411E-02   0.6401873410E-02  -0.1792610977E-06   0.7772220845E-03   0.1063269726E+01
   0.1003969989E+01   0.7413616187E-03   0.9992586384E+00   0.5335093536E-04   0.1162080704E-04  -0.1162080704E-04   0.3916638102E-02   0.7297408117E-03  -0.7297408116E-03   0.1078089002E+01   0.2280679463E-01   0.2280679463E-01  -0.5787120510E-02   0.5787120508E-02  -0.1469711486E-06   0.6220971729E-03   0.1055574916E+01
   0.1003969989E+01   0.9992586384E+00   0.9992586384E+00   0.5335093536E-04  -0.1162080704E-04  -0.1162080704E-04   0.3916638102E-02  -0.7297408116E-03  -0.7297408116E-03   0.1078089002E+01   0.2280679463E-01   0.2280679463E-01   0.5787120508E-02   0.5787120508E-02   0.1469712160E-06   0.6220971729E-03   0.1055574916E+01
   0.0000000000E+00   0.9989859146E+00   0.9989859146E+00   0.0000000000E+00  -0.1401050992E-04  -0.1401050992E-04   0.0000000000E+00  -0.1000074856E-02  -0.1000074856E-02   0.1145182368E+01   0.8226001572E-01   0.8226001572E-01   0.6401873410E-02   0.6401873410E-02   0.1792606315E-06   0.7772220844E-03   0.1063269726E+01
   0.2007000000E+01   0.6092157304E-03   0.6092157304E-03   0.1000000000E-03   0.9982805436E-05   0.9982805436E-05   0.6900000000E-02   0.5992329249E-03   0.5992329249E-03   0.1011532262E+01  -0.3699825171E-01  -0.3699825171E-01  -0.5213229558E-02  -0.5213229558E-02   0.1153197039E-06   0.4872270261E-03   0.1048764284E+01
   0.2007000000E+01   0.9993907843E+00   0.6092157304E-03   0.1000000000E-03  -0.9982805436E-05   0.9982805436E-05   0.6900000000E-02  -0.5992329249E-03   0.5992329249E-03   0.1011532262E+01  -0.3699825171E-01  -0.3699825171E-01   0.5213229557E-02  -0.5213229558E-02  -0.1153202910E-06   0.4872270261E-03   0.1048764284E+01
   0.2007000000E+01   0.6092157304E-03   0.9993907843E+00   0.1000000000E-03   0.9982805436E-05  -0.9982805436E-05   0.6900000000E-02   0.5992329249E-03  -0.5992329249E-03   0.1011532262E+01  -0.3699825171E-01  -0.3699825171E-01  -0.5213229558E-02   0.5213229557E-02  -0.1153202910E-06   0.4872270261E-03   0.1048764284E+01
   0.2007000000E+01   0.9993907843E+00   0.9993907843E+00   0.1000000000E-03  -0.9982805436E-05  -0.9982805436E-05   0.6900000000E-02  -0.5992329249E-03  -0.5992329249E-03   0.1011532262E+01  -0.3699825171E-01  -0.3699825171E-01   0.5213229557E-02   0.5213229557E-02   0.1153208781E-06   0.4872270261E-03   0.1048764284E+01
     1     2     3     4     5     6     7     8
     2     9    10     3     6    11    12     7
 VARIABLES = X,Y,Z,DU1,DU2,DU3,U1,U2,U3,S11,S22,S33,S12,S13,S23,Vf,SMISES
 ZONE, T="0.7100D+00" F=FEPOINT, I=   12 J=    2 ET=BRICK
   0.0000000000E+00   0.1029657304E-02   0.1029657304E-02   0.0000000000E+00   0.1557193779E-04   0.1557193779E-04   0.0000000000E+00   0.1014085366E-02   0.1014085366E-02   0.1147447604E+01   0.8368191388E-01   0.8368191388E-01  -0.6349274476E-02  -0.6349274476E-02   0.1746683568E-06   0.7916046215E-03   0.1064107091E+01
   0.1004022044E+01   0.7535187131E-03   0.7535187131E-03   0.5205492309E-04   0.1215709444E-04   0.1215709444E-04   0.3969989038E-02   0.7413616187E-03   0.7413616187E-03   0.1081102756E+01   0.2494998776E-01   0.2494998776E-01  -0.5741305764E-02  -0.5741305764E-02   0.1434382083E-06   0.6350804950E-03   0.1056440465E+01
   0.1004022044E+01   0.9992464813E+00   0.7535187131E-03   0.5205492309E-04  -0.1215709444E-04   0.1215709444E-04   0.3969989038E-02  -0.7413616187E-03   0.7413616187E-03   0.1081102756E+01   0.2494998776E-01   0.2494998776E-01   0.5741305762E-02  -0.5741305764E-02  -0.1434382819E-06   0.6350804950E-03   0.1056440465E+01
   0.0000000000E+00   0.9989703427E+00   0.1029657304E-02   0.0000000000E+00  -0.1557193779E-04   0.1557193779E-04   0.0000000000E+00  -0.1014085366E-02   0.1014085366E-02   0.1147447604E+01   0.8368191387E-01   0.8368191387E-01   0.6349274475E-02  -0.6349274476E-02  -0.1746679018E-06   0.7916046214E-03   0.1064107091E+01
   0.0000000000E+00   0.1029657304E-02   0.9989703427E+00   0.0000000000E+00   0.1557193779E-04  -0.1557193779E-04   0.0000000000E+00   0.1014085366E-02  -0.1014085366E-02   0.1147447604E+01   0.8368191387E-01   0.8368191387E-01  -0.6349274476E-02   0.6349274475E-02  -0.1746679018E-06   0.7916046214E-03   0.1064107091E+01
   0.1004022044E+01   0.7535187131E-03   0.9992464813E+00   0.5205492309E-04   0.1215709444E-04  -0.1215709444E-04   0.3969989038E-02   0.7413616187E-03  -0.7413616187E-03   0.1081102756E+01   0.2494998776E-01   0.2494998776E-01  -0.5741305764E-02   0.5741305762E-02  -0.1434382819E-06   0.6350804950E-03   0.1056440465E+01
   0.1004022044E+01   0.9992464813E+00   0.9992464813E+00   0.5205492309E-04  -0.1215709444E-04  -0.1215709444E-04   0.3969989038E-02  -0.7413616187E-03  -0.7413616187E-03   0.1081102756E+01   0.2494998776E-01   0.2494998776E-01   0.5741305762E-02   0.5741305762E-02   0.1434383555E-06   0.6350804949E-03   0.1056440465E+01
   0.0000000000E+00   0.9989703427E+00   0.9989703427E+00   0.0000000000E+00  -0.1557193779E-04  -0.1557193779E-04   0.0000000000E+00  -0.1014085366E-02  -0.1014085366E-02   0.1147447604E+01   0.8368191387E-01   0.8368191387E-01   0.6349274475E-02   0.6349274475E-02   0.1746674468E-06   0.7916046214E-03   0.1064107091E+01
   0.2007100000E+01   0.6186444335E-03   0.6186444335E-03   0.1000000000E-03   0.9428703088E-05   0.9428703088E-05   0.7000000000E-02   0.6092157304E-03   0.6092157304E-03   0.1015212480E+01  -0.3409600809E-01  -0.3409600809E-01  -0.5171848736E-02  -0.5171848736E-02   0.1127834713E-06   0.4989685902E-03   0.1049538365E+01
   0.2007100000E+01   0.9993813556E+00   0.6186444334E-03   0.1000000000E-03  -0.9428703088E-05   0.9428703088E-05   0.7000000000E-02  -0.6092157303E-03   0.6092157304E-03   0.1015212480E+01  -0.3409600809E-01  -0.3409600809E-01   0.5171848735E-02  -0.5171848736E-02  -0.1127840570E-06   0.4989685902E-03   0.1049538365E+01
   0.2007100000E+01   0.6186444334E-03   0.9993813556E+00   0.1000000000E-03   0.9428703088E-05  -0.9428703088E-05   0.7000000000E-02   0.6092157304E-03  -0.6092157303E-03   0.1015212480E+01  -0.3409600809E-01  -0.3409600809E-01  -0.5171848736E-02   0.5171848735E-02  -0.1127840570E-06   0.4989685902E-03   0.1049538365E+01
   0.2007100000E+01   0.9993813556E+00   0.9993813556E+00   0.1000000000E-03  -0.9428703088E-05  -0.9428703088E-05   0.7000000000E-02  -0.6092157303E-03  -0.6092157303E-03   0.1015212480E+01  -0.3409600809E-01  -0.3409600809E-01   0.5171848735E-02   0.5171848735E-02   0.1127846426E-06   0.4989685902E-03   0.1049538365E+01
     1     2     3     4     5     6     7     8
     2     9    10     3     6    11    12     7
 VARIABLES = X,Y,Z,DU1,DU2,DU3,U1,U2,U3,S11,S22,S33,S12,S13,S23,Vf,SMISES
 ZONE, T="0.7200D+00" F=FEPOINT, I=   12 J=    2 ET=BRICK
   0.0000000000E+00   0.1046652831E-02   0.1046652831E-02   0.0000000000E+00   0.1699552690E-04   0.1699552690E-04   0.0000000000E+00   0.1029657304E-02   0.1029657304E-02   0.1144449873E+01   0.7964900380E-01   0.7964900380E-01  -0.6417449481E-02  -0.6417449481E-02   0.1722337327E-06   0.8061816604E-03   0.1065149277E+01
   0.1004072922E+01   0.7661914313E-03   0.7661914313E-03   0.5087809942E-04   0.1267271817E-04   0.1267271817E-04   0.4022043961E-02   0.7535187131E-03   0.7535187131E-03   0.1082185022E+01   0.2498924284E-01   0.2498924284E-01  -0.5821031815E-02  -0.5821031815E-02   0.1419048470E-06   0.6482359019E-03   0.1057490748E+01
   0.1004072922E+01   0.9992338086E+00   0.7661914313E-03   0.5087809942E-04  -0.1267271817E-04   0.1267271817E-04   0.4022043961E-02  -0.7535187131E-03   0.7535187131E-03   0.1082185022E+01   0.2498924284E-01   0.2498924284E-01   0.5821031813E-02  -0.5821031815E-02  -0.1419049306E-06   0.6482359019E-03   0.1057490748E+01
   0.0000000000E+00   0.9989533472E+00   0.1046652831E-02   0.0000000000E+00  -0.1699552690E-04   0.1699552690E-04   0.0000000000E+00  -0.1029657304E-02   0.1029657304E-02   0.1144449873E+01   0.7964900379E-01   0.7964900379E-01   0.6417449480E-02  -0.6417449480E-02  -0.1722333028E-06   0.8061816604E-03   0.1065149277E+01
   0.0000000000E+00   0.1046652831E-02   0.9989533472E+00   0.0000000000E+00   0.1699552690E-04  -0.1699552690E-04   0.0000000000E+00   0.1029657304E-02  -0.1029657304E-02   0.1144449873E+01   0.7964900379E-01   0.7964900379E-01  -0.6417449480E-02   0.6417449480E-02  -0.1722333028E-06   0.8061816604E-03   0.1065149277E+01
   0.1004072922E+01   0.7661914313E-03   0.9992338086E+00   0.5087809942E-04   0.1267271817E-04  -0.1267271817E-04   0.4022043961E-02   0.7535187131E-03  -0.7535187131E-03   0.1082185022E+01   0.2498924284E-01   0.2498924284E-01  -0.5821031815E-02   0.5821031813E-02  -0.1419049306E-06   0.6482359019E-03   0.1057490748E+01
   0.1004072922E+01   0.9992338086E+00   0.9992338086E+00   0.5087809942E-04  -0.1267271817E-04  -0.1267271817E-04   0.4022043961E-02  -0.7535187131E-03  -0.7535187131E-03   0.1082185022E+01   0.2498924283E-01   0.2498924283E-01   0.5821031813E-02   0.5821031813E-02   0.1419050142E-06   0.6482359019E-03   0.1057490748E+01
   0.0000000000E+00   0.9989533472E+00   0.9989533472E+00   0.0000000000E+00  -0.1699552690E-04  -0.1699552690E-04   0.0000000000E+00  -0.1029657304E-02  -0.1029657304E-02   0.1144449873E+01   0.7964900379E-01   0.7964900379E-01   0.6417449480E-02   0.6417449480E-02   0.1722328730E-06   0.8061816604E-03   0.1065149277E+01
   0.2007200000E+01   0.6276178575E-03   0.6276178575E-03   0.1000000000E-03   0.8973424094E-05   0.8973424094E-05   0.7100000000E-02   0.6186444335E-03   0.6186444335E-03   0.1020287156E+01  -0.2994432601E-01  -0.2994432601E-01  -0.5260252257E-02  -0.5260252257E-02   0.1120822943E-06   0.5108586807E-03   0.1050469033E+01
   0.2007200000E+01   0.9993723821E+00   0.6276178575E-03   0.1000000000E-03  -0.8973424094E-05   0.8973424094E-05   0.7100000000E-02  -0.6186444334E-03   0.6186444334E-03   0.1020287156E+01  -0.2994432601E-01  -0.2994432601E-01   0.5260252255E-02  -0.5260252257E-02  -0.1120828722E-06   0.5108586807E-03   0.1050469033E+01
   0.2007200000E+01   0.6276178575E-03   0.9993723821E+00   0.1000000000E-03   0.8973424094E-05  -0.8973424094E-05   0.7100000000E-02   0.6186444334E-03  -0.6186444334E-03   0.1020287156E+01  -0.2994432601E-01  -0.2994432601E-01  -0.5260252257E-02   0.5260252255E-02  -0.1120828722E-06   0.5108586807E-03   0.1050469033E+01
   0.2007200000E+01   0.9993723821E+00   0.9993723821E+00   0.1000000000E-03  -0.8973424094E-05  -0.8973424094E-05   0.7100000000E-02  -0.6186444334E-03  -0.6186444334E-03   0.1020287156E+01  -0.2994432601E-01  -0.2994432601E-01   0.5260252255E-02   0.5260252255E-02   0.1120834501E-06   0.5108586807E-03   0.1050469033E+01
     1     2     3     4     5     6     7     8
     2     9    10     3     6    11    12     7
 VARIABLES = X,Y,Z,DU1,DU2,DU3,U1,U2,U3,S11,S22,S33,S12,S13,S23,Vf,SMISES
 ZONE, T="0.7300D+00" F=FEPOINT, I=   12 J=    2 ET=BRICK
   0.0000000000E+00   0.1064837045E-02   0.1064837045E-02   0.0000000000E+00   0.1818421403E-04   0.1818421403E-04   0.0000000000E+00   0.1046652831E-02   0.1046652831E-02   0.1136539274E+01   0.7062863014E-01   0.7062863014E-01  -0.6585668619E-02  -0.6585668619E-02   0.1717351112E-06   0.8209688855E-03   0.1066277146E+01
   0.1004122799E+01   0.7793201854E-03   0.7793201854E-03   0.4987657538E-04   0.1312875414E-04   0.1312875414E-04   0.4072922060E-02   0.7661914313E-03   0.7661914313E-03   0.1081352835E+01   0.2303448671E-01   0.2303448671E-01  -0.6005574491E-02  -0.6005574491E-02   0.1421804896E-06   0.6615802813E-03   0.1058631255E+01
   0.1004122799E+01   0.9992206798E+00   0.7793201854E-03   0.4987657538E-04  -0.1312875414E-04   0.1312875414E-04   0.4072922060E-02  -0.7661914313E-03   0.7661914313E-03   0.1081352835E+01   0.2303448671E-01   0.2303448671E-01   0.6005574489E-02  -0.6005574491E-02  -0.1421805864E-06   0.6615802813E-03   0.1058631255E+01
   0.0000000000E+00   0.9989351630E+00   0.1064837045E-02   0.0000000000E+00  -0.1818421403E-04   0.1818421403E-04   0.0000000000E+00  -0.1046652831E-02   0.1046652831E-02   0.1136539274E+01   0.7062863014E-01   0.7062863014E-01   0.6585668618E-02  -0.6585668619E-02  -0.1717347186E-06   0.8209688855E-03   0.1066277146E+01
   0.0000000000E+00   0.1064837045E-02   0.9989351630E+00   0.0000000000E+00   0.1818421403E-04  -0.1818421403E-04   0.0000000000E+00   0.1046652831E-02  -0.1046652831E-02   0.1136539274E+01   0.7062863014E-01   0.7062863014E-01  -0.6585668619E-02   0.6585668618E-02  -0.1717347186E-06   0.8209688855E-03   0.1066277146E+01
   0.1004122799E+01   0.7793201854E-03   0.9992206798E+00   0.4987657538E-04   0.1312875414E-04  -0.1312875414E-04   0.4072922060E-02   0.7661914313E-03  -0.7661914313E-03   0.1081352835E+01   0.2303448671E-01   0.2303448671E-01  -0.6005574491E-02   0.6005574489E-02  -0.1421805864E-06   0.6615802813E-03   0.1058631255E+01
   0.1004122799E+01   0.9992206798E+00   0.9992206798E+00   0.4987657538E-04  -0.1312875414E-04  -0.1312875414E-04   0.4072922060E-02  -0.7661914313E-03  -0.7661914313E-03   0.1081352835E+01   0.2303448671E-01   0.2303448671E-01   0.6005574489E-02   0.6005574489E-02   0.1421806831E-06   0.6615802813E-03   0.1058631255E+01
   0.0000000000E+00   0.9989351630E+00   0.9989351630E+00   0.0000000000E+00  -0.1818421403E-04  -0.1818421403E-04   0.0000000000E+00  -0.1046652831E-02  -0.1046652831E-02   0.1136539274E+01   0.7062863013E-01   0.7062863013E-01   0.6585668618E-02   0.6585668618E-02   0.1717343260E-06   0.8209688855E-03   0.1066277146E+01
   0.2007300000E+01   0.6362542875E-03   0.6362542875E-03   0.1000000000E-03   0.8636429957E-05   0.8636429957E-05   0.7200000000E-02   0.6276178575E-03   0.6276178575E-03   0.1026445578E+01  -0.2479325996E-01  -0.2479325996E-01  -0.5457803954E-02  -0.5457803954E-02   0.1130553593E-06   0.5229134415E-03   0.1051494266E+01
   0.2007300000E+01   0.9993637457E+00   0.6362542875E-03   0.1000000000E-03  -0.8636429957E-05   0.8636429957E-05   0.7200000000E-02  -0.6276178575E-03   0.6276178575E-03   0.1026445578E+01  -0.2479325996E-01  -0.2479325996E-01   0.5457803953E-02  -0.5457803954E-02  -0.1130559239E-06   0.5229134415E-03   0.1051494266E+01
   0.2007300000E+01   0.6362542875E-03   0.9993637457E+00   0.1000000000E-03   0.8636429957E-05  -0.8636429957E-05   0.7200000000E-02   0.6276178575E-03  -0.6276178575E-03   0.1026445578E+01  -0.2479325996E-01  -0.2479325996E-01  -0.5457803954E-02   0.5457803953E-02  -0.1130559240E-06   0.5229134415E-03   0.1051494266E+01
   0.2007300000E+01   0.9993637457E+00   0.9993637457E+00   0.1000000000E-03  -0.8636429957E-05  -0.8636429957E-05   0.7200000000E-02  -0.6276178575E-03  -0.6276178575E-03   0.1026445578E+01  -0.2479325996E-01  -0.2479325996E-01   0.5457803952E-02   0.5457803952E-02   0.1130564886E-06   0.5229134414E-03   0.1051494266E+01
     1     2     3     4     5     6     7     8
     2     9    10     3     6    11    12     7
 VARIABLES = X,Y,Z,DU1,DU2,DU3,U1,U2,U3,S11,S22,S33,S12,S13,S23,Vf,SMISES
 ZONE, T="0.7400D+00" F=FEPOINT, I=   12 J=    2 ET=BRICK
   0.0000000000E+00   0.1083897581E-02   0.1083897581E-02   0.0000000000E+00   0.1906053643E-04   0.1906053643E-04   0.0000000000E+00   0.1064837045E-02   0.1064837045E-02   0.1124388261E+01   0.5740978582E-01   0.5740978582E-01  -0.6827667724E-02  -0.6827667724E-02   0.1729113099E-06   0.8359619293E-03   0.1067371982E+01
   0.1004171893E+01   0.7928132705E-03   0.7928132705E-03   0.4909442050E-04   0.1349308502E-04   0.1349308502E-04   0.4122798636E-02   0.7793201854E-03   0.7793201854E-03   0.1078774948E+01   0.1934873505E-01   0.1934873505E-01  -0.6268413957E-02  -0.6268413957E-02   0.1440485063E-06   0.6751157731E-03   0.1059765874E+01
   0.1004171893E+01   0.9992071867E+00   0.7928132705E-03   0.4909442050E-04  -0.1349308502E-04   0.1349308502E-04   0.4122798636E-02  -0.7793201854E-03   0.7793201854E-03   0.1078774948E+01   0.1934873505E-01   0.1934873505E-01   0.6268413955E-02  -0.6268413957E-02  -0.1440486187E-06   0.6751157731E-03   0.1059765874E+01
   0.0000000000E+00   0.9989161024E+00   0.1083897581E-02   0.0000000000E+00  -0.1906053643E-04   0.1906053643E-04   0.0000000000E+00  -0.1064837045E-02   0.1064837045E-02   0.1124388261E+01   0.5740978581E-01   0.5740978581E-01   0.6827667724E-02  -0.6827667724E-02  -0.1729109639E-06   0.8359619293E-03   0.1067371982E+01
   0.0000000000E+00   0.1083897581E-02   0.9989161024E+00   0.0000000000E+00   0.1906053643E-04  -0.1906053643E-04   0.0000000000E+00   0.1064837045E-02  -0.1064837045E-02   0.1124388261E+01   0.5740978581E-01   0.5740978581E-01  -0.6827667724E-02   0.6827667724E-02  -0.1729109639E-06   0.8359619293E-03   0.1067371982E+01
   0.1004171893E+01   0.7928132705E-03   0.9992071867E+00   0.4909442050E-04   0.1349308502E-04  -0.1349308502E-04   0.4122798636E-02   0.7793201854E-03  -0.7793201854E-03   0.1078774948E+01   0.1934873505E-01   0.1934873505E-01  -0.6268413957E-02   0.6268413955E-02  -0.1440486187E-06   0.6751157731E-03   0.1059765874E+01
   0.1004171893E+01   0.9992071867E+00   0.9992071867E+00   0.4909442050E-04  -0.1349308502E-04  -0.1349308502E-04   0.4122798636E-02  -0.7793201854E-03  -0.7793201854E-03   0.1078774948E+01   0.1934873505E-01   0.1934873505E-01   0.6268413955E-02   0.6268413955E-02   0.1440487310E-06   0.6751157730E-03   0.1059765874E+01
   0.0000000000E+00   0.9989161024E+00   0.9989161024E+00   0.0000000000E+00  -0.1906053643E-04  -0.1906053643E-04   0.0000000000E+00  -0.1064837045E-02  -0.1064837045E-02   0.1124388261E+01   0.5740978581E-01   0.5740978581E-01   0.6827667724E-02   0.6827667724E-02   0.1729106180E-06   0.8359619292E-03   0.1067371982E+01
   0.2007400000E+01   0.6446854154E-03   0.6446854154E-03   0.1000000000E-03   0.8431127854E-05   0.8431127854E-05   0.7300000000E-02   0.6362542875E-03   0.6362542875E-03   0.1033357549E+01  -0.1890801892E-01  -0.1890801892E-01  -0.5737862449E-02  -0.5737862449E-02   0.1155292554E-06   0.5351394420E-03   0.1052547549E+01
   0.2007400000E+01   0.9993553146E+00   0.6446854154E-03   0.1000000000E-03  -0.8431127853E-05   0.8431127854E-05   0.7300000000E-02  -0.6362542874E-03   0.6362542875E-03   0.1033357549E+01  -0.1890801892E-01  -0.1890801892E-01   0.5737862448E-02  -0.5737862449E-02  -0.1155298021E-06   0.5351394420E-03   0.1052547548E+01
   0.2007400000E+01   0.6446854154E-03   0.9993553146E+00   0.1000000000E-03   0.8431127854E-05  -0.8431127853E-05   0.7300000000E-02   0.6362542875E-03  -0.6362542874E-03   0.1033357549E+01  -0.1890801892E-01  -0.1890801892E-01  -0.5737862449E-02   0.5737862448E-02  -0.1155298021E-06   0.5351394420E-03   0.1052547548E+01
   0.2007400000E+01   0.9993553146E+00   0.9993553146E+00   0.1000000000E-03  -0.8431127853E-05  -0.8431127853E-05   0.7300000000E-02  -0.6362542874E-03  -0.6362542874E-03   0.1033357549E+01  -0.1890801892E-01  -0.1890801892E-01   0.5737862448E-02   0.5737862448E-02   0.1155303488E-06   0.5351394420E-03   0.1052547548E+01
     1     2     3     4     5     6     7     8
     2     9    10     3     6    11    12     7
 VARIABLES = X,Y,Z,DU1,DU2,DU3,U1,U2,U3,S11,S22,S33,S12,S13,S23,Vf,SMISES
 ZONE, T="0.7500D+00" F=FEPOINT, I=   12 J=    2 ET=BRICK
   0.0000000000E+00   0.1103468703E-02   0.1103468703E-02   0.0000000000E+00   0.1957112131E-04   0.1957112131E-04   0.0000000000E+00   0.1083897581E-02   0.1083897581E-02   0.1108934552E+01   0.4103617117E-01   0.4103617117E-01  -0.7113552519E-02  -0.7113552519E-02   0.1754202862E-06   0.8511373260E-03   0.1068325133E+01
   0.1004220454E+01   0.8065558549E-03   0.8065558549E-03   0.4856140284E-04   0.1374258444E-04   0.1374258444E-04   0.4171893056E-02   0.7928132705E-03   0.7928132705E-03   0.1074750890E+01   0.1431856351E-01   0.1431856351E-01  -0.6579142281E-02  -0.6579142281E-02   0.1472172694E-06   0.6888300353E-03   0.1060805216E+01
   0.1004220454E+01   0.9991934441E+00   0.8065558549E-03   0.4856140284E-04  -0.1374258444E-04   0.1374258444E-04   0.4171893056E-02  -0.7928132704E-03   0.7928132705E-03   0.1074750890E+01   0.1431856351E-01   0.1431856351E-01   0.6579142279E-02  -0.6579142281E-02  -0.1472173985E-06   0.6888300353E-03   0.1060805216E+01
   0.0000000000E+00   0.9988965313E+00   0.1103468703E-02   0.0000000000E+00  -0.1957112130E-04   0.1957112131E-04   0.0000000000E+00  -0.1083897581E-02   0.1083897581E-02   0.1108934552E+01   0.4103617116E-01   0.4103617116E-01   0.7113552518E-02  -0.7113552519E-02  -0.1754199930E-06   0.8511373260E-03   0.1068325133E+01
   0.0000000000E+00   0.1103468703E-02   0.9988965313E+00   0.0000000000E+00   0.1957112131E-04  -0.1957112130E-04   0.0000000000E+00   0.1083897581E-02  -0.1083897581E-02   0.1108934552E+01   0.4103617116E-01   0.4103617116E-01  -0.7113552519E-02   0.7113552518E-02  -0.1754199930E-06   0.8511373260E-03   0.1068325133E+01
   0.1004220454E+01   0.8065558549E-03   0.9991934441E+00   0.4856140284E-04   0.1374258444E-04  -0.1374258444E-04   0.4171893056E-02   0.7928132705E-03  -0.7928132704E-03   0.1074750890E+01   0.1431856351E-01   0.1431856351E-01  -0.6579142281E-02   0.6579142279E-02  -0.1472173985E-06   0.6888300353E-03   0.1060805216E+01
   0.1004220454E+01   0.9991934441E+00   0.9991934441E+00   0.4856140284E-04  -0.1374258444E-04  -0.1374258444E-04   0.4171893056E-02  -0.7928132704E-03  -0.7928132704E-03   0.1074750890E+01   0.1431856351E-01   0.1431856351E-01   0.6579142279E-02   0.6579142279E-02   0.1472175276E-06   0.6888300352E-03   0.1060805216E+01
   0.0000000000E+00   0.9988965313E+00   0.9988965313E+00   0.0000000000E+00  -0.1957112130E-04  -0.1957112130E-04   0.0000000000E+00  -0.1083897581E-02  -0.1083897581E-02   0.1108934552E+01   0.4103617116E-01   0.4103617116E-01   0.7113552518E-02   0.7113552518E-02   0.1754196999E-06   0.8511373260E-03   0.1068325133E+01
   0.2007500000E+01   0.6530501627E-03   0.6530501627E-03   0.1000000000E-03   0.8364747321E-05   0.8364747321E-05   0.7400000000E-02   0.6446854154E-03   0.6446854154E-03   0.1040688219E+01  -0.1256090701E-01  -0.1256090701E-01  -0.6069674560E-02  -0.6069674560E-02   0.1192630145E-06   0.5475334618E-03   0.1053564309E+01
   0.2007500000E+01   0.9993469498E+00   0.6530501627E-03   0.1000000000E-03  -0.8364747320E-05   0.8364747321E-05   0.7400000000E-02  -0.6446854153E-03   0.6446854154E-03   0.1040688219E+01  -0.1256090701E-01  -0.1256090701E-01   0.6069674559E-02  -0.6069674560E-02  -0.1192635395E-06   0.5475334617E-03   0.1053564309E+01
   0.2007500000E+01   0.6530501627E-03   0.9993469498E+00   0.1000000000E-03   0.8364747321E-05  -0.8364747320E-05   0.7400000000E-02   0.6446854154E-03  -0.6446854153E-03   0.1040688219E+01  -0.1256090701E-01  -0.1256090701E-01  -0.6069674560E-02   0.6069674559E-02  -0.1192635395E-06   0.5475334617E-03   0.1053564309E+01
   0.2007500000E+01   0.9993469498E+00   0.9993469498E+00   0.1000000000E-03  -0.8364747320E-05  -0.8364747320E-05   0.7400000000E-02  -0.6446854153E-03  -0.6446854153E-03   0.1040688219E+01  -0.1256090701E-01  -0.1256090701E-01   0.6069674559E-02   0.6069674559E-02   0.1192640645E-06   0.5475334617E-03   0.1053564309E+01
     1     2     3     4     5     6     7     8
     2     9    10     3     6    11    12     7
 VARIABLES = X,Y,Z,DU1,DU2,DU3,U1,U2,U3,S11,S22,S33,S12,S13,S23,Vf,SMISES
 ZONE, T="0.7600D+00" F=FEPOINT, I=   12 J=    2 ET=BRICK
   0.0000000000E+00   0.1123158055E-02   0.1123158055E-02   0.0000000000E+00   0.1968935244E-04   0.1968935244E-04   0.0000000000E+00   0.1103468703E-02   0.1103468703E-02   0.1091307437E+01   0.2272459144E-01   0.2272459144E-01  -0.7411862146E-02  -0.7411862146E-02   0.1788087695E-06   0.8664550584E-03   0.1069045815E+01
   0.1004268746E+01   0.8204203218E-03   0.8204203218E-03   0.4829166905E-04   0.1386446694E-04   0.1386446694E-04   0.4220454459E-02   0.8065558549E-03   0.8065558549E-03   0.1069680431E+01   0.8416521742E-02   0.8416521742E-02  -0.6905551472E-02  -0.6905551472E-02   0.1512823382E-06   0.7026977846E-03   0.1061673497E+01
   0.1004268746E+01   0.9991795797E+00   0.8204203218E-03   0.4829166905E-04  -0.1386446694E-04   0.1386446694E-04   0.4220454459E-02  -0.8065558549E-03   0.8065558549E-03   0.1069680431E+01   0.8416521742E-02   0.8416521742E-02   0.6905551471E-02  -0.6905551472E-02  -0.1512824840E-06   0.7026977846E-03   0.1061673497E+01
   0.0000000000E+00   0.9988768419E+00   0.1123158055E-02   0.0000000000E+00  -0.1968935244E-04   0.1968935244E-04   0.0000000000E+00  -0.1103468703E-02   0.1103468703E-02   0.1091307437E+01   0.2272459144E-01   0.2272459144E-01   0.7411862146E-02  -0.7411862146E-02  -0.1788085320E-06   0.8664550584E-03   0.1069045815E+01
   0.0000000000E+00   0.1123158055E-02   0.9988768419E+00   0.0000000000E+00   0.1968935244E-04  -0.1968935244E-04   0.0000000000E+00   0.1103468703E-02  -0.1103468703E-02   0.1091307437E+01   0.2272459144E-01   0.2272459144E-01  -0.7411862146E-02   0.7411862146E-02  -0.1788085320E-06   0.8664550584E-03   0.1069045815E+01
   0.1004268746E+01   0.8204203218E-03   0.9991795797E+00   0.4829166905E-04   0.1386446694E-04  -0.1386446694E-04   0.4220454459E-02   0.8065558549E-03  -0.8065558549E-03   0.1069680431E+01   0.8416521742E-02   0.8416521742E-02  -0.6905551472E-02   0.6905551471E-02  -0.1512824841E-06   0.7026977846E-03   0.1061673497E+01
   0.1004268746E+01   0.9991795797E+00   0.9991795797E+00   0.4829166905E-04  -0.1386446694E-04  -0.1386446694E-04   0.4220454459E-02  -0.8065558549E-03  -0.8065558549E-03   0.1069680431E+01   0.8416521741E-02   0.8416521741E-02   0.6905551471E-02   0.6905551471E-02   0.1512826299E-06   0.7026977846E-03   0.1061673497E+01
   0.0000000000E+00   0.9988768419E+00   0.9988768419E+00   0.0000000000E+00  -0.1968935244E-04  -0.1968935244E-04   0.0000000000E+00  -0.1103468703E-02  -0.1103468703E-02   0.1091307437E+01   0.2272459144E-01   0.2272459144E-01   0.7411862146E-02   0.7411862146E-02   0.1788082944E-06   0.8664550583E-03   0.1069045815E+01
   0.2007600000E+01   0.6614885391E-03   0.6614885391E-03   0.1000000000E-03   0.8438376435E-05   0.8438376435E-05   0.7500000000E-02   0.6530501627E-03   0.6530501627E-03   0.1048110453E+01  -0.6024801878E-02  -0.6024801878E-02  -0.6420465699E-02  -0.6420465699E-02   0.1239031880E-06   0.5600831931E-03   0.1054487572E+01
   0.2007600000E+01   0.9993385115E+00   0.6614885391E-03   0.1000000000E-03  -0.8438376435E-05   0.8438376436E-05   0.7500000000E-02  -0.6530501626E-03   0.6530501627E-03   0.1048110453E+01  -0.6024801879E-02  -0.6024801878E-02   0.6420465697E-02  -0.6420465698E-02  -0.1239036883E-06   0.5600831931E-03   0.1054487572E+01
   0.2007600000E+01   0.6614885391E-03   0.9993385115E+00   0.1000000000E-03   0.8438376436E-05  -0.8438376435E-05   0.7500000000E-02   0.6530501627E-03  -0.6530501626E-03   0.1048110453E+01  -0.6024801878E-02  -0.6024801879E-02  -0.6420465698E-02   0.6420465697E-02  -0.1239036883E-06   0.5600831931E-03   0.1054487572E+01
   0.2007600000E+01   0.9993385115E+00   0.9993385115E+00   0.1000000000E-03  -0.8438376435E-05  -0.8438376435E-05   0.7500000000E-02  -0.6530501626E-03  -0.6530501626E-03   0.1048110453E+01  -0.6024801878E-02  -0.6024801878E-02   0.6420465697E-02   0.6420465697E-02   0.1239041886E-06   0.5600831931E-03   0.1054487572E+01
     1     2     3     4     5     6     7     8
     2     9    10     3     6    11    12     7
 VARIABLES = X,Y,Z,DU1,DU2,DU3,U1,U2,U3,S11,S22,S33,S12,S13,S23,Vf,SMISES
 ZONE, T="0.7700D+00" F=FEPOINT, I=   12 J=    2 ET=BRICK
   0.0000000000E+00   0.1142574166E-02   0.1142574166E-02   0.0000000000E+00   0.1941611102E-04   0.1941611102E-04   0.0000000000E+00   0.1123158055E-02   0.1123158055E-02   0.1072743245E+01   0.3775007466E-02   0.3775007466E-02  -0.7691621636E-02  -0.7691621636E-02   0.1825088356E-06   0.8818624604E-03   0.1069466610E+01
   0.1004317030E+01   0.8342770675E-03   0.8342770675E-03   0.4828341097E-04   0.1385674566E-04   0.1385674566E-04   0.4268746128E-02   0.8204203218E-03   0.8204203218E-03   0.1064026320E+01   0.2158939013E-02   0.2158939013E-02  -0.7215735880E-02  -0.7215735880E-02   0.1557162007E-06   0.7166834586E-03   0.1062313524E+01
   0.1004317030E+01   0.9991657229E+00   0.8342770675E-03   0.4828341097E-04  -0.1385674565E-04   0.1385674566E-04   0.4268746128E-02  -0.8204203218E-03   0.8204203218E-03   0.1064026320E+01   0.2158939013E-02   0.2158939013E-02   0.7215735878E-02  -0.7215735880E-02  -0.1557163619E-06   0.7166834585E-03   0.1062313524E+01
   0.0000000000E+00   0.9988574258E+00   0.1142574166E-02   0.0000000000E+00  -0.1941611102E-04   0.1941611102E-04   0.0000000000E+00  -0.1123158055E-02   0.1123158055E-02   0.1072743245E+01   0.3775007466E-02   0.3775007466E-02   0.7691621635E-02  -0.7691621636E-02  -0.1825086529E-06   0.8818624604E-03   0.1069466610E+01
   0.0000000000E+00   0.1142574166E-02   0.9988574258E+00   0.0000000000E+00   0.1941611102E-04  -0.1941611102E-04   0.0000000000E+00   0.1123158055E-02  -0.1123158055E-02   0.1072743245E+01   0.3775007466E-02   0.3775007466E-02  -0.7691621636E-02   0.7691621635E-02  -0.1825086529E-06   0.8818624604E-03   0.1069466610E+01
   0.1004317030E+01   0.8342770675E-03   0.9991657229E+00   0.4828341097E-04   0.1385674566E-04  -0.1385674565E-04   0.4268746128E-02   0.8204203218E-03  -0.8204203218E-03   0.1064026320E+01   0.2158939013E-02   0.2158939013E-02  -0.7215735880E-02   0.7215735878E-02  -0.1557163619E-06   0.7166834585E-03   0.1062313524E+01
   0.1004317030E+01   0.9991657229E+00   0.9991657229E+00   0.4828341098E-04  -0.1385674565E-04  -0.1385674565E-04   0.4268746128E-02  -0.8204203218E-03  -0.8204203218E-03   0.1064026320E+01   0.2158939013E-02   0.2158939013E-02   0.7215735878E-02   0.7215735878E-02   0.1557165230E-06   0.7166834585E-03   0.1062313524E+01
   0.0000000000E+00   0.9988574258E+00   0.9988574258E+00   0.0000000000E+00  -0.1941611102E-04  -0.1941611102E-04   0.0000000000E+00  -0.1123158055E-02  -0.1123158055E-02   0.1072743245E+01   0.3775007466E-02   0.3775007466E-02   0.7691621635E-02   0.7691621635E-02   0.1825084703E-06   0.8818624603E-03   0.1069466610E+01
   0.2007700000E+01   0.6701356820E-03   0.6701356820E-03   0.1000000000E-03   0.8647142930E-05   0.8647142930E-05   0.7600000000E-02   0.6614885391E-03   0.6614885391E-03   0.1055314803E+01   0.4324114606E-03   0.4324114606E-03  -0.6757569891E-02  -0.6757569891E-02   0.1289667071E-06   0.5727687780E-03   0.1055272351E+01
   0.2007700000E+01   0.9993298643E+00   0.6701356820E-03   0.1000000000E-03  -0.8647142929E-05   0.8647142930E-05   0.7600000000E-02  -0.6614885391E-03   0.6614885391E-03   0.1055314803E+01   0.4324114602E-03   0.4324114611E-03   0.6757569890E-02  -0.6757569891E-02  -0.1289671805E-06   0.5727687780E-03   0.1055272351E+01
   0.2007700000E+01   0.6701356820E-03   0.9993298643E+00   0.1000000000E-03   0.8647142930E-05  -0.8647142929E-05   0.7600000000E-02   0.6614885391E-03  -0.6614885391E-03   0.1055314803E+01   0.4324114611E-03   0.4324114602E-03  -0.6757569891E-02   0.6757569890E-02  -0.1289671805E-06   0.5727687780E-03   0.1055272351E+01
   0.2007700000E+01   0.9993298643E+00   0.9993298643E+00   0.1000000000E-03  -0.8647142929E-05  -0.8647142929E-05   0.7600000000E-02  -0.6614885391E-03  -0.6614885391E-03   0.1055314802E+01   0.4324114607E-03   0.4324114607E-03   0.6757569890E-02   0.6757569890E-02   0.1289676538E-06   0.5727687780E-03   0.1055272351E+01
     1     2     3     4     5     6     7     8
     2     9    10     3     6    11    12     7
 VARIABLES = X,Y,Z,DU1,DU2,DU3,U1,U2,U3,S11,S22,S33,S12,S13,S23,Vf,SMISES
 ZONE, T="0.7800D+00" F=FEPOINT, I=   12 J=    2 ET=BRICK
   0.0000000000E+00   0.1161352789E-02   0.1161352789E-02   0.0000000000E+00   0.1877862318E-04   0.1877862318E-04   0.0000000000E+00   0.1142574166E-02   0.1142574166E-02   0.1054496428E+01  -0.1452123037E-01  -0.1452123037E-01  -0.7924233145E-02  -0.7924233145E-02   0.1858681245E-06   0.8972990782E-03   0.1069546585E+01
   0.1004365549E+01   0.8480048791E-03   0.8480048791E-03   0.4851950464E-04   0.1372781165E-04   0.1372781165E-04   0.4317029539E-02   0.8342770675E-03   0.8342770675E-03   0.1058273730E+01  -0.3937326548E-02  -0.3937326548E-02  -0.7480057069E-02  -0.7480057069E-02   0.1598935797E-06   0.7307447091E-03   0.1062689631E+01
   0.1004365549E+01   0.9991519951E+00   0.8480048791E-03   0.4851950464E-04  -0.1372781165E-04   0.1372781165E-04   0.4317029539E-02  -0.8342770675E-03   0.8342770675E-03   0.1058273730E+01  -0.3937326548E-02  -0.3937326548E-02   0.7480057068E-02  -0.7480057069E-02  -0.1598937535E-06   0.7307447091E-03   0.1062689631E+01
   0.0000000000E+00   0.9988386472E+00   0.1161352789E-02   0.0000000000E+00  -0.1877862318E-04   0.1877862318E-04   0.0000000000E+00  -0.1142574166E-02   0.1142574166E-02   0.1054496427E+01  -0.1452123037E-01  -0.1452123037E-01   0.7924233144E-02  -0.7924233144E-02  -0.1858679927E-06   0.8972990782E-03   0.1069546585E+01
   0.0000000000E+00   0.1161352789E-02   0.9988386472E+00   0.0000000000E+00   0.1877862318E-04  -0.1877862318E-04   0.0000000000E+00   0.1142574166E-02  -0.1142574166E-02   0.1054496427E+01  -0.1452123037E-01  -0.1452123037E-01  -0.7924233144E-02   0.7924233144E-02  -0.1858679927E-06   0.8972990782E-03   0.1069546585E+01
   0.1004365549E+01   0.8480048791E-03   0.9991519951E+00   0.4851950464E-04   0.1372781165E-04  -0.1372781165E-04   0.4317029539E-02   0.8342770675E-03  -0.8342770675E-03   0.1058273730E+01  -0.3937326548E-02  -0.3937326548E-02  -0.7480057069E-02   0.7480057068E-02  -0.1598937535E-06   0.7307447091E-03   0.1062689631E+01
   0.1004365549E+01   0.9991519951E+00   0.9991519951E+00   0.4851950464E-04  -0.1372781165E-04  -0.1372781165E-04   0.4317029539E-02  -0.8342770675E-03  -0.8342770675E-03   0.1058273730E+01  -0.3937326548E-02  -0.3937326548E-02   0.7480057068E-02   0.7480057068E-02   0.1598939273E-06   0.7307447091E-03   0.1062689631E+01
   0.0000000000E+00   0.9988386472E+00   0.9988386472E+00   0.0000000000E+00  -0.1877862318E-04  -0.1877862318E-04   0.0000000000E+00  -0.1142574166E-02  -0.1142574166E-02   0.1054496427E+01  -0.1452123037E-01  -0.1452123037E-01   0.7924233144E-02   0.7924233144E-02   0.1858678610E-06   0.8972990782E-03   0.1069546585E+01
   0.2007800000E+01   0.6791162167E-03   0.6791162167E-03   0.1000000000E-03   0.8980534649E-05   0.8980534649E-05   0.7700000000E-02   0.6701356820E-03   0.6701356820E-03   0.1062017392E+01   0.6553043263E-02   0.6553043263E-02  -0.7050449940E-02  -0.7050449940E-02   0.1338607951E-06   0.5855649952E-03   0.1055888568E+01
   0.2007800000E+01   0.9993208838E+00   0.6791162167E-03   0.1000000000E-03  -0.8980534649E-05   0.8980534649E-05   0.7700000000E-02  -0.6701356820E-03   0.6701356820E-03   0.1062017392E+01   0.6553043262E-02   0.6553043263E-02   0.7050449939E-02  -0.7050449940E-02  -0.1338612401E-06   0.5855649951E-03   0.1055888568E+01
   0.2007800000E+01   0.6791162167E-03   0.9993208838E+00   0.1000000000E-03   0.8980534649E-05  -0.8980534649E-05   0.7700000000E-02   0.6701356820E-03  -0.6701356820E-03   0.1062017392E+01   0.6553043263E-02   0.6553043262E-02  -0.7050449940E-02   0.7050449939E-02  -0.1338612401E-06   0.5855649951E-03   0.1055888568E+01
   0.2007800000E+01   0.9993208838E+00   0.9993208838E+00   0.1000000000E-03  -0.8980534649E-05  -0.8980534649E-05   0.7700000000E-02  -0.6701356820E-03  -0.6701356820E-03   0.1062017392E+01   0.6553043262E-02   0.6553043262E-02   0.7050449939E-02   0.7050449939E-02   0.1338616850E-06   0.5855649951E-03   0.1055888568E+01
     1     2     3     4     5     6     7     8
     2     9    10     3     6    11    12     7
 VARIABLES = X,Y,Z,DU1,DU2,DU3,U1,U2,U3,S11,S22,S33,S12,S13,S23,Vf,SMISES
 ZONE, T="0.7900D+00" F=FEPOINT, I=   12 J=    2 ET=BRICK
   0.0000000000E+00   0.1179180363E-02   0.1179180363E-02   0.0000000000E+00   0.1782757333E-04   0.1782757333E-04   0.0000000000E+00   0.1161352789E-02   0.1161352789E-02   0.1037752799E+01  -0.3096864867E-01  -0.3096864867E-01  -0.8085091324E-02  -0.8085091324E-02   0.1882107137E-06   0.9127019892E-03   0.1069272203E+01
   0.1004414518E+01   0.8615000948E-03   0.8615000948E-03   0.4896905008E-04   0.1349521569E-04   0.1349521569E-04   0.4365549044E-02   0.8480048791E-03   0.8480048791E-03   0.1052889925E+01  -0.9395796694E-02  -0.9395796694E-02  -0.7672848975E-02  -0.7672848975E-02   0.1631501535E-06   0.7448363484E-03   0.1062788677E+01
   0.1004414518E+01   0.9991384999E+00   0.8615000948E-03   0.4896905008E-04  -0.1349521569E-04   0.1349521569E-04   0.4365549044E-02  -0.8480048791E-03   0.8480048791E-03   0.1052889925E+01  -0.9395796694E-02  -0.9395796693E-02   0.7672848974E-02  -0.7672848975E-02  -0.1631503363E-06   0.7448363483E-03   0.1062788677E+01
   0.0000000000E+00   0.9988208196E+00   0.1179180363E-02   0.0000000000E+00  -0.1782757333E-04   0.1782757333E-04   0.0000000000E+00  -0.1161352789E-02   0.1161352789E-02   0.1037752799E+01  -0.3096864867E-01  -0.3096864867E-01   0.8085091323E-02  -0.8085091324E-02  -0.1882106262E-06   0.9127019892E-03   0.1069272203E+01
   0.0000000000E+00   0.1179180363E-02   0.9988208196E+00   0.0000000000E+00   0.1782757333E-04  -0.1782757333E-04   0.0000000000E+00   0.1161352789E-02  -0.1161352789E-02   0.1037752799E+01  -0.3096864867E-01  -0.3096864867E-01  -0.8085091324E-02   0.8085091323E-02  -0.1882106262E-06   0.9127019892E-03   0.1069272203E+01
   0.1004414518E+01   0.8615000948E-03   0.9991384999E+00   0.4896905008E-04   0.1349521569E-04  -0.1349521569E-04   0.4365549044E-02   0.8480048791E-03  -0.8480048791E-03   0.1052889925E+01  -0.9395796693E-02  -0.9395796694E-02  -0.7672848975E-02   0.7672848974E-02  -0.1631503363E-06   0.7448363483E-03   0.1062788677E+01
   0.1004414518E+01   0.9991384999E+00   0.9991384999E+00   0.4896905008E-04  -0.1349521569E-04  -0.1349521569E-04   0.4365549044E-02  -0.8480048791E-03  -0.8480048791E-03   0.1052889925E+01  -0.9395796693E-02  -0.9395796693E-02   0.7672848974E-02   0.7672848974E-02   0.1631505191E-06   0.7448363483E-03   0.1062788677E+01
   0.0000000000E+00   0.9988208196E+00   0.9988208196E+00   0.0000000000E+00  -0.1782757333E-04  -0.1782757333E-04   0.0000000000E+00  -0.1161352789E-02  -0.1161352789E-02   0.1037752799E+01  -0.3096864867E-01  -0.3096864867E-01   0.8085091323E-02   0.8085091323E-02   0.1882105386E-06   0.9127019892E-03   0.1069272203E+01
   0.2007900000E+01   0.6885390776E-03   0.6885390776E-03   0.1000000000E-03   0.9422860869E-05   0.9422860869E-05   0.7800000000E-02   0.6791162167E-03   0.6791162167E-03   0.1067966209E+01   0.1209494547E-01   0.1209494547E-01  -0.7272480630E-02  -0.7272480630E-02   0.1379387202E-06   0.5984438442E-03   0.1056322416E+01
   0.2007900000E+01   0.9993114609E+00   0.6885390776E-03   0.1000000000E-03  -0.9422860869E-05   0.9422860869E-05   0.7800000000E-02  -0.6791162166E-03   0.6791162167E-03   0.1067966209E+01   0.1209494547E-01   0.1209494547E-01   0.7272480629E-02  -0.7272480629E-02  -0.1379391360E-06   0.5984438442E-03   0.1056322416E+01
   0.2007900000E+01   0.6885390776E-03   0.9993114609E+00   0.1000000000E-03   0.9422860869E-05  -0.9422860869E-05   0.7800000000E-02   0.6791162167E-03  -0.6791162166E-03   0.1067966209E+01   0.1209494547E-01   0.1209494547E-01  -0.7272480629E-02   0.7272480629E-02  -0.1379391360E-06   0.5984438442E-03   0.1056322416E+01
   0.2007900000E+01   0.9993114609E+00   0.9993114609E+00   0.1000000000E-03  -0.9422860869E-05  -0.9422860869E-05   0.7800000000E-02  -0.6791162166E-03  -0.6791162166E-03   0.1067966209E+01   0.1209494547E-01   0.1209494547E-01   0.7272480629E-02   0.7272480629E-02   0.1379395518E-06   0.5984438442E-03   0.1056322416E+01
     1     2     3     4     5     6     7     8
     2     9    10     3     6    11    12     7
 VARIABLES = X,Y,Z,DU1,DU2,DU3,U1,U2,U3,S11,S22,S33,S12,S13,S23,Vf,SMISES
 ZONE, T="0.8000D+00" F=FEPOINT, I=   12 J=    2 ET=BRICK
   0.0000000000E+00   0.1195813115E-02   0.1195813115E-02   0.0000000000E+00   0.1663275200E-04   0.1663275200E-04   0.0000000000E+00   0.1179180363E-02   0.1179180363E-02   0.1023551051E+01  -0.4454470102E-01  -0.4454470102E-01  -0.8154849392E-02  -0.8154849392E-02   0.1889172893E-06   0.9280110530E-03   0.1068656369E+01
   0.1004464108E+01   0.8746838850E-03   0.8746838850E-03   0.4958968894E-04   0.1318379017E-04   0.1318379017E-04   0.4414518094E-02   0.8615000948E-03   0.8615000948E-03   0.1048287502E+01  -0.1381591719E-01  -0.1381591719E-01  -0.7773778258E-02  -0.7773778258E-02   0.1648634862E-06   0.7589143321E-03   0.1062619338E+01
   0.1004464108E+01   0.9991253161E+00   0.8746838850E-03   0.4958968894E-04  -0.1318379017E-04   0.1318379017E-04   0.4414518094E-02  -0.8615000948E-03   0.8615000948E-03   0.1048287502E+01  -0.1381591719E-01  -0.1381591719E-01   0.7773778257E-02  -0.7773778257E-02  -0.1648636735E-06   0.7589143321E-03   0.1062619338E+01
   0.0000000000E+00   0.9988041869E+00   0.1195813115E-02   0.0000000000E+00  -0.1663275200E-04   0.1663275200E-04   0.0000000000E+00  -0.1179180363E-02   0.1179180363E-02   0.1023551051E+01  -0.4454470101E-01  -0.4454470101E-01   0.8154849391E-02  -0.8154849392E-02  -0.1889172371E-06   0.9280110529E-03   0.1068656369E+01
   0.0000000000E+00   0.1195813115E-02   0.9988041869E+00   0.0000000000E+00   0.1663275200E-04  -0.1663275200E-04   0.0000000000E+00   0.1179180363E-02  -0.1179180363E-02   0.1023551051E+01  -0.4454470101E-01  -0.4454470101E-01  -0.8154849392E-02   0.8154849391E-02  -0.1889172371E-06   0.9280110529E-03   0.1068656369E+01
   0.1004464108E+01   0.8746838850E-03   0.9991253161E+00   0.4958968894E-04   0.1318379017E-04  -0.1318379017E-04   0.4414518094E-02   0.8615000948E-03  -0.8615000948E-03   0.1048287502E+01  -0.1381591719E-01  -0.1381591719E-01  -0.7773778257E-02   0.7773778257E-02  -0.1648636735E-06   0.7589143321E-03   0.1062619338E+01
   0.1004464108E+01   0.9991253161E+00   0.9991253161E+00   0.4958968894E-04  -0.1318379017E-04  -0.1318379017E-04   0.4414518094E-02  -0.8615000948E-03  -0.8615000948E-03   0.1048287502E+01  -0.1381591719E-01  -0.1381591719E-01   0.7773778256E-02   0.7773778256E-02   0.1648638608E-06   0.7589143321E-03   0.1062619338E+01
   0.0000000000E+00   0.9988041869E+00   0.9988041869E+00   0.0000000000E+00  -0.1663275200E-04  -0.1663275200E-04   0.0000000000E+00  -0.1179180363E-02  -0.1179180363E-02   0.1023551050E+01  -0.4454470101E-01  -0.4454470101E-01   0.8154849391E-02   0.8154849391E-02   0.1889171848E-06   0.9280110529E-03   0.1068656369E+01
   0.2008000000E+01   0.6984929377E-03   0.6984929377E-03   0.1000000000E-03   0.9953860109E-05   0.9953860109E-05   0.7900000000E-02   0.6885390776E-03   0.6885390776E-03   0.1072946325E+01   0.1683735614E-01   0.1683735614E-01  -0.7402399010E-02  -0.7402399010E-02   0.1405805404E-06   0.6113772411E-03   0.1056576254E+01
   0.2008000000E+01   0.9993015071E+00   0.6984929377E-03   0.1000000000E-03  -0.9953860109E-05   0.9953860109E-05   0.7900000000E-02  -0.6885390775E-03   0.6885390776E-03   0.1072946325E+01   0.1683735614E-01   0.1683735614E-01   0.7402399010E-02  -0.7402399010E-02  -0.1405809268E-06   0.6113772411E-03   0.1056576254E+01
   0.2008000000E+01   0.6984929377E-03   0.9993015071E+00   0.1000000000E-03   0.9953860109E-05  -0.9953860109E-05   0.7900000000E-02   0.6885390776E-03  -0.6885390775E-03   0.1072946325E+01   0.1683735614E-01   0.1683735614E-01  -0.7402399010E-02   0.7402399010E-02  -0.1405809268E-06   0.6113772411E-03   0.1056576254E+01
   0.2008000000E+01   0.9993015071E+00   0.9993015071E+00   0.1000000000E-03  -0.9953860109E-05  -0.9953860109E-05   0.7900000000E-02  -0.6885390775E-03  -0.6885390775E-03   0.1072946325E+01   0.1683735614E-01   0.1683735614E-01   0.7402399009E-02   0.7402399009E-02   0.1405813133E-06   0.6113772410E-03   0.1056576254E+01
     1     2     3     4     5     6     7     8
     2     9    10     3     6    11    12     7
 VARIABLES = X,Y,Z,DU1,DU2,DU3,U1,U2,U3,S11,S22,S33,S12,S13,S23,Vf,SMISES
 ZONE, T="0.8100D+00" F=FEPOINT, I=   12 J=    2 ET=BRICK
   0.0000000000E+00   0.1211090709E-02   0.1211090709E-02   0.0000000000E+00   0.1527759451E-04   0.1527759451E-04   0.0000000000E+00   0.1195813115E-02   0.1195813115E-02   0.1012717784E+01  -0.5446181703E-01  -0.5446181703E-01  -0.8120300850E-02  -0.8120300850E-02   0.1875081723E-06   0.9431736154E-03   0.1067735949E+01
   0.1004514438E+01   0.8875071776E-03   0.8875071776E-03   0.5033053425E-04   0.1282329255E-04   0.1282329255E-04   0.4464107783E-02   0.8746838850E-03   0.8746838850E-03   0.1044794074E+01  -0.1690077714E-01  -0.1690077714E-01  -0.7768811644E-02  -0.7768811644E-02   0.1645391783E-06   0.7729393964E-03   0.1062209984E+01
   0.1004514438E+01   0.9991124928E+00   0.8875071776E-03   0.5033053425E-04  -0.1282329255E-04   0.1282329255E-04   0.4464107783E-02  -0.8746838850E-03   0.8746838850E-03   0.1044794074E+01  -0.1690077714E-01  -0.1690077714E-01   0.7768811644E-02  -0.7768811644E-02  -0.1645393652E-06   0.7729393964E-03   0.1062209984E+01
   0.0000000000E+00   0.9987889093E+00   0.1211090709E-02   0.0000000000E+00  -0.1527759451E-04   0.1527759451E-04   0.0000000000E+00  -0.1195813115E-02   0.1195813115E-02   0.1012717784E+01  -0.5446181703E-01  -0.5446181703E-01   0.8120300849E-02  -0.8120300850E-02  -0.1875081450E-06   0.9431736153E-03   0.1067735949E+01
   0.0000000000E+00   0.1211090709E-02   0.9987889093E+00   0.0000000000E+00   0.1527759451E-04  -0.1527759451E-04   0.0000000000E+00   0.1195813115E-02  -0.1195813115E-02   0.1012717784E+01  -0.5446181703E-01  -0.5446181703E-01  -0.8120300850E-02   0.8120300849E-02  -0.1875081450E-06   0.9431736153E-03   0.1067735949E+01
   0.1004514438E+01   0.8875071776E-03   0.9991124928E+00   0.5033053425E-04   0.1282329255E-04  -0.1282329255E-04   0.4464107783E-02   0.8746838850E-03  -0.8746838850E-03   0.1044794074E+01  -0.1690077714E-01  -0.1690077714E-01  -0.7768811644E-02   0.7768811644E-02  -0.1645393652E-06   0.7729393964E-03   0.1062209984E+01
   0.1004514438E+01   0.9991124928E+00   0.9991124928E+00   0.5033053425E-04  -0.1282329255E-04  -0.1282329255E-04   0.4464107783E-02  -0.8746838850E-03  -0.8746838850E-03   0.1044794074E+01  -0.1690077714E-01  -0.1690077714E-01   0.7768811643E-02   0.7768811643E-02   0.1645395520E-06   0.7729393963E-03   0.1062209984E+01
   0.0000000000E+00   0.9987889093E+00   0.9987889093E+00   0.0000000000E+00  -0.1527759451E-04  -0.1527759451E-04   0.0000000000E+00  -0.1195813115E-02  -0.1195813115E-02   0.1012717784E+01  -0.5446181703E-01  -0.5446181703E-01   0.8120300849E-02   0.8120300849E-02   0.1875081177E-06   0.9431736153E-03   0.1067735949E+01
   0.2008100000E+01   0.7090423983E-03   0.7090423983E-03   0.1000000000E-03   0.1054946059E-04   0.1054946059E-04   0.8000000000E-02   0.6984929377E-03   0.6984929377E-03   0.1076784470E+01   0.2058739708E-01   0.2058739708E-01  -0.7425359482E-02  -0.7425359482E-02   0.1412815324E-06   0.6243395409E-03   0.1056667205E+01
   0.2008100000E+01   0.9992909576E+00   0.7090423983E-03   0.1000000000E-03  -0.1054946059E-04   0.1054946059E-04   0.8000000000E-02  -0.6984929376E-03   0.6984929377E-03   0.1076784470E+01   0.2058739707E-01   0.2058739707E-01   0.7425359482E-02  -0.7425359482E-02  -0.1412818899E-06   0.6243395409E-03   0.1056667205E+01
   0.2008100000E+01   0.7090423983E-03   0.9992909576E+00   0.1000000000E-03   0.1054946059E-04  -0.1054946059E-04   0.8000000000E-02   0.6984929377E-03  -0.6984929376E-03   0.1076784470E+01   0.2058739707E-01   0.2058739707E-01  -0.7425359482E-02   0.7425359482E-02  -0.1412818899E-06   0.6243395409E-03   0.1056667205E+01
   0.2008100000E+01   0.9992909576E+00   0.9992909576E+00   0.1000000000E-03  -0.1054946059E-04  -0.1054946059E-04   0.8000000000E-02  -0.6984929376E-03  -0.6984929376E-03   0.1076784470E+01   0.2058739707E-01   0.2058739707E-01   0.7425359481E-02   0.7425359481E-02   0.1412822474E-06   0.6243395408E-03   0.1056667205E+01
     1     2     3     4     5     6     7     8
     2     9    10     3     6    11    12     7
 VARIABLES = X,Y,Z,DU1,DU2,DU3,U1,U2,U3,S11,S22,S33,S12,S13,S23,Vf,SMISES
 ZONE, T="0.8200D+00" F=FEPOINT, I=   12 J=    2 ET=BRICK
   0.0000000000E+00   0.1224943736E-02   0.1224943736E-02   0.0000000000E+00   0.1385302660E-04   0.1385302660E-04   0.0000000000E+00   0.1211090709E-02   0.1211090709E-02   0.1005820049E+01  -0.6021086798E-01  -0.6021086798E-01  -0.7974871489E-02  -0.7974871489E-02   0.1837118468E-06   0.9581482864E-03   0.1066568092E+01
   0.1004565574E+01   0.8999529577E-03   0.8999529577E-03   0.5113551592E-04   0.1244578013E-04   0.1244578013E-04   0.4514438317E-02   0.8875071776E-03   0.8875071776E-03   0.1042630526E+01  -0.1847525146E-01  -0.1847525146E-01  -0.7650773016E-02  -0.7650773016E-02   0.1618838384E-06   0.7868800304E-03   0.1061605435E+01
   0.1004565574E+01   0.9991000470E+00   0.8999529577E-03   0.5113551592E-04  -0.1244578013E-04   0.1244578013E-04   0.4514438317E-02  -0.8875071775E-03   0.8875071776E-03   0.1042630526E+01  -0.1847525146E-01  -0.1847525145E-01   0.7650773015E-02  -0.7650773016E-02  -0.1618840197E-06   0.7868800304E-03   0.1061605435E+01
   0.0000000000E+00   0.9987750563E+00   0.1224943736E-02   0.0000000000E+00  -0.1385302660E-04   0.1385302660E-04   0.0000000000E+00  -0.1211090709E-02   0.1211090709E-02   0.1005820049E+01  -0.6021086798E-01  -0.6021086798E-01   0.7974871489E-02  -0.7974871489E-02  -0.1837118335E-06   0.9581482864E-03   0.1066568092E+01
   0.0000000000E+00   0.1224943736E-02   0.9987750563E+00   0.0000000000E+00   0.1385302660E-04  -0.1385302660E-04   0.0000000000E+00   0.1211090709E-02  -0.1211090709E-02   0.1005820049E+01  -0.6021086798E-01  -0.6021086798E-01  -0.7974871489E-02   0.7974871489E-02  -0.1837118335E-06   0.9581482864E-03   0.1066568092E+01
   0.1004565574E+01   0.8999529577E-03   0.9991000470E+00   0.5113551592E-04   0.1244578013E-04  -0.1244578013E-04   0.4514438317E-02   0.8875071776E-03  -0.8875071775E-03   0.1042630526E+01  -0.1847525145E-01  -0.1847525146E-01  -0.7650773016E-02   0.7650773015E-02  -0.1618840197E-06   0.7868800304E-03   0.1061605435E+01
   0.1004565574E+01   0.9991000470E+00   0.9991000470E+00   0.5113551592E-04  -0.1244578013E-04  -0.1244578013E-04   0.4514438317E-02  -0.8875071775E-03  -0.8875071775E-03   0.1042630526E+01  -0.1847525145E-01  -0.1847525145E-01   0.7650773015E-02   0.7650773015E-02   0.1618842009E-06   0.7868800304E-03   0.1061605435E+01
   0.0000000000E+00   0.9987750563E+00   0.9987750563E+00   0.0000000000E+00  -0.1385302660E-04  -0.1385302660E-04   0.0000000000E+00  -0.1211090709E-02  -0.1211090709E-02   0.1005820049E+01  -0.6021086797E-01  -0.6021086797E-01   0.7974871488E-02   0.7974871488E-02   0.1837118201E-06   0.9581482863E-03   0.1066568092E+01
   0.2008200000E+01   0.7202250940E-03   0.7202250940E-03   0.1000000000E-03   0.1118269576E-04   0.1118269576E-04   0.8100000000E-02   0.7090423983E-03   0.7090423983E-03   0.1079353241E+01   0.2318715651E-01   0.2318715651E-01  -0.7333562615E-02  -0.7333562615E-02   0.1397290304E-06   0.6373096486E-03   0.1056624669E+01
   0.2008200000E+01   0.9992797749E+00   0.7202250940E-03   0.1000000000E-03  -0.1118269576E-04   0.1118269576E-04   0.8100000000E-02  -0.7090423982E-03   0.7090423983E-03   0.1079353241E+01   0.2318715651E-01   0.2318715651E-01   0.7333562615E-02  -0.7333562615E-02  -0.1397293597E-06   0.6373096486E-03   0.1056624669E+01
   0.2008200000E+01   0.7202250940E-03   0.9992797749E+00   0.1000000000E-03   0.1118269576E-04  -0.1118269576E-04   0.8100000000E-02   0.7090423983E-03  -0.7090423982E-03   0.1079353241E+01   0.2318715651E-01   0.2318715651E-01  -0.7333562615E-02   0.7333562615E-02  -0.1397293598E-06   0.6373096486E-03   0.1056624669E+01
   0.2008200000E+01   0.9992797749E+00   0.9992797749E+00   0.1000000000E-03  -0.1118269576E-04  -0.1118269576E-04   0.8100000000E-02  -0.7090423982E-03  -0.7090423982E-03   0.1079353241E+01   0.2318715651E-01   0.2318715651E-01   0.7333562614E-02   0.7333562614E-02   0.1397296892E-06   0.6373096486E-03   0.1056624669E+01
     1     2     3     4     5     6     7     8
     2     9    10     3     6    11    12     7
 VARIABLES = X,Y,Z,DU1,DU2,DU3,U1,U2,U3,S11,S22,S33,S12,S13,S23,Vf,SMISES
 ZONE, T="0.8300D+00" F=FEPOINT, I=   12 J=    2 ET=BRICK
   0.0000000000E+00   0.1237394799E-02   0.1237394799E-02   0.0000000000E+00   0.1245106308E-04   0.1245106308E-04   0.0000000000E+00   0.1224943736E-02   0.1224943736E-02   0.1003137888E+01  -0.6158386086E-01  -0.6158386086E-01  -0.7718735653E-02  -0.7718735653E-02   0.1775046920E-06   0.9729075458E-03   0.1065225595E+01
   0.1004617521E+01   0.9120358945E-03   0.9120358945E-03   0.5194692640E-04   0.1208293687E-04   0.1208293687E-04   0.4565573833E-02   0.8999529577E-03   0.8999529577E-03   0.1041899131E+01  -0.1849362080E-01  -0.1849362080E-01  -0.7419495768E-02  -0.7419495768E-02   0.1568493654E-06   0.8007145724E-03   0.1060862850E+01
   0.1004617521E+01   0.9990879641E+00   0.9120358945E-03   0.5194692640E-04  -0.1208293687E-04   0.1208293687E-04   0.4565573833E-02  -0.8999529576E-03   0.8999529577E-03   0.1041899131E+01  -0.1849362080E-01  -0.1849362080E-01   0.7419495767E-02  -0.7419495767E-02  -0.1568495363E-06   0.8007145723E-03   0.1060862850E+01
   0.0000000000E+00   0.9987626052E+00   0.1237394799E-02   0.0000000000E+00  -0.1245106308E-04   0.1245106308E-04   0.0000000000E+00  -0.1224943736E-02   0.1224943736E-02   0.1003137888E+01  -0.6158386085E-01  -0.6158386085E-01   0.7718735652E-02  -0.7718735653E-02  -0.1775046816E-06   0.9729075457E-03   0.1065225595E+01
   0.0000000000E+00   0.1237394799E-02   0.9987626052E+00   0.0000000000E+00   0.1245106308E-04  -0.1245106308E-04   0.0000000000E+00   0.1224943736E-02  -0.1224943736E-02   0.1003137888E+01  -0.6158386085E-01  -0.6158386085E-01  -0.7718735653E-02   0.7718735652E-02  -0.1775046816E-06   0.9729075457E-03   0.1065225595E+01
   0.1004617521E+01   0.9120358945E-03   0.9990879641E+00   0.5194692640E-04   0.1208293687E-04  -0.1208293687E-04   0.4565573833E-02   0.8999529577E-03  -0.8999529576E-03   0.1041899131E+01  -0.1849362080E-01  -0.1849362080E-01  -0.7419495767E-02   0.7419495767E-02  -0.1568495363E-06   0.8007145723E-03   0.1060862850E+01
   0.1004617521E+01   0.9990879641E+00   0.9990879641E+00   0.5194692640E-04  -0.1208293687E-04  -0.1208293687E-04   0.4565573833E-02  -0.8999529576E-03  -0.8999529576E-03   0.1041899130E+01  -0.1849362080E-01  -0.1849362080E-01   0.7419495767E-02   0.7419495767E-02   0.1568497072E-06   0.8007145723E-03   0.1060862850E+01
   0.0000000000E+00   0.9987626052E+00   0.9987626052E+00   0.0000000000E+00  -0.1245106308E-04  -0.1245106308E-04   0.0000000000E+00  -0.1224943736E-02  -0.1224943736E-02   0.1003137888E+01  -0.6158386085E-01  -0.6158386085E-01   0.7718735652E-02   0.7718735652E-02   0.1775046712E-06   0.9729075457E-03   0.1065225595E+01
   0.2008300000E+01   0.7320498637E-03   0.7320498637E-03   0.1000000000E-03   0.1182476964E-04   0.1182476964E-04   0.8200000000E-02   0.7202250940E-03   0.7202250940E-03   0.1080574988E+01   0.2452106309E-01   0.2452106309E-01  -0.7126452587E-02  -0.7126452587E-02   0.1358510372E-06   0.6502725393E-03   0.1056487017E+01
   0.2008300000E+01   0.9992679501E+00   0.7320498636E-03   0.1000000000E-03  -0.1182476964E-04   0.1182476964E-04   0.8200000000E-02  -0.7202250940E-03   0.7202250940E-03   0.1080574988E+01   0.2452106309E-01   0.2452106309E-01   0.7126452586E-02  -0.7126452586E-02  -0.1358513398E-06   0.6502725393E-03   0.1056487017E+01
   0.2008300000E+01   0.7320498636E-03   0.9992679501E+00   0.1000000000E-03   0.1182476964E-04  -0.1182476964E-04   0.8200000000E-02   0.7202250940E-03  -0.7202250940E-03   0.1080574988E+01   0.2452106309E-01   0.2452106309E-01  -0.7126452586E-02   0.7126452586E-02  -0.1358513398E-06   0.6502725393E-03   0.1056487017E+01
   0.2008300000E+01   0.9992679501E+00   0.9992679501E+00   0.1000000000E-03  -0.1182476964E-04  -0.1182476964E-04   0.8200000000E-02  -0.7202250940E-03  -0.7202250940E-03   0.1080574988E+01   0.2452106309E-01   0.2452106309E-01   0.7126452586E-02   0.7126452586E-02   0.1358516424E-06   0.6502725393E-03   0.1056487016E+01
     1     2     3     4     5     6     7     8
     2     9    10     3     6    11    12     7
 VARIABLES = X,Y,Z,DU1,DU2,DU3,U1,U2,U3,S11,S22,S33,S12,S13,S23,Vf,SMISES
 ZONE, T="0.8400D+00" F=FEPOINT, I=   12 J=    2 ET=BRICK
   0.0000000000E+00   0.1248553403E-02   0.1248553403E-02   0.0000000000E+00   0.1115860411E-04   0.1115860411E-04   0.0000000000E+00   0.1237394799E-02   0.1237394799E-02   0.1004657847E+01  -0.5867516807E-01  -0.5867516807E-01  -0.7358580954E-02  -0.7358580954E-02   0.1691136282E-06   0.9874390715E-03   0.1063791545E+01
   0.1004670230E+01   0.9237994609E-03   0.9237994609E-03   0.5270894651E-04   0.1176356636E-04   0.1176356636E-04   0.4617520759E-02   0.9120358945E-03   0.9120358945E-03   0.1042581911E+01  -0.1703657144E-01  -0.1703657144E-01  -0.7081591050E-02  -0.7081591050E-02   0.1496392420E-06   0.8144323230E-03   0.1060047006E+01
   0.1004670230E+01   0.9990762005E+00   0.9237994609E-03   0.5270894651E-04  -0.1176356635E-04   0.1176356636E-04   0.4617520759E-02  -0.9120358945E-03   0.9120358945E-03   0.1042581911E+01  -0.1703657144E-01  -0.1703657144E-01   0.7081591050E-02  -0.7081591050E-02  -0.1496393982E-06   0.8144323230E-03   0.1060047006E+01
   0.0000000000E+00   0.9987514466E+00   0.1248553403E-02   0.0000000000E+00  -0.1115860411E-04   0.1115860411E-04   0.0000000000E+00  -0.1237394799E-02   0.1237394799E-02   0.1004657847E+01  -0.5867516807E-01  -0.5867516807E-01   0.7358580954E-02  -0.7358580954E-02  -0.1691136107E-06   0.9874390714E-03   0.1063791545E+01
   0.0000000000E+00   0.1248553403E-02   0.9987514466E+00   0.0000000000E+00   0.1115860411E-04  -0.1115860411E-04   0.0000000000E+00   0.1237394799E-02  -0.1237394799E-02   0.1004657847E+01  -0.5867516807E-01  -0.5867516807E-01  -0.7358580954E-02   0.7358580954E-02  -0.1691136107E-06   0.9874390714E-03   0.1063791545E+01
   0.1004670230E+01   0.9237994609E-03   0.9990762005E+00   0.5270894651E-04   0.1176356636E-04  -0.1176356635E-04   0.4617520759E-02   0.9120358945E-03  -0.9120358945E-03   0.1042581911E+01  -0.1703657144E-01  -0.1703657144E-01  -0.7081591050E-02   0.7081591050E-02  -0.1496393982E-06   0.8144323230E-03   0.1060047006E+01
   0.1004670230E+01   0.9990762005E+00   0.9990762005E+00   0.5270894651E-04  -0.1176356635E-04  -0.1176356635E-04   0.4617520759E-02  -0.9120358945E-03  -0.9120358945E-03   0.1042581911E+01  -0.1703657144E-01  -0.1703657144E-01   0.7081591050E-02   0.7081591050E-02   0.1496395543E-06   0.8144323230E-03   0.1060047006E+01
   0.0000000000E+00   0.9987514466E+00   0.9987514466E+00   0.0000000000E+00  -0.1115860411E-04  -0.1115860411E-04   0.0000000000E+00  -0.1237394799E-02  -0.1237394799E-02   0.1004657847E+01  -0.5867516807E-01  -0.5867516807E-01   0.7358580954E-02   0.7358580954E-02   0.1691135931E-06   0.9874390714E-03   0.1063791545E+01
   0.2008400000E+01   0.7444961187E-03   0.7444961187E-03   0.1000000000E-03   0.1244625502E-04   0.1244625502E-04   0.8300000000E-02   0.7320498637E-03   0.7320498637E-03   0.1080425184E+01   0.2452305152E-01   0.2452305152E-01  -0.6810498271E-02  -0.6810498271E-02   0.1298262809E-06   0.6632200898E-03   0.1056297734E+01
   0.2008400000E+01   0.9992555039E+00   0.7444961187E-03   0.1000000000E-03  -0.1244625502E-04   0.1244625502E-04   0.8300000000E-02  -0.7320498636E-03   0.7320498636E-03   0.1080425184E+01   0.2452305152E-01   0.2452305152E-01   0.6810498271E-02  -0.6810498271E-02  -0.1298265581E-06   0.6632200898E-03   0.1056297734E+01
   0.2008400000E+01   0.7444961187E-03   0.9992555039E+00   0.1000000000E-03   0.1244625502E-04  -0.1244625502E-04   0.8300000000E-02   0.7320498636E-03  -0.7320498636E-03   0.1080425184E+01   0.2452305152E-01   0.2452305152E-01  -0.6810498271E-02   0.6810498271E-02  -0.1298265582E-06   0.6632200898E-03   0.1056297734E+01
   0.2008400000E+01   0.9992555039E+00   0.9992555039E+00   0.1000000000E-03  -0.1244625502E-04  -0.1244625502E-04   0.8300000000E-02  -0.7320498636E-03  -0.7320498636E-03   0.1080425184E+01   0.2452305152E-01   0.2452305152E-01   0.6810498271E-02   0.6810498271E-02   0.1298268354E-06   0.6632200898E-03   0.1056297734E+01
     1     2     3     4     5     6     7     8
     2     9    10     3     6    11    12     7
 VARIABLES = X,Y,Z,DU1,DU2,DU3,U1,U2,U3,S11,S22,S33,S12,S13,S23,Vf,SMISES
 ZONE, T="0.8500D+00" F=FEPOINT, I=   12 J=    2 ET=BRICK
   0.0000000000E+00   0.1258605245E-02   0.1258605245E-02   0.0000000000E+00   0.1005184220E-04   0.1005184220E-04   0.0000000000E+00   0.1248553403E-02   0.1248553403E-02   0.1010086825E+01  -0.5186209549E-01  -0.5186209549E-01  -0.6907050386E-02  -0.6907050386E-02   0.1589808854E-06   0.1001745816E-02   0.1062353442E+01
   0.1004723601E+01   0.9353109033E-03   0.9353109033E-03   0.5337093940E-04   0.1151144236E-04   0.1151144236E-04   0.4670229706E-02   0.9237994609E-03   0.9237994609E-03   0.1044548755E+01  -0.1429830615E-01  -0.1429830615E-01  -0.6649862367E-02  -0.6649862367E-02   0.1406754815E-06   0.8280336777E-03   0.1059225224E+01
   0.1004723601E+01   0.9990646891E+00   0.9353109033E-03   0.5337093940E-04  -0.1151144236E-04   0.1151144236E-04   0.4670229706E-02  -0.9237994609E-03   0.9237994609E-03   0.1044548755E+01  -0.1429830615E-01  -0.1429830615E-01   0.6649862367E-02  -0.6649862366E-02  -0.1406756193E-06   0.8280336777E-03   0.1059225224E+01
   0.0000000000E+00   0.9987413948E+00   0.1258605245E-02   0.0000000000E+00  -0.1005184220E-04   0.1005184220E-04   0.0000000000E+00  -0.1248553403E-02   0.1248553403E-02   0.1010086825E+01  -0.5186209549E-01  -0.5186209549E-01   0.6907050386E-02  -0.6907050386E-02  -0.1589808520E-06   0.1001745816E-02   0.1062353442E+01
   0.0000000000E+00   0.1258605245E-02   0.9987413948E+00   0.0000000000E+00   0.1005184220E-04  -0.1005184220E-04   0.0000000000E+00   0.1248553403E-02  -0.1248553403E-02   0.1010086825E+01  -0.5186209549E-01  -0.5186209549E-01  -0.6907050386E-02   0.6907050386E-02  -0.1589808520E-06   0.1001745816E-02   0.1062353442E+01
   0.1004723601E+01   0.9353109033E-03   0.9990646891E+00   0.5337093940E-04   0.1151144236E-04  -0.1151144236E-04   0.4670229706E-02   0.9237994609E-03  -0.9237994609E-03   0.1044548755E+01  -0.1429830615E-01  -0.1429830615E-01  -0.6649862366E-02   0.6649862367E-02  -0.1406756193E-06   0.8280336777E-03   0.1059225224E+01
   0.1004723601E+01   0.9990646891E+00   0.9990646891E+00   0.5337093940E-04  -0.1151144236E-04  -0.1151144236E-04   0.4670229706E-02  -0.9237994609E-03  -0.9237994609E-03   0.1044548755E+01  -0.1429830615E-01  -0.1429830615E-01   0.6649862366E-02   0.6649862366E-02   0.1406757571E-06   0.8280336776E-03   0.1059225224E+01
   0.0000000000E+00   0.9987413948E+00   0.9987413948E+00   0.0000000000E+00  -0.1005184220E-04  -0.1005184220E-04   0.0000000000E+00  -0.1248553403E-02  -0.1248553403E-02   0.1010086825E+01  -0.5186209549E-01  -0.5186209549E-01   0.6907050386E-02   0.6907050386E-02   0.1589808187E-06   0.1001745816E-02   0.1062353442E+01
   0.2008500000E+01   0.7575145124E-03   0.7575145124E-03   0.1000000000E-03   0.1301839371E-04   0.1301839371E-04   0.8400000000E-02   0.7444961187E-03   0.7444961187E-03   0.1078934928E+01   0.2318285759E-01   0.2318285759E-01  -0.6398588619E-02  -0.6398588619E-02   0.1220537184E-06   0.6761512004E-03   0.1056101325E+01
   0.2008500000E+01   0.9992424855E+00   0.7575145124E-03   0.1000000000E-03  -0.1301839371E-04   0.1301839371E-04   0.8400000000E-02  -0.7444961186E-03   0.7444961187E-03   0.1078934928E+01   0.2318285759E-01   0.2318285759E-01   0.6398588619E-02  -0.6398588619E-02  -0.1220539721E-06   0.6761512003E-03   0.1056101325E+01
   0.2008500000E+01   0.7575145124E-03   0.9992424855E+00   0.1000000000E-03   0.1301839371E-04  -0.1301839371E-04   0.8400000000E-02   0.7444961187E-03  -0.7444961186E-03   0.1078934928E+01   0.2318285759E-01   0.2318285759E-01  -0.6398588619E-02   0.6398588619E-02  -0.1220539721E-06   0.6761512003E-03   0.1056101325E+01
   0.2008500000E+01   0.9992424855E+00   0.9992424855E+00   0.1000000000E-03  -0.1301839371E-04  -0.1301839371E-04   0.8400000000E-02  -0.7444961186E-03  -0.7444961186E-03   0.1078934928E+01   0.2318285759E-01   0.2318285759E-01   0.6398588619E-02   0.6398588619E-02   0.1220542257E-06   0.6761512003E-03   0.1056101325E+01
     1     2     3     4     5     6     7     8
     2     9    10     3     6    11    12     7
 VARIABLES = X,Y,Z,DU1,DU2,DU3,U1,U2,U3,S11,S22,S33,S12,S13,S23,Vf,SMISES
 ZONE, T="0.8600D+00" F=FEPOINT, I=   12 J=    2 ET=BRICK
   0.0000000000E+00   0.1267796879E-02   0.1267796879E-02   0.0000000000E+00   0.9191634020E-05   0.9191634020E-05   0.0000000000E+00   0.1258605245E-02   0.1258605245E-02   0.1018884299E+01  -0.4176698690E-01  -0.4176698690E-01  -0.6381894003E-02  -0.6381894003E-02   0.1476974856E-06   0.1015844960E-02   0.1060997069E+01
   0.1004777491E+01   0.9466545742E-03   0.9466545742E-03   0.5389032181E-04   0.1134367098E-04   0.1134367098E-04   0.4723600645E-02   0.9353109033E-03   0.9353109033E-03   0.1047574044E+01  -0.1056524458E-01  -0.1056524458E-01  -0.6142404823E-02  -0.6142404823E-02   0.1305327997E-06   0.8415293628E-03   0.1058462226E+01
   0.1004777491E+01   0.9990533454E+00   0.9466545742E-03   0.5389032181E-04  -0.1134367098E-04   0.1134367098E-04   0.4723600645E-02  -0.9353109032E-03   0.9353109033E-03   0.1047574044E+01  -0.1056524458E-01  -0.1056524458E-01   0.6142404823E-02  -0.6142404822E-02  -0.1305329166E-06   0.8415293627E-03   0.1058462226E+01
   0.0000000000E+00   0.9987322031E+00   0.1267796879E-02   0.0000000000E+00  -0.9191634020E-05   0.9191634021E-05   0.0000000000E+00  -0.1258605245E-02   0.1258605245E-02   0.1018884299E+01  -0.4176698690E-01  -0.4176698690E-01   0.6381894003E-02  -0.6381894003E-02  -0.1476974298E-06   0.1015844960E-02   0.1060997069E+01
   0.0000000000E+00   0.1267796879E-02   0.9987322031E+00   0.0000000000E+00   0.9191634021E-05  -0.9191634020E-05   0.0000000000E+00   0.1258605245E-02  -0.1258605245E-02   0.1018884299E+01  -0.4176698690E-01  -0.4176698690E-01  -0.6381894003E-02   0.6381894003E-02  -0.1476974298E-06   0.1015844960E-02   0.1060997069E+01
   0.1004777491E+01   0.9466545742E-03   0.9990533454E+00   0.5389032181E-04   0.1134367098E-04  -0.1134367098E-04   0.4723600645E-02   0.9353109033E-03  -0.9353109032E-03   0.1047574044E+01  -0.1056524458E-01  -0.1056524458E-01  -0.6142404822E-02   0.6142404823E-02  -0.1305329166E-06   0.8415293627E-03   0.1058462226E+01
   0.1004777491E+01   0.9990533454E+00   0.9990533454E+00   0.5389032181E-04  -0.1134367098E-04  -0.1134367098E-04   0.4723600645E-02  -0.9353109032E-03  -0.9353109032E-03   0.1047574044E+01  -0.1056524458E-01  -0.1056524458E-01   0.6142404822E-02   0.6142404822E-02   0.1305330335E-06   0.8415293627E-03   0.1058462226E+01
   0.0000000000E+00   0.9987322031E+00   0.9987322031E+00   0.0000000000E+00  -0.9191634020E-05  -0.9191634020E-05   0.0000000000E+00  -0.1258605245E-02  -0.1258605245E-02   0.1018884299E+01  -0.4176698690E-01  -0.4176698690E-01   0.6381894003E-02   0.6381894003E-02   0.1476973739E-06   0.1015844960E-02   0.1060997069E+01
   0.2008600000E+01   0.7710289648E-03   0.7710289648E-03   0.1000000000E-03   0.1351445241E-04   0.1351445241E-04   0.8500000000E-02   0.7575145124E-03   0.7575145124E-03   0.1076192063E+01   0.2055068194E-01   0.2055068194E-01  -0.5909086050E-02  -0.5909086050E-02   0.1130879219E-06   0.6890712562E-03   0.1055939287E+01
   0.2008600000E+01   0.9992289710E+00   0.7710289648E-03   0.1000000000E-03  -0.1351445241E-04   0.1351445241E-04   0.8500000000E-02  -0.7575145123E-03   0.7575145124E-03   0.1076192063E+01   0.2055068194E-01   0.2055068194E-01   0.5909086050E-02  -0.5909086050E-02  -0.1130881536E-06   0.6890712562E-03   0.1055939287E+01
   0.2008600000E+01   0.7710289648E-03   0.9992289710E+00   0.1000000000E-03   0.1351445241E-04  -0.1351445241E-04   0.8500000000E-02   0.7575145124E-03  -0.7575145123E-03   0.1076192063E+01   0.2055068194E-01   0.2055068194E-01  -0.5909086050E-02   0.5909086050E-02  -0.1130881537E-06   0.6890712562E-03   0.1055939287E+01
   0.2008600000E+01   0.9992289710E+00   0.9992289710E+00   0.1000000000E-03  -0.1351445241E-04  -0.1351445241E-04   0.8500000000E-02  -0.7575145123E-03  -0.7575145123E-03   0.1076192063E+01   0.2055068193E-01   0.2055068193E-01   0.5909086050E-02   0.5909086050E-02   0.1130883854E-06   0.6890712562E-03   0.1055939287E+01
     1     2     3     4     5     6     7     8
     2     9    10     3     6    11    12     7
 VARIABLES = X,Y,Z,DU1,DU2,DU3,U1,U2,U3,S11,S22,S33,S12,S13,S23,Vf,SMISES
 ZONE, T="0.8700D+00" F=FEPOINT, I=   12 J=    2 ET=BRICK
   0.0000000000E+00   0.1276416989E-02   0.1276416989E-02   0.0000000000E+00   0.8620110226E-05   0.8620110226E-05   0.0000000000E+00   0.1267796879E-02   0.1267796879E-02   0.1030309754E+01  -0.2920426209E-01  -0.2920426209E-01  -0.5804867553E-02  -0.5804867553E-02   0.1359178780E-06   0.1029765934E-02   0.1059800420E+01
   0.1004831726E+01   0.9579242448E-03   0.9579242448E-03   0.5423485337E-04   0.1126967051E-04   0.1126967051E-04   0.4777490967E-02   0.9466545742E-03   0.9466545742E-03   0.1051359944E+01  -0.6188400285E-02  -0.6188400285E-02  -0.5581435829E-02  -0.5581435829E-02   0.1198528613E-06   0.8549389256E-03   0.1057815249E+01
   0.1004831726E+01   0.9990420758E+00   0.9579242448E-03   0.5423485337E-04  -0.1126967051E-04   0.1126967051E-04   0.4777490967E-02  -0.9466545742E-03   0.9466545742E-03   0.1051359944E+01  -0.6188400285E-02  -0.6188400285E-02   0.5581435829E-02  -0.5581435829E-02  -0.1198529559E-06   0.8549389256E-03   0.1057815249E+01
   0.0000000000E+00   0.9987235830E+00   0.1276416989E-02   0.0000000000E+00  -0.8620110226E-05   0.8620110226E-05   0.0000000000E+00  -0.1267796879E-02   0.1267796879E-02   0.1030309754E+01  -0.2920426208E-01  -0.2920426208E-01   0.5804867553E-02  -0.5804867553E-02  -0.1359177954E-06   0.1029765934E-02   0.1059800419E+01
   0.0000000000E+00   0.1276416989E-02   0.9987235830E+00   0.0000000000E+00   0.8620110226E-05  -0.8620110226E-05   0.0000000000E+00   0.1267796879E-02  -0.1267796879E-02   0.1030309754E+01  -0.2920426208E-01  -0.2920426208E-01  -0.5804867553E-02   0.5804867553E-02  -0.1359177953E-06   0.1029765934E-02   0.1059800419E+01
   0.1004831726E+01   0.9579242448E-03   0.9990420758E+00   0.5423485337E-04   0.1126967051E-04  -0.1126967051E-04   0.4777490967E-02   0.9466545742E-03  -0.9466545742E-03   0.1051359944E+01  -0.6188400285E-02  -0.6188400285E-02  -0.5581435829E-02   0.5581435829E-02  -0.1198529559E-06   0.8549389256E-03   0.1057815249E+01
   0.1004831726E+01   0.9990420758E+00   0.9990420758E+00   0.5423485337E-04  -0.1126967051E-04  -0.1126967051E-04   0.4777490967E-02  -0.9466545742E-03  -0.9466545742E-03   0.1051359944E+01  -0.6188400285E-02  -0.6188400285E-02   0.5581435829E-02   0.5581435829E-02   0.1198530504E-06   0.8549389256E-03   0.1057815249E+01
   0.0000000000E+00   0.9987235830E+00   0.9987235830E+00   0.0000000000E+00  -0.8620110226E-05  -0.8620110226E-05   0.0000000000E+00  -0.1267796879E-02  -0.1267796879E-02   0.1030309754E+01  -0.2920426208E-01  -0.2920426208E-01   0.5804867553E-02   0.5804867553E-02   0.1359177127E-06   0.1029765934E-02   0.1059800419E+01
   0.2008700000E+01   0.7849400382E-03   0.7849400382E-03   0.1000000000E-03   0.1391107341E-04   0.1391107341E-04   0.8600000000E-02   0.7710289648E-03   0.7710289648E-03   0.1072340373E+01   0.1673944543E-01   0.1673944543E-01  -0.5364593957E-02  -0.5364593957E-02   0.1035534961E-06   0.7019910333E-03   0.1055846488E+01
   0.2008700000E+01   0.9992150600E+00   0.7849400382E-03   0.1000000000E-03  -0.1391107341E-04   0.1391107341E-04   0.8600000000E-02  -0.7710289647E-03   0.7710289648E-03   0.1072340372E+01   0.1673944543E-01   0.1673944543E-01   0.5364593957E-02  -0.5364593957E-02  -0.1035537076E-06   0.7019910333E-03   0.1055846488E+01
   0.2008700000E+01   0.7849400382E-03   0.9992150600E+00   0.1000000000E-03   0.1391107341E-04  -0.1391107341E-04   0.8600000000E-02   0.7710289648E-03  -0.7710289647E-03   0.1072340372E+01   0.1673944543E-01   0.1673944543E-01  -0.5364593957E-02   0.5364593957E-02  -0.1035537076E-06   0.7019910333E-03   0.1055846488E+01
   0.2008700000E+01   0.9992150600E+00   0.9992150600E+00   0.1000000000E-03  -0.1391107341E-04  -0.1391107341E-04   0.8600000000E-02  -0.7710289647E-03  -0.7710289647E-03   0.1072340372E+01   0.1673944543E-01   0.1673944543E-01   0.5364593957E-02   0.5364593957E-02   0.1035539192E-06   0.7019910333E-03   0.1055846488E+01
     1     2     3     4     5     6     7     8
     2     9    10     3     6    11    12     7
 VARIABLES = X,Y,Z,DU1,DU2,DU3,U1,U2,U3,S11,S22,S33,S12,S13,S23,Vf,SMISES
 ZONE, T="0.8800D+00" F=FEPOINT, I=   12 J=    2 ET=BRICK
   0.0000000000E+00   0.1284775688E-02   0.1284775688E-02   0.0000000000E+00   0.8358699178E-05   0.8358699178E-05   0.0000000000E+00   0.1276416989E-02   0.1276416989E-02   0.1043481321E+01  -0.1511670768E-01  -0.1511670768E-01  -0.5200424430E-02  -0.5200424430E-02   0.1242713714E-06   0.1043547749E-02   0.1058828108E+01
   0.1004886110E+01   0.9692150651E-03   0.9692150651E-03   0.5438422509E-04   0.1129082034E-04   0.1129082034E-04   0.4831725820E-02   0.9579242448E-03   0.9579242448E-03   0.1055564105E+01  -0.1551945332E-02  -0.1551945332E-02  -0.4991914649E-02  -0.4991914649E-02   0.1092548722E-06   0.8682886637E-03   0.1057329774E+01
   0.1004886110E+01   0.9990307849E+00   0.9692150651E-03   0.5438422509E-04  -0.1129082034E-04   0.1129082034E-04   0.4831725820E-02  -0.9579242447E-03   0.9579242448E-03   0.1055564105E+01  -0.1551945332E-02  -0.1551945332E-02   0.4991914650E-02  -0.4991914649E-02  -0.1092549442E-06   0.8682886636E-03   0.1057329774E+01
   0.0000000000E+00   0.9987152243E+00   0.1284775688E-02   0.0000000000E+00  -0.8358699177E-05   0.8358699178E-05   0.0000000000E+00  -0.1276416989E-02   0.1276416989E-02   0.1043481321E+01  -0.1511670768E-01  -0.1511670768E-01   0.5200424430E-02  -0.5200424430E-02  -0.1242712601E-06   0.1043547749E-02   0.1058828108E+01
   0.0000000000E+00   0.1284775688E-02   0.9987152243E+00   0.0000000000E+00   0.8358699178E-05  -0.8358699177E-05   0.0000000000E+00   0.1276416989E-02  -0.1276416989E-02   0.1043481321E+01  -0.1511670768E-01  -0.1511670768E-01  -0.5200424430E-02   0.5200424430E-02  -0.1242712601E-06   0.1043547749E-02   0.1058828108E+01
   0.1004886110E+01   0.9692150651E-03   0.9990307849E+00   0.5438422509E-04   0.1129082034E-04  -0.1129082034E-04   0.4831725820E-02   0.9579242448E-03  -0.9579242447E-03   0.1055564105E+01  -0.1551945332E-02  -0.1551945332E-02  -0.4991914649E-02   0.4991914650E-02  -0.1092549442E-06   0.8682886636E-03   0.1057329774E+01
   0.1004886110E+01   0.9990307849E+00   0.9990307849E+00   0.5438422509E-04  -0.1129082034E-04  -0.1129082034E-04   0.4831725820E-02  -0.9579242447E-03  -0.9579242447E-03   0.1055564105E+01  -0.1551945332E-02  -0.1551945332E-02   0.4991914650E-02   0.4991914650E-02   0.1092550161E-06   0.8682886636E-03   0.1057329774E+01
   0.0000000000E+00   0.9987152243E+00   0.9987152243E+00   0.0000000000E+00  -0.8358699177E-05  -0.8358699177E-05   0.0000000000E+00  -0.1276416989E-02  -0.1276416989E-02   0.1043481321E+01  -0.1511670768E-01  -0.1511670768E-01   0.5200424430E-02   0.5200424430E-02   0.1242711488E-06   0.1043547749E-02   0.1058828108E+01
   0.2008800000E+01   0.7991295852E-03   0.7991295852E-03   0.1000000000E-03   0.1418954696E-04   0.1418954696E-04   0.8700000000E-02   0.7849400382E-03   0.7849400382E-03   0.1067576359E+01   0.1192393534E-01   0.1192393534E-01  -0.4790507045E-02  -0.4790507045E-02   0.9405533683E-07   0.7149251901E-03   0.1055848250E+01
   0.2008800000E+01   0.9992008704E+00   0.7991295852E-03   0.1000000000E-03  -0.1418954696E-04   0.1418954696E-04   0.8700000000E-02  -0.7849400381E-03   0.7849400382E-03   0.1067576359E+01   0.1192393534E-01   0.1192393534E-01   0.4790507046E-02  -0.4790507045E-02  -0.9405552950E-07   0.7149251901E-03   0.1055848250E+01
   0.2008800000E+01   0.7991295852E-03   0.9992008704E+00   0.1000000000E-03   0.1418954696E-04  -0.1418954696E-04   0.8700000000E-02   0.7849400382E-03  -0.7849400381E-03   0.1067576359E+01   0.1192393534E-01   0.1192393534E-01  -0.4790507045E-02   0.4790507046E-02  -0.9405552951E-07   0.7149251901E-03   0.1055848250E+01
   0.2008800000E+01   0.9992008704E+00   0.9992008704E+00   0.1000000000E-03  -0.1418954696E-04  -0.1418954696E-04   0.8700000000E-02  -0.7849400381E-03  -0.7849400381E-03   0.1067576359E+01   0.1192393534E-01   0.1192393534E-01   0.4790507046E-02   0.4790507046E-02   0.9405572220E-07   0.7149251900E-03   0.1055848250E+01
     1     2     3     4     5     6     7     8
     2     9    10     3     6    11    12     7
 VARIABLES = X,Y,Z,DU1,DU2,DU3,U1,U2,U3,S11,S22,S33,S12,S13,S23,Vf,SMISES
 ZONE, T="0.8900D+00" F=FEPOINT, I=   12 J=    2 ET=BRICK
   0.0000000000E+00   0.1293183323E-02   0.1293183323E-02   0.0000000000E+00   0.8407634888E-05   0.8407634888E-05   0.0000000000E+00   0.1284775688E-02   0.1284775688E-02   0.1057441091E+01  -0.5059221977E-03  -0.5059221977E-03  -0.4594260083E-02  -0.4594260083E-02   0.1132860073E-06   0.1057235865E-02   0.1058126710E+01
   0.1004940441E+01   0.9806158388E-03   0.9806158388E-03   0.5433087467E-04   0.1140077368E-04   0.1140077368E-04   0.4886110045E-02   0.9692150651E-03   0.9692150651E-03   0.1059829323E+01   0.2959320913E-02   0.2959320913E-02  -0.4400020678E-02  -0.4400020678E-02   0.9925874580E-07   0.8816091916E-03   0.1057036236E+01
   0.1004940441E+01   0.9990193842E+00   0.9806158388E-03   0.5433087467E-04  -0.1140077368E-04   0.1140077368E-04   0.4886110045E-02  -0.9692150651E-03   0.9692150651E-03   0.1059829323E+01   0.2959320913E-02   0.2959320913E-02   0.4400020679E-02  -0.4400020678E-02  -0.9925879593E-07   0.8816091916E-03   0.1057036236E+01
   0.0000000000E+00   0.9987068167E+00   0.1293183323E-02   0.0000000000E+00  -0.8407634888E-05   0.8407634888E-05   0.0000000000E+00  -0.1284775688E-02   0.1284775688E-02   0.1057441091E+01  -0.5059221975E-03  -0.5059221978E-03   0.4594260083E-02  -0.4594260083E-02  -0.1132858681E-06   0.1057235865E-02   0.1058126710E+01
   0.0000000000E+00   0.1293183323E-02   0.9987068167E+00   0.0000000000E+00   0.8407634888E-05  -0.8407634888E-05   0.0000000000E+00   0.1284775688E-02  -0.1284775688E-02   0.1057441091E+01  -0.5059221978E-03  -0.5059221975E-03  -0.4594260083E-02   0.4594260083E-02  -0.1132858681E-06   0.1057235865E-02   0.1058126710E+01
   0.1004940441E+01   0.9806158388E-03   0.9990193842E+00   0.5433087467E-04   0.1140077368E-04  -0.1140077368E-04   0.4886110045E-02   0.9692150651E-03  -0.9692150651E-03   0.1059829323E+01   0.2959320913E-02   0.2959320913E-02  -0.4400020678E-02   0.4400020679E-02  -0.9925879593E-07   0.8816091916E-03   0.1057036236E+01
   0.1004940441E+01   0.9990193842E+00   0.9990193842E+00   0.5433087467E-04  -0.1140077368E-04  -0.1140077368E-04   0.4886110045E-02  -0.9692150651E-03  -0.9692150651E-03   0.1059829323E+01   0.2959320913E-02   0.2959320913E-02   0.4400020679E-02   0.4400020679E-02   0.9925884604E-07   0.8816091916E-03   0.1057036236E+01
   0.0000000000E+00   0.9987068167E+00   0.9987068167E+00   0.0000000000E+00  -0.8407634888E-05  -0.8407634888E-05   0.0000000000E+00  -0.1284775688E-02  -0.1284775688E-02   0.1057441091E+01  -0.5059221977E-03  -0.5059221977E-03   0.4594260083E-02   0.4594260083E-02   0.1132857288E-06   0.1057235865E-02   0.1058126710E+01
   0.2008900000E+01   0.8134665105E-03   0.8134665105E-03   0.1000000000E-03   0.1433692537E-04   0.1433692537E-04   0.8800000000E-02   0.7991295852E-03   0.7991295852E-03   0.1062143229E+01   0.6336312103E-02   0.6336312103E-02  -0.4213425646E-02  -0.4213425646E-02   0.8510147901E-07   0.7278905081E-03   0.1055958403E+01
   0.2008900000E+01   0.9991865335E+00   0.8134665105E-03   0.1000000000E-03  -0.1433692537E-04   0.1433692537E-04   0.8800000000E-02  -0.7991295851E-03   0.7991295852E-03   0.1062143229E+01   0.6336312102E-02   0.6336312103E-02   0.4213425647E-02  -0.4213425646E-02  -0.8510165397E-07   0.7278905080E-03   0.1055958403E+01
   0.2008900000E+01   0.8134665105E-03   0.9991865335E+00   0.1000000000E-03   0.1433692537E-04  -0.1433692537E-04   0.8800000000E-02   0.7991295852E-03  -0.7991295851E-03   0.1062143229E+01   0.6336312103E-02   0.6336312102E-02  -0.4213425646E-02   0.4213425647E-02  -0.8510165399E-07   0.7278905080E-03   0.1055958403E+01
   0.2008900000E+01   0.9991865335E+00   0.9991865335E+00   0.1000000000E-03  -0.1433692537E-04  -0.1433692537E-04   0.8800000000E-02  -0.7991295851E-03  -0.7991295851E-03   0.1062143229E+01   0.6336312102E-02   0.6336312102E-02   0.4213425647E-02   0.4213425647E-02   0.8510182897E-07   0.7278905080E-03   0.1055958403E+01
     1     2     3     4     5     6     7     8
     2     9    10     3     6    11    12     7
 VARIABLES = X,Y,Z,DU1,DU2,DU3,U1,U2,U3,S11,S22,S33,S12,S13,S23,Vf,SMISES
 ZONE, T="0.9000D+00" F=FEPOINT, I=   12 J=    2 ET=BRICK
   0.0000000000E+00   0.1301930237E-02   0.1301930237E-02   0.0000000000E+00   0.8746913216E-05   0.8746913216E-05   0.0000000000E+00   0.1293183323E-02   0.1293183323E-02   0.1071222390E+01   0.1363797752E-01   0.1363797752E-01  -0.4011782674E-02  -0.4011782674E-02   0.1033373405E-06   0.1070878829E-02   0.1057721496E+01
   0.1004994521E+01   0.9922022138E-03   0.9922022138E-03   0.5408000502E-04   0.1158637500E-04   0.1158637500E-04   0.4940440920E-02   0.9806158388E-03   0.9806158388E-03   0.1063812721E+01   0.6990907873E-02   0.6990907873E-02  -0.3831573030E-02  -0.3831573030E-02   0.9023365836E-07   0.8949328463E-03   0.1056948026E+01
   0.1004994521E+01   0.9990077978E+00   0.9922022138E-03   0.5408000502E-04  -0.1158637500E-04   0.1158637500E-04   0.4940440920E-02  -0.9806158387E-03   0.9806158388E-03   0.1063812721E+01   0.6990907872E-02   0.6990907873E-02   0.3831573030E-02  -0.3831573030E-02  -0.9023368845E-07   0.8949328462E-03   0.1056948026E+01
   0.0000000000E+00   0.9986980698E+00   0.1301930237E-02   0.0000000000E+00  -0.8746913216E-05   0.8746913216E-05   0.0000000000E+00  -0.1293183323E-02   0.1293183323E-02   0.1071222390E+01   0.1363797752E-01   0.1363797752E-01   0.4011782674E-02  -0.4011782674E-02  -0.1033371766E-06   0.1070878829E-02   0.1057721496E+01
   0.0000000000E+00   0.1301930237E-02   0.9986980698E+00   0.0000000000E+00   0.8746913216E-05  -0.8746913216E-05   0.0000000000E+00   0.1293183323E-02  -0.1293183323E-02   0.1071222390E+01   0.1363797752E-01   0.1363797752E-01  -0.4011782674E-02   0.4011782674E-02  -0.1033371766E-06   0.1070878829E-02   0.1057721496E+01
   0.1004994521E+01   0.9922022138E-03   0.9990077978E+00   0.5408000502E-04   0.1158637500E-04  -0.1158637500E-04   0.4940440920E-02   0.9806158388E-03  -0.9806158387E-03   0.1063812721E+01   0.6990907873E-02   0.6990907872E-02  -0.3831573030E-02   0.3831573030E-02  -0.9023368846E-07   0.8949328462E-03   0.1056948026E+01
   0.1004994521E+01   0.9990077978E+00   0.9990077978E+00   0.5408000502E-04  -0.1158637500E-04  -0.1158637500E-04   0.4940440920E-02  -0.9806158387E-03  -0.9806158387E-03   0.1063812721E+01   0.6990907872E-02   0.6990907872E-02   0.3831573030E-02   0.3831573030E-02   0.9023371854E-07   0.8949328462E-03   0.1056948026E+01
   0.0000000000E+00   0.9986980698E+00   0.9986980698E+00   0.0000000000E+00  -0.8746913216E-05  -0.8746913216E-05   0.0000000000E+00  -0.1293183323E-02  -0.1293183323E-02   0.1071222390E+01   0.1363797752E-01   0.1363797752E-01   0.4011782674E-02   0.4011782674E-02   0.1033370126E-06   0.1070878829E-02   0.1057721496E+01
   0.2009000000E+01   0.8278134076E-03   0.8278134076E-03   0.1000000000E-03   0.1434689707E-04   0.1434689707E-04   0.8900000000E-02   0.8134665105E-03   0.8134665105E-03   0.1056321926E+01   0.2577029445E-03   0.2577029445E-03  -0.3659525868E-02  -0.3659525868E-02   0.7705167235E-07   0.7409040494E-03   0.1056178492E+01
   0.2009000000E+01   0.9991721866E+00   0.8278134076E-03   0.1000000000E-03  -0.1434689707E-04   0.1434689707E-04   0.8900000000E-02  -0.8134665105E-03   0.8134665105E-03   0.1056321926E+01   0.2577029443E-03   0.2577029446E-03   0.3659525869E-02  -0.3659525868E-02  -0.7705183033E-07   0.7409040494E-03   0.1056178492E+01
   0.2009000000E+01   0.8278134076E-03   0.9991721866E+00   0.1000000000E-03   0.1434689707E-04  -0.1434689707E-04   0.8900000000E-02   0.8134665105E-03  -0.8134665105E-03   0.1056321926E+01   0.2577029446E-03   0.2577029443E-03  -0.3659525868E-02   0.3659525869E-02  -0.7705183034E-07   0.7409040494E-03   0.1056178492E+01
   0.2009000000E+01   0.9991721866E+00   0.9991721866E+00   0.1000000000E-03  -0.1434689707E-04  -0.1434689707E-04   0.8900000000E-02  -0.8134665105E-03  -0.8134665105E-03   0.1056321926E+01   0.2577029445E-03   0.2577029445E-03   0.3659525869E-02   0.3659525869E-02   0.7705198834E-07   0.7409040494E-03   0.1056178492E+01
     1     2     3     4     5     6     7     8
     2     9    10     3     6    11    12     7
 VARIABLES = X,Y,Z,DU1,DU2,DU3,U1,U2,U3,S11,S22,S33,S12,S13,S23,Vf,SMISES
 ZONE, T="0.9100D+00" F=FEPOINT, I=   12 J=    2 ET=BRICK
   0.0000000000E+00   0.1311268798E-02   0.1311268798E-02   0.0000000000E+00   0.9338561349E-05   0.9338561349E-05   0.0000000000E+00   0.1301930237E-02   0.1301930237E-02   0.1083914429E+01   0.2640245960E-01   0.2640245960E-01  -0.3476597302E-02  -0.3476597302E-02   0.9462894955E-07   0.1084524892E-02   0.1057614942E+01
   0.1005048170E+01   0.1004031291E-02   0.1004031291E-02   0.5364883155E-04   0.1182907678E-04   0.1182907678E-04   0.4994520925E-02   0.9922022138E-03   0.9922022138E-03   0.1067212195E+01   0.1024553531E-01   0.1024553531E-01  -0.3310484218E-02  -0.3310484218E-02   0.8237885300E-07   0.9082911140E-03   0.1057061005E+01
   0.1005048170E+01   0.9989959687E+00   0.1004031291E-02   0.5364883155E-04  -0.1182907678E-04   0.1182907678E-04   0.4994520925E-02  -0.9922022137E-03   0.9922022138E-03   0.1067212195E+01   0.1024553531E-01   0.1024553531E-01   0.3310484219E-02  -0.3310484218E-02  -0.8237886567E-07   0.9082911140E-03   0.1057061005E+01
   0.0000000000E+00   0.9986887312E+00   0.1311268798E-02   0.0000000000E+00  -0.9338561349E-05   0.9338561350E-05   0.0000000000E+00  -0.1301930237E-02   0.1301930237E-02   0.1083914429E+01   0.2640245960E-01   0.2640245960E-01   0.3476597303E-02  -0.3476597302E-02  -0.9462876604E-07   0.1084524892E-02   0.1057614942E+01
   0.0000000000E+00   0.1311268798E-02   0.9986887312E+00   0.0000000000E+00   0.9338561350E-05  -0.9338561349E-05   0.0000000000E+00   0.1301930237E-02  -0.1301930237E-02   0.1083914429E+01   0.2640245960E-01   0.2640245960E-01  -0.3476597302E-02   0.3476597303E-02  -0.9462876603E-07   0.1084524892E-02   0.1057614942E+01
   0.1005048170E+01   0.1004031291E-02   0.9989959687E+00   0.5364883155E-04   0.1182907678E-04  -0.1182907678E-04   0.4994520925E-02   0.9922022138E-03  -0.9922022137E-03   0.1067212195E+01   0.1024553531E-01   0.1024553531E-01  -0.3310484218E-02   0.3310484219E-02  -0.8237886567E-07   0.9082911140E-03   0.1057061005E+01
   0.1005048170E+01   0.9989959687E+00   0.9989959687E+00   0.5364883155E-04  -0.1182907678E-04  -0.1182907678E-04   0.4994520925E-02  -0.9922022137E-03  -0.9922022137E-03   0.1067212195E+01   0.1024553531E-01   0.1024553531E-01   0.3310484219E-02   0.3310484219E-02   0.8237887832E-07   0.9082911139E-03   0.1057061005E+01
   0.0000000000E+00   0.9986887312E+00   0.9986887312E+00   0.0000000000E+00  -0.9338561349E-05  -0.9338561349E-05   0.0000000000E+00  -0.1301930237E-02  -0.1301930237E-02   0.1083914429E+01   0.2640245960E-01   0.2640245960E-01   0.3476597303E-02   0.3476597303E-02   0.9462858248E-07   0.1084524892E-02   0.1057614941E+01
   0.2009100000E+01   0.8420337532E-03   0.8420337532E-03   0.1000000000E-03   0.1422034562E-04   0.1422034562E-04   0.9000000000E-02   0.8278134076E-03   0.8278134076E-03   0.1050419302E+01  -0.5994069461E-02  -0.5994069461E-02  -0.3152984134E-02  -0.3152984134E-02   0.7009857710E-07   0.7539813922E-03   0.1056498188E+01
   0.2009100000E+01   0.9991579662E+00   0.8420337532E-03   0.1000000000E-03  -0.1422034562E-04   0.1422034562E-04   0.9000000000E-02  -0.8278134075E-03   0.8278134076E-03   0.1050419302E+01  -0.5994069460E-02  -0.5994069460E-02   0.3152984135E-02  -0.3152984134E-02  -0.7009871832E-07   0.7539813921E-03   0.1056498188E+01
   0.2009100000E+01   0.8420337532E-03   0.9991579662E+00   0.1000000000E-03   0.1422034562E-04  -0.1422034562E-04   0.9000000000E-02   0.8278134076E-03  -0.8278134075E-03   0.1050419302E+01  -0.5994069460E-02  -0.5994069460E-02  -0.3152984134E-02   0.3152984135E-02  -0.7009871833E-07   0.7539813921E-03   0.1056498188E+01
   0.2009100000E+01   0.9991579662E+00   0.9991579662E+00   0.1000000000E-03  -0.1422034562E-04  -0.1422034562E-04   0.9000000000E-02  -0.8278134075E-03  -0.8278134075E-03   0.1050419302E+01  -0.5994069460E-02  -0.5994069460E-02   0.3152984135E-02   0.3152984135E-02   0.7009885957E-07   0.7539813921E-03   0.1056498188E+01
     1     2     3     4     5     6     7     8
     2     9    10     3     6    11    12     7
 VARIABLES = X,Y,Z,DU1,DU2,DU3,U1,U2,U3,S11,S22,S33,S12,S13,S23,Vf,SMISES
 ZONE, T="0.9200D+00" F=FEPOINT, I=   12 J=    2 ET=BRICK
   0.0000000000E+00   0.1321398799E-02   0.1321398799E-02   0.0000000000E+00   0.1013000103E-04   0.1013000103E-04   0.0000000000E+00   0.1311268798E-02   0.1311268798E-02   0.1094720175E+01   0.3701009922E-01   0.3701009922E-01  -0.3009099902E-02  -0.3009099902E-02   0.8720461634E-07   0.1098218788E-02   0.1057787217E+01
   0.1005101235E+01   0.1016138005E-02   0.1016138005E-02   0.5306512953E-04   0.1210671468E-04   0.1210671468E-04   0.5048169757E-02   0.1004031291E-02   0.1004031291E-02   0.1069788217E+01   0.1250401017E-01   0.1250401017E-01  -0.2857345368E-02  -0.2857345368E-02   0.7573641447E-07   0.9217122540E-03   0.1057354589E+01
   0.1005101235E+01   0.9989838620E+00   0.1016138005E-02   0.5306512953E-04  -0.1210671468E-04   0.1210671468E-04   0.5048169757E-02  -0.1004031291E-02   0.1004031291E-02   0.1069788217E+01   0.1250401017E-01   0.1250401017E-01   0.2857345369E-02  -0.2857345368E-02  -0.7573641286E-07   0.9217122540E-03   0.1057354589E+01
   0.0000000000E+00   0.9986786012E+00   0.1321398799E-02   0.0000000000E+00  -0.1013000102E-04   0.1013000103E-04   0.0000000000E+00  -0.1311268798E-02   0.1311268798E-02   0.1094720175E+01   0.3701009922E-01   0.3701009922E-01   0.3009099902E-02  -0.3009099902E-02  -0.8720442019E-07   0.1098218788E-02   0.1057787217E+01
   0.0000000000E+00   0.1321398799E-02   0.9986786012E+00   0.0000000000E+00   0.1013000103E-04  -0.1013000102E-04   0.0000000000E+00   0.1311268798E-02  -0.1311268798E-02   0.1094720175E+01   0.3701009922E-01   0.3701009922E-01  -0.3009099902E-02   0.3009099902E-02  -0.8720442018E-07   0.1098218788E-02   0.1057787217E+01
   0.1005101235E+01   0.1016138005E-02   0.9989838620E+00   0.5306512953E-04   0.1210671468E-04  -0.1210671468E-04   0.5048169757E-02   0.1004031291E-02  -0.1004031291E-02   0.1069788217E+01   0.1250401017E-01   0.1250401017E-01  -0.2857345368E-02   0.2857345369E-02  -0.7573641286E-07   0.9217122540E-03   0.1057354589E+01
   0.1005101235E+01   0.9989838620E+00   0.9989838620E+00   0.5306512953E-04  -0.1210671468E-04  -0.1210671468E-04   0.5048169757E-02  -0.1004031291E-02  -0.1004031291E-02   0.1069788217E+01   0.1250401017E-01   0.1250401017E-01   0.2857345369E-02   0.2857345369E-02   0.7573641124E-07   0.9217122539E-03   0.1057354589E+01
   0.0000000000E+00   0.9986786012E+00   0.9986786012E+00   0.0000000000E+00  -0.1013000102E-04  -0.1013000102E-04   0.0000000000E+00  -0.1311268798E-02  -0.1311268798E-02   0.1094720175E+01   0.3701009922E-01   0.3701009922E-01   0.3009099902E-02   0.3009099902E-02   0.8720422399E-07   0.1098218788E-02   0.1057787217E+01
   0.2009200000E+01   0.8559992852E-03   0.8559992852E-03   0.1000000000E-03   0.1396553200E-04   0.1396553200E-04   0.9100000000E-02   0.8420337532E-03   0.8420337532E-03   0.1044753772E+01  -0.1208021678E-01  -0.1208021678E-01  -0.2714554977E-02  -0.2714554977E-02   0.6428110627E-07   0.7671350886E-03   0.1056896852E+01
   0.2009200000E+01   0.9991440007E+00   0.8559992852E-03   0.1000000000E-03  -0.1396553200E-04   0.1396553200E-04   0.9100000000E-02  -0.8420337532E-03   0.8420337532E-03   0.1044753772E+01  -0.1208021678E-01  -0.1208021678E-01   0.2714554978E-02  -0.2714554977E-02  -0.6428123046E-07   0.7671350885E-03   0.1056896851E+01
   0.2009200000E+01   0.8559992852E-03   0.9991440007E+00   0.1000000000E-03   0.1396553200E-04  -0.1396553200E-04   0.9100000000E-02   0.8420337532E-03  -0.8420337532E-03   0.1044753772E+01  -0.1208021678E-01  -0.1208021678E-01  -0.2714554977E-02   0.2714554978E-02  -0.6428123047E-07   0.7671350885E-03   0.1056896851E+01
   0.2009200000E+01   0.9991440007E+00   0.9991440007E+00   0.1000000000E-03  -0.1396553200E-04  -0.1396553200E-04   0.9100000000E-02  -0.8420337532E-03  -0.8420337532E-03   0.1044753772E+01  -0.1208021678E-01  -0.1208021678E-01   0.2714554978E-02   0.2714554978E-02   0.6428135469E-07   0.7671350885E-03   0.1056896851E+01
     1     2     3     4     5     6     7     8
     2     9    10     3     6    11    12     7
 VARIABLES = X,Y,Z,DU1,DU2,DU3,U1,U2,U3,S11,S22,S33,S12,S13,S23,Vf,SMISES
 ZONE, T="0.9300D+00" F=FEPOINT, I=   12 J=    2 ET=BRICK
   0.0000000000E+00   0.1332457020E-02   0.1332457020E-02   0.0000000000E+00   0.1105822142E-04   0.1105822142E-04   0.0000000000E+00   0.1321398799E-02   0.1321398799E-02   0.1103003908E+01   0.4486396998E-01   0.4486396998E-01  -0.2625277652E-02  -0.2625277652E-02   0.8098557320E-07   0.1111998873E-02   0.1058198644E+01
   0.1005153600E+01   0.1028533484E-02   0.1028533484E-02   0.5236519272E-04   0.1239547850E-04   0.1239547850E-04   0.5101234886E-02   0.1016138005E-02   0.1016138005E-02   0.1071379538E+01   0.1363868908E-01   0.1363868908E-01  -0.2488237031E-02  -0.2488237031E-02   0.7022907124E-07   0.9352192690E-03   0.1057794283E+01
   0.1005153600E+01   0.9989714665E+00   0.1028533484E-02   0.5236519272E-04  -0.1239547850E-04   0.1239547850E-04   0.5101234886E-02  -0.1016138005E-02   0.1016138005E-02   0.1071379538E+01   0.1363868908E-01   0.1363868908E-01   0.2488237032E-02  -0.2488237031E-02  -0.7022905880E-07   0.9352192690E-03   0.1057794283E+01
   0.0000000000E+00   0.9986675430E+00   0.1332457020E-02   0.0000000000E+00  -0.1105822142E-04   0.1105822142E-04   0.0000000000E+00  -0.1321398799E-02   0.1321398799E-02   0.1103003908E+01   0.4486396998E-01   0.4486396998E-01   0.2625277652E-02  -0.2625277651E-02  -0.8098537240E-07   0.1111998873E-02   0.1058198643E+01
   0.0000000000E+00   0.1332457020E-02   0.9986675430E+00   0.0000000000E+00   0.1105822142E-04  -0.1105822142E-04   0.0000000000E+00   0.1321398799E-02  -0.1321398799E-02   0.1103003908E+01   0.4486396998E-01   0.4486396998E-01  -0.2625277651E-02   0.2625277652E-02  -0.8098537239E-07   0.1111998873E-02   0.1058198643E+01
   0.1005153600E+01   0.1028533484E-02   0.9989714665E+00   0.5236519272E-04   0.1239547850E-04  -0.1239547850E-04   0.5101234886E-02   0.1016138005E-02  -0.1016138005E-02   0.1071379538E+01   0.1363868908E-01   0.1363868908E-01  -0.2488237031E-02   0.2488237032E-02  -0.7022905880E-07   0.9352192690E-03   0.1057794283E+01
   0.1005153600E+01   0.9989714665E+00   0.9989714665E+00   0.5236519272E-04  -0.1239547850E-04  -0.1239547850E-04   0.5101234886E-02  -0.1016138005E-02  -0.1016138005E-02   0.1071379538E+01   0.1363868908E-01   0.1363868908E-01   0.2488237032E-02   0.2488237032E-02   0.7022904635E-07   0.9352192690E-03   0.1057794283E+01
   0.0000000000E+00   0.9986675430E+00   0.9986675430E+00   0.0000000000E+00  -0.1105822142E-04  -0.1105822142E-04   0.0000000000E+00  -0.1321398799E-02  -0.1321398799E-02   0.1103003908E+01   0.4486396998E-01   0.4486396998E-01   0.2625277652E-02   0.2625277652E-02   0.8098517157E-07   0.1111998873E-02   0.1058198643E+01
   0.2009300000E+01   0.8695971445E-03   0.8695971445E-03   0.1000000000E-03   0.1359785924E-04   0.1359785924E-04   0.9200000000E-02   0.8559992852E-03   0.8559992852E-03   0.1039639095E+01  -0.1765940901E-01  -0.1765940901E-01  -0.2360393214E-02  -0.2360393214E-02   0.5952266978E-07   0.7803734664E-03   0.1057346028E+01
   0.2009300000E+01   0.9991304029E+00   0.8695971445E-03   0.1000000000E-03  -0.1359785924E-04   0.1359785924E-04   0.9200000000E-02  -0.8559992851E-03   0.8559992852E-03   0.1039639095E+01  -0.1765940901E-01  -0.1765940901E-01   0.2360393215E-02  -0.2360393214E-02  -0.5952277617E-07   0.7803734664E-03   0.1057346028E+01
   0.2009300000E+01   0.8695971445E-03   0.9991304029E+00   0.1000000000E-03   0.1359785924E-04  -0.1359785924E-04   0.9200000000E-02   0.8559992852E-03  -0.8559992851E-03   0.1039639095E+01  -0.1765940901E-01  -0.1765940901E-01  -0.2360393214E-02   0.2360393215E-02  -0.5952277618E-07   0.7803734664E-03   0.1057346028E+01
   0.2009300000E+01   0.9991304029E+00   0.9991304029E+00   0.1000000000E-03  -0.1359785924E-04  -0.1359785924E-04   0.9200000000E-02  -0.8559992851E-03  -0.8559992851E-03   0.1039639095E+01  -0.1765940901E-01  -0.1765940901E-01   0.2360393215E-02   0.2360393215E-02   0.5952288259E-07   0.7803734664E-03   0.1057346028E+01
     1     2     3     4     5     6     7     8
     2     9    10     3     6    11    12     7
 VARIABLES = X,Y,Z,DU1,DU2,DU3,U1,U2,U3,S11,S22,S33,S12,S13,S23,Vf,SMISES
 ZONE, T="0.9400D+00" F=FEPOINT, I=   12 J=    2 ET=BRICK
   0.0000000000E+00   0.1344511457E-02   0.1344511457E-02   0.0000000000E+00   0.1205443697E-04   0.1205443697E-04   0.0000000000E+00   0.1332457020E-02   0.1332457020E-02   0.1108325794E+01   0.4957841706E-01   0.4957841706E-01  -0.2335803350E-02  -0.2335803350E-02   0.7582149370E-07   0.1125894775E-02   0.1058793832E+01
   0.1005205191E+01   0.1041205393E-02   0.1041205393E-02   0.5159134625E-04   0.1267190919E-04   0.1267190919E-04   0.5153600079E-02   0.1028533484E-02   0.1028533484E-02   0.1071911888E+01   0.1361882685E-01   0.1361882685E-01  -0.2213846928E-02  -0.2213846928E-02   0.6571140168E-07   0.9488283551E-03   0.1058335380E+01
   0.1005205191E+01   0.9989587946E+00   0.1041205393E-02   0.5159134625E-04  -0.1267190919E-04   0.1267190919E-04   0.5153600079E-02  -0.1028533484E-02   0.1028533484E-02   0.1071911888E+01   0.1361882685E-01   0.1361882685E-01   0.2213846929E-02  -0.2213846928E-02  -0.6571138187E-07   0.9488283551E-03   0.1058335380E+01
   0.0000000000E+00   0.9986554885E+00   0.1344511457E-02   0.0000000000E+00  -0.1205443697E-04   0.1205443697E-04   0.0000000000E+00  -0.1332457020E-02   0.1332457020E-02   0.1108325794E+01   0.4957841705E-01   0.4957841705E-01   0.2335803350E-02  -0.2335803350E-02  -0.7582129679E-07   0.1125894775E-02   0.1058793832E+01
   0.0000000000E+00   0.1344511457E-02   0.9986554885E+00   0.0000000000E+00   0.1205443697E-04  -0.1205443697E-04   0.0000000000E+00   0.1332457020E-02  -0.1332457020E-02   0.1108325794E+01   0.4957841705E-01   0.4957841705E-01  -0.2335803350E-02   0.2335803350E-02  -0.7582129677E-07   0.1125894775E-02   0.1058793832E+01
   0.1005205191E+01   0.1041205393E-02   0.9989587946E+00   0.5159134625E-04   0.1267190919E-04  -0.1267190919E-04   0.5153600079E-02   0.1028533484E-02  -0.1028533484E-02   0.1071911888E+01   0.1361882685E-01   0.1361882685E-01  -0.2213846928E-02   0.2213846929E-02  -0.6571138187E-07   0.9488283551E-03   0.1058335380E+01
   0.1005205191E+01   0.9989587946E+00   0.9989587946E+00   0.5159134625E-04  -0.1267190919E-04  -0.1267190919E-04   0.5153600079E-02  -0.1028533484E-02  -0.1028533484E-02   0.1071911888E+01   0.1361882685E-01   0.1361882685E-01   0.2213846929E-02   0.2213846929E-02   0.6571136207E-07   0.9488283550E-03   0.1058335380E+01
   0.0000000000E+00   0.9986554885E+00   0.9986554885E+00   0.0000000000E+00  -0.1205443697E-04  -0.1205443697E-04   0.0000000000E+00  -0.1332457020E-02  -0.1332457020E-02   0.1108325794E+01   0.4957841705E-01   0.4957841705E-01   0.2335803350E-02   0.2335803350E-02   0.7582109984E-07   0.1125894775E-02   0.1058793832E+01
   0.2009400000E+01   0.8827363495E-03   0.8827363495E-03   0.1000000000E-03   0.1313920502E-04   0.1313920502E-04   0.9300000000E-02   0.8695971445E-03   0.8695971445E-03   0.1035367131E+01  -0.2240781046E-01  -0.2240781046E-01  -0.2101195391E-02  -0.2101195391E-02   0.5568244133E-07   0.7936998633E-03   0.1057812595E+01
   0.2009400000E+01   0.9991172637E+00   0.8827363495E-03   0.1000000000E-03  -0.1313920502E-04   0.1313920502E-04   0.9300000000E-02  -0.8695971444E-03   0.8695971445E-03   0.1035367131E+01  -0.2240781045E-01  -0.2240781045E-01   0.2101195392E-02  -0.2101195391E-02  -0.5568252868E-07   0.7936998633E-03   0.1057812595E+01
   0.2009400000E+01   0.8827363495E-03   0.9991172637E+00   0.1000000000E-03   0.1313920502E-04  -0.1313920502E-04   0.9300000000E-02   0.8695971445E-03  -0.8695971444E-03   0.1035367131E+01  -0.2240781045E-01  -0.2240781045E-01  -0.2101195391E-02   0.2101195392E-02  -0.5568252869E-07   0.7936998633E-03   0.1057812595E+01
   0.2009400000E+01   0.9991172637E+00   0.9991172637E+00   0.1000000000E-03  -0.1313920502E-04  -0.1313920502E-04   0.9300000000E-02  -0.8695971444E-03  -0.8695971444E-03   0.1035367131E+01  -0.2240781045E-01  -0.2240781045E-01   0.2101195392E-02   0.2101195392E-02   0.5568261607E-07   0.7936998633E-03   0.1057812595E+01
     1     2     3     4     5     6     7     8
     2     9    10     3     6    11    12     7
 VARIABLES = X,Y,Z,DU1,DU2,DU3,U1,U2,U3,S11,S22,S33,S12,S13,S23,Vf,SMISES
 ZONE, T="0.9500D+00" F=FEPOINT, I=   12 J=    2 ET=BRICK
   0.0000000000E+00   0.1357560347E-02   0.1357560347E-02   0.0000000000E+00   0.1304889018E-04   0.1304889018E-04   0.0000000000E+00   0.1344511457E-02   0.1344511457E-02   0.1110461762E+01   0.5099390722E-01   0.5099390722E-01  -0.2145491170E-02  -0.2145491170E-02   0.7154208694E-07   0.1139925721E-02   0.1059507026E+01
   0.1005255981E+01   0.1054120153E-02   0.1054120153E-02   0.5078917896E-04   0.1291475958E-04   0.1291475958E-04   0.5205191425E-02   0.1041205393E-02   0.1041205393E-02   0.1071399328E+01   0.1250782326E-01   0.1250782326E-01  -0.2038954065E-02  -0.2038954065E-02   0.6202114512E-07   0.9625479327E-03   0.1058927375E+01
   0.1005255981E+01   0.9989458798E+00   0.1054120153E-02   0.5078917896E-04  -0.1291475958E-04   0.1291475958E-04   0.5205191425E-02  -0.1041205393E-02   0.1041205393E-02   0.1071399328E+01   0.1250782326E-01   0.1250782326E-01   0.2038954065E-02  -0.2038954064E-02  -0.6202112120E-07   0.9625479326E-03   0.1058927375E+01
   0.0000000000E+00   0.9986424397E+00   0.1357560347E-02   0.0000000000E+00  -0.1304889018E-04   0.1304889018E-04   0.0000000000E+00  -0.1344511457E-02   0.1344511457E-02   0.1110461762E+01   0.5099390722E-01   0.5099390722E-01   0.2145491170E-02  -0.2145491170E-02  -0.7154190234E-07   0.1139925721E-02   0.1059507026E+01
   0.0000000000E+00   0.1357560347E-02   0.9986424397E+00   0.0000000000E+00   0.1304889018E-04  -0.1304889018E-04   0.0000000000E+00   0.1344511457E-02  -0.1344511457E-02   0.1110461762E+01   0.5099390722E-01   0.5099390722E-01  -0.2145491170E-02   0.2145491170E-02  -0.7154190233E-07   0.1139925721E-02   0.1059507026E+01
   0.1005255981E+01   0.1054120153E-02   0.9989458798E+00   0.5078917896E-04   0.1291475958E-04  -0.1291475958E-04   0.5205191425E-02   0.1041205393E-02  -0.1041205393E-02   0.1071399328E+01   0.1250782326E-01   0.1250782326E-01  -0.2038954064E-02   0.2038954065E-02  -0.6202112120E-07   0.9625479326E-03   0.1058927375E+01
   0.1005255981E+01   0.9989458798E+00   0.9989458798E+00   0.5078917896E-04  -0.1291475958E-04  -0.1291475958E-04   0.5205191425E-02  -0.1041205393E-02  -0.1041205393E-02   0.1071399328E+01   0.1250782326E-01   0.1250782326E-01   0.2038954065E-02   0.2038954065E-02   0.6202109728E-07   0.9625479326E-03   0.1058927375E+01
   0.0000000000E+00   0.9986424397E+00   0.9986424397E+00   0.0000000000E+00  -0.1304889018E-04  -0.1304889018E-04   0.0000000000E+00  -0.1344511457E-02  -0.1344511457E-02   0.1110461762E+01   0.5099390722E-01   0.5099390722E-01   0.2145491170E-02   0.2145491170E-02   0.7154171771E-07   0.1139925721E-02   0.1059507026E+01
   0.2009500000E+01   0.8953531868E-03   0.8953531868E-03   0.1000000000E-03   0.1261683736E-04   0.1261683736E-04   0.9400000000E-02   0.8827363495E-03   0.8827363495E-03   0.1032190634E+01  -0.2603940372E-01  -0.2603940372E-01  -0.1941711696E-02  -0.1941711696E-02   0.5260623614E-07   0.8071123455E-03   0.1058262183E+01
   0.2009500000E+01   0.9991046468E+00   0.8953531868E-03   0.1000000000E-03  -0.1261683736E-04   0.1261683736E-04   0.9400000000E-02  -0.8827363494E-03   0.8827363495E-03   0.1032190634E+01  -0.2603940372E-01  -0.2603940372E-01   0.1941711697E-02  -0.1941711696E-02  -0.5260630285E-07   0.8071123454E-03   0.1058262183E+01
   0.2009500000E+01   0.8953531868E-03   0.9991046468E+00   0.1000000000E-03   0.1261683736E-04  -0.1261683736E-04   0.9400000000E-02   0.8827363495E-03  -0.8827363494E-03   0.1032190634E+01  -0.2603940372E-01  -0.2603940372E-01  -0.1941711696E-02   0.1941711697E-02  -0.5260630286E-07   0.8071123454E-03   0.1058262183E+01
   0.2009500000E+01   0.9991046468E+00   0.9991046468E+00   0.1000000000E-03  -0.1261683736E-04  -0.1261683736E-04   0.9400000000E-02  -0.8827363494E-03  -0.8827363494E-03   0.1032190634E+01  -0.2603940372E-01  -0.2603940372E-01   0.1941711697E-02   0.1941711697E-02   0.5260636959E-07   0.8071123454E-03   0.1058262183E+01
     1     2     3     4     5     6     7     8
     2     9    10     3     6    11    12     7
 VARIABLES = X,Y,Z,DU1,DU2,DU3,U1,U2,U3,S11,S22,S33,S12,S13,S23,Vf,SMISES
 ZONE, T="0.9600D+00" F=FEPOINT, I=   12 J=    2 ET=BRICK
   0.0000000000E+00   0.1371535817E-02   0.1371535817E-02   0.0000000000E+00   0.1397546906E-04   0.1397546906E-04   0.0000000000E+00   0.1357560347E-02   0.1357560347E-02   0.1109408023E+01   0.4917585016E-01   0.4917585016E-01  -0.2053152158E-02  -0.2053152158E-02   0.6799755197E-07   0.1154099652E-02   0.1060268019E+01
   0.1005305985E+01   0.1067226729E-02   0.1067226729E-02   0.5000467183E-04   0.1310657688E-04   0.1310657688E-04   0.5255980604E-02   0.1054120153E-02   0.1054120153E-02   0.1069938509E+01   0.1045304628E-01   0.1045304628E-01  -0.1962309771E-02  -0.1962309771E-02   0.5901889022E-07   0.9763783214E-03   0.1059518617E+01
   0.1005305985E+01   0.9989327733E+00   0.1067226729E-02   0.5000467183E-04  -0.1310657688E-04   0.1310657688E-04   0.5255980604E-02  -0.1054120152E-02   0.1054120153E-02   0.1069938509E+01   0.1045304628E-01   0.1045304628E-01   0.1962309772E-02  -0.1962309771E-02  -0.5901886496E-07   0.9763783213E-03   0.1059518617E+01
   0.0000000000E+00   0.9986284642E+00   0.1371535817E-02   0.0000000000E+00  -0.1397546905E-04   0.1397546905E-04   0.0000000000E+00  -0.1357560347E-02   0.1357560347E-02   0.1109408023E+01   0.4917585016E-01   0.4917585016E-01   0.2053152158E-02  -0.2053152158E-02  -0.6799738744E-07   0.1154099652E-02   0.1060268019E+01
   0.0000000000E+00   0.1371535817E-02   0.9986284642E+00   0.0000000000E+00   0.1397546905E-04  -0.1397546905E-04   0.0000000000E+00   0.1357560347E-02  -0.1357560347E-02   0.1109408023E+01   0.4917585016E-01   0.4917585016E-01  -0.2053152158E-02   0.2053152158E-02  -0.6799738742E-07   0.1154099652E-02   0.1060268019E+01
   0.1005305985E+01   0.1067226729E-02   0.9989327733E+00   0.5000467183E-04   0.1310657688E-04  -0.1310657688E-04   0.5255980604E-02   0.1054120153E-02  -0.1054120152E-02   0.1069938509E+01   0.1045304628E-01   0.1045304628E-01  -0.1962309771E-02   0.1962309772E-02  -0.5901886496E-07   0.9763783213E-03   0.1059518617E+01
   0.1005305985E+01   0.9989327733E+00   0.9989327733E+00   0.5000467183E-04  -0.1310657688E-04  -0.1310657688E-04   0.5255980604E-02  -0.1054120152E-02  -0.1054120152E-02   0.1069938509E+01   0.1045304628E-01   0.1045304628E-01   0.1962309772E-02   0.1962309772E-02   0.5901883970E-07   0.9763783213E-03   0.1059518617E+01
   0.0000000000E+00   0.9986284642E+00   0.9986284642E+00   0.0000000000E+00  -0.1397546905E-04  -0.1397546905E-04   0.0000000000E+00  -0.1357560347E-02  -0.1357560347E-02   0.1109408023E+01   0.4917585015E-01   0.4917585015E-01   0.2053152158E-02   0.2053152158E-02   0.6799722288E-07   0.1154099652E-02   0.1060268018E+01
   0.2009600000E+01   0.9074151467E-03   0.9074151467E-03   0.1000000000E-03   0.1206195985E-04   0.1206195985E-04   0.9500000000E-02   0.8953531868E-03   0.8953531868E-03   0.1030307233E+01  -0.2832514219E-01  -0.2832514219E-01  -0.1880650884E-02  -0.1880650884E-02   0.5016531812E-07   0.8206039213E-03   0.1058662516E+01
   0.2009600000E+01   0.9990925849E+00   0.9074151467E-03   0.1000000000E-03  -0.1206195985E-04   0.1206195985E-04   0.9500000000E-02  -0.8953531868E-03   0.8953531868E-03   0.1030307233E+01  -0.2832514219E-01  -0.2832514219E-01   0.1880650885E-02  -0.1880650884E-02  -0.5016536233E-07   0.8206039212E-03   0.1058662516E+01
   0.2009600000E+01   0.9074151467E-03   0.9990925849E+00   0.1000000000E-03   0.1206195985E-04  -0.1206195985E-04   0.9500000000E-02   0.8953531868E-03  -0.8953531868E-03   0.1030307233E+01  -0.2832514219E-01  -0.2832514219E-01  -0.1880650884E-02   0.1880650885E-02  -0.5016536234E-07   0.8206039212E-03   0.1058662516E+01
   0.2009600000E+01   0.9990925849E+00   0.9990925849E+00   0.1000000000E-03  -0.1206195985E-04  -0.1206195985E-04   0.9500000000E-02  -0.8953531868E-03  -0.8953531868E-03   0.1030307233E+01  -0.2832514219E-01  -0.2832514219E-01   0.1880650885E-02   0.1880650885E-02   0.5016540657E-07   0.8206039212E-03   0.1058662516E+01
     1     2     3     4     5     6     7     8
     2     9    10     3     6    11    12     7
 VARIABLES = X,Y,Z,DU1,DU2,DU3,U1,U2,U3,S11,S22,S33,S12,S13,S23,Vf,SMISES
 ZONE, T="0.9700D+00" F=FEPOINT, I=   12 J=    2 ET=BRICK
   0.0000000000E+00   0.1386311657E-02   0.1386311657E-02   0.0000000000E+00   0.1477584060E-04   0.1477584060E-04   0.0000000000E+00   0.1371535817E-02   0.1371535817E-02   0.1105370636E+01   0.4439840585E-01   0.4439840585E-01  -0.2051853403E-02  -0.2051853403E-02   0.6508025405E-07   0.1168413205E-02   0.1061008000E+01
   0.1005355267E+01   0.1080461625E-02   0.1080461625E-02   0.4928139922E-04   0.1323489546E-04   0.1323489546E-04   0.5305985276E-02   0.1067226729E-02   0.1067226729E-02   0.1067696639E+01   0.7669475541E-02   0.7669475541E-02  -0.1976913749E-02  -0.1976913749E-02   0.5660864403E-07   0.9903120730E-03   0.1060060709E+01
   0.1005355267E+01   0.9989195384E+00   0.1080461625E-02   0.4928139922E-04  -0.1323489546E-04   0.1323489546E-04   0.5305985276E-02  -0.1067226729E-02   0.1067226729E-02   0.1067696639E+01   0.7669475541E-02   0.7669475541E-02   0.1976913750E-02  -0.1976913749E-02  -0.5660861961E-07   0.9903120730E-03   0.1060060709E+01
   0.0000000000E+00   0.9986136883E+00   0.1386311657E-02   0.0000000000E+00  -0.1477584060E-04   0.1477584060E-04   0.0000000000E+00  -0.1371535817E-02   0.1371535817E-02   0.1105370636E+01   0.4439840585E-01   0.4439840585E-01   0.2051853403E-02  -0.2051853403E-02  -0.6508011617E-07   0.1168413205E-02   0.1061008000E+01
   0.0000000000E+00   0.1386311657E-02   0.9986136883E+00   0.0000000000E+00   0.1477584060E-04  -0.1477584060E-04   0.0000000000E+00   0.1371535817E-02  -0.1371535817E-02   0.1105370636E+01   0.4439840585E-01   0.4439840585E-01  -0.2051853403E-02   0.2051853403E-02  -0.6508011616E-07   0.1168413205E-02   0.1061008000E+01
   0.1005355267E+01   0.1080461625E-02   0.9989195384E+00   0.4928139922E-04   0.1323489546E-04  -0.1323489546E-04   0.5305985276E-02   0.1067226729E-02  -0.1067226729E-02   0.1067696639E+01   0.7669475541E-02   0.7669475541E-02  -0.1976913749E-02   0.1976913750E-02  -0.5660861961E-07   0.9903120730E-03   0.1060060709E+01
   0.1005355267E+01   0.9989195384E+00   0.9989195384E+00   0.4928139922E-04  -0.1323489546E-04  -0.1323489546E-04   0.5305985276E-02  -0.1067226729E-02  -0.1067226729E-02   0.1067696639E+01   0.7669475541E-02   0.7669475541E-02   0.1976913750E-02   0.1976913750E-02   0.5660859519E-07   0.9903120729E-03   0.1060060709E+01
   0.0000000000E+00   0.9986136883E+00   0.9986136883E+00   0.0000000000E+00  -0.1477584060E-04  -0.1477584060E-04   0.0000000000E+00  -0.1371535817E-02  -0.1371535817E-02   0.1105370636E+01   0.4439840585E-01   0.4439840585E-01   0.2051853403E-02   0.2051853403E-02   0.6507997826E-07   0.1168413205E-02   0.1061008000E+01
   0.2009700000E+01   0.9189231085E-03   0.9189231085E-03   0.1000000000E-03   0.1150796178E-04   0.1150796178E-04   0.9600000000E-02   0.9074151467E-03   0.9074151467E-03   0.1029845781E+01  -0.2910945896E-01  -0.2910945896E-01  -0.1910970546E-02  -0.1910970546E-02   0.4827579444E-07   0.8341632169E-03   0.1058986342E+01
   0.2009700000E+01   0.9990810769E+00   0.9189231085E-03   0.1000000000E-03  -0.1150796178E-04   0.1150796178E-04   0.9600000000E-02  -0.9074151466E-03   0.9074151467E-03   0.1029845781E+01  -0.2910945896E-01  -0.2910945896E-01   0.1910970547E-02  -0.1910970546E-02  -0.4827581422E-07   0.8341632168E-03   0.1058986342E+01
   0.2009700000E+01   0.9189231085E-03   0.9990810769E+00   0.1000000000E-03   0.1150796178E-04  -0.1150796178E-04   0.9600000000E-02   0.9074151467E-03  -0.9074151466E-03   0.1029845781E+01  -0.2910945896E-01  -0.2910945896E-01  -0.1910970546E-02   0.1910970547E-02  -0.4827581423E-07   0.8341632168E-03   0.1058986342E+01
   0.2009700000E+01   0.9990810769E+00   0.9990810769E+00   0.1000000000E-03  -0.1150796178E-04  -0.1150796178E-04   0.9600000000E-02  -0.9074151466E-03  -0.9074151466E-03   0.1029845781E+01  -0.2910945896E-01  -0.2910945896E-01   0.1910970547E-02   0.1910970547E-02   0.4827583403E-07   0.8341632168E-03   0.1058986342E+01
     1     2     3     4     5     6     7     8
     2     9    10     3     6    11    12     7
 VARIABLES = X,Y,Z,DU1,DU2,DU3,U1,U2,U3,S11,S22,S33,S12,S13,S23,Vf,SMISES
 ZONE, T="0.9800D+00" F=FEPOINT, I=   12 J=    2 ET=BRICK
   0.0000000000E+00   0.1401714509E-02   0.1401714509E-02   0.0000000000E+00   0.1540285229E-04   0.1540285229E-04   0.0000000000E+00   0.1386311657E-02   0.1386311657E-02   0.1098741535E+01   0.3711525755E-01   0.3711525755E-01  -0.2129549791E-02  -0.2129549791E-02   0.6272559225E-07   0.1182852536E-02   0.1061664775E+01
   0.1005403925E+01   0.1093754591E-02   0.1093754591E-02   0.4865796961E-04   0.1329296619E-04   0.1329296619E-04   0.5355266675E-02   0.1080461625E-02   0.1080461625E-02   0.1064894412E+01   0.4418832508E-02   0.4418832508E-02  -0.2070651542E-02  -0.2070651542E-02   0.5473744227E-07   0.1004334920E-02   0.1060512263E+01
   0.1005403925E+01   0.9989062454E+00   0.1093754591E-02   0.4865796961E-04  -0.1329296619E-04   0.1329296619E-04   0.5355266675E-02  -0.1080461625E-02   0.1080461625E-02   0.1064894412E+01   0.4418832507E-02   0.4418832507E-02   0.2070651543E-02  -0.2070651542E-02  -0.5473742012E-07   0.1004334920E-02   0.1060512263E+01
   0.0000000000E+00   0.9985982855E+00   0.1401714509E-02   0.0000000000E+00  -0.1540285229E-04   0.1540285229E-04   0.0000000000E+00  -0.1386311657E-02   0.1386311657E-02   0.1098741535E+01   0.3711525755E-01   0.3711525755E-01   0.2129549792E-02  -0.2129549791E-02  -0.6272548603E-07   0.1182852536E-02   0.1061664775E+01
   0.0000000000E+00   0.1401714509E-02   0.9985982855E+00   0.0000000000E+00   0.1540285229E-04  -0.1540285229E-04   0.0000000000E+00   0.1386311657E-02  -0.1386311657E-02   0.1098741535E+01   0.3711525755E-01   0.3711525755E-01  -0.2129549791E-02   0.2129549792E-02  -0.6272548601E-07   0.1182852536E-02   0.1061664775E+01
   0.1005403925E+01   0.1093754591E-02   0.9989062454E+00   0.4865796961E-04   0.1329296619E-04  -0.1329296619E-04   0.5355266675E-02   0.1080461625E-02  -0.1080461625E-02   0.1064894412E+01   0.4418832507E-02   0.4418832507E-02  -0.2070651542E-02   0.2070651543E-02  -0.5473742012E-07   0.1004334920E-02   0.1060512263E+01
   0.1005403925E+01   0.9989062454E+00   0.9989062454E+00   0.4865796961E-04  -0.1329296619E-04  -0.1329296619E-04   0.5355266675E-02  -0.1080461625E-02  -0.1080461625E-02   0.1064894412E+01   0.4418832507E-02   0.4418832507E-02   0.2070651543E-02   0.2070651543E-02   0.5473739799E-07   0.1004334920E-02   0.1060512263E+01
   0.0000000000E+00   0.9985982855E+00   0.9985982855E+00   0.0000000000E+00  -0.1540285229E-04  -0.1540285229E-04   0.0000000000E+00  -0.1386311657E-02  -0.1386311657E-02   0.1098741535E+01   0.3711525755E-01   0.3711525755E-01   0.2129549791E-02   0.2129549791E-02   0.6272537977E-07   0.1182852536E-02   0.1061664775E+01
   0.2009800000E+01   0.9299115823E-03   0.9299115823E-03   0.1000000000E-03   0.1098847379E-04   0.1098847379E-04   0.9700000000E-02   0.9189231085E-03   0.9189231085E-03   0.1030856192E+01  -0.2832277656E-01  -0.2832277656E-01  -0.2020516866E-02  -0.2020516866E-02   0.4689694040E-07   0.8477755389E-03   0.1059213719E+01
   0.2009800000E+01   0.9990700884E+00   0.9299115823E-03   0.1000000000E-03  -0.1098847379E-04   0.1098847379E-04   0.9700000000E-02  -0.9189231084E-03   0.9189231085E-03   0.1030856192E+01  -0.2832277656E-01  -0.2832277656E-01   0.2020516867E-02  -0.2020516866E-02  -0.4689693389E-07   0.8477755389E-03   0.1059213719E+01
   0.2009800000E+01   0.9299115823E-03   0.9990700884E+00   0.1000000000E-03   0.1098847379E-04  -0.1098847379E-04   0.9700000000E-02   0.9189231085E-03  -0.9189231084E-03   0.1030856192E+01  -0.2832277656E-01  -0.2832277656E-01  -0.2020516866E-02   0.2020516867E-02  -0.4689693390E-07   0.8477755389E-03   0.1059213719E+01
   0.2009800000E+01   0.9990700884E+00   0.9990700884E+00   0.1000000000E-03  -0.1098847379E-04  -0.1098847379E-04   0.9700000000E-02  -0.9189231084E-03  -0.9189231084E-03   0.1030856192E+01  -0.2832277656E-01  -0.2832277656E-01   0.2020516866E-02   0.2020516866E-02   0.4689692741E-07   0.8477755389E-03   0.1059213719E+01
     1     2     3     4     5     6     7     8
     2     9    10     3     6    11    12     7
 VARIABLES = X,Y,Z,DU1,DU2,DU3,U1,U2,U3,S11,S22,S33,S12,S13,S23,Vf,SMISES
 ZONE, T="0.9900D+00" F=FEPOINT, I=   12 J=    2 ET=BRICK
   0.0000000000E+00   0.1417537526E-02   0.1417537526E-02   0.0000000000E+00   0.1582301693E-04   0.1582301693E-04   0.0000000000E+00   0.1401714509E-02   0.1401714509E-02   0.1090063315E+01   0.2792008518E-01   0.2792008518E-01  -0.2270026841E-02  -0.2270026841E-02   0.6089560336E-07   0.1197394932E-02   0.1062186942E+01
   0.1005452090E+01   0.1107034581E-02   0.1107034581E-02   0.4816585217E-04   0.1327998955E-04   0.1327998955E-04   0.5403924645E-02   0.1093754591E-02   0.1093754591E-02   0.1061785533E+01   0.9861229869E-03   0.9861229869E-03  -0.2227233058E-02  -0.2227233058E-02   0.5337771934E-07   0.1018427246E-02   0.1060841734E+01
   0.1005452090E+01   0.9988929654E+00   0.1107034581E-02   0.4816585217E-04  -0.1327998955E-04   0.1327998955E-04   0.5403924645E-02  -0.1093754591E-02   0.1093754591E-02   0.1061785533E+01   0.9861229869E-03   0.9861229869E-03   0.2227233059E-02  -0.2227233058E-02  -0.5337770017E-07   0.1018427246E-02   0.1060841734E+01
   0.0000000000E+00   0.9985824625E+00   0.1417537526E-02   0.0000000000E+00  -0.1582301693E-04   0.1582301693E-04   0.0000000000E+00  -0.1401714509E-02   0.1401714509E-02   0.1090063315E+01   0.2792008518E-01   0.2792008518E-01   0.2270026842E-02  -0.2270026841E-02  -0.6089553197E-07   0.1197394932E-02   0.1062186942E+01
   0.0000000000E+00   0.1417537526E-02   0.9985824625E+00   0.0000000000E+00   0.1582301693E-04  -0.1582301693E-04   0.0000000000E+00   0.1401714509E-02  -0.1401714509E-02   0.1090063315E+01   0.2792008518E-01   0.2792008518E-01  -0.2270026841E-02   0.2270026842E-02  -0.6089553195E-07   0.1197394932E-02   0.1062186942E+01
   0.1005452090E+01   0.1107034581E-02   0.9988929654E+00   0.4816585217E-04   0.1327998955E-04  -0.1327998955E-04   0.5403924645E-02   0.1093754591E-02  -0.1093754591E-02   0.1061785533E+01   0.9861229869E-03   0.9861229869E-03  -0.2227233058E-02   0.2227233059E-02  -0.5337770017E-07   0.1018427246E-02   0.1060841734E+01
   0.1005452090E+01   0.9988929654E+00   0.9988929654E+00   0.4816585217E-04  -0.1327998955E-04  -0.1327998955E-04   0.5403924645E-02  -0.1093754591E-02  -0.1093754591E-02   0.1061785533E+01   0.9861229869E-03   0.9861229869E-03   0.2227233058E-02   0.2227233058E-02   0.5337768100E-07   0.1018427246E-02   0.1060841734E+01
   0.0000000000E+00   0.9985824625E+00   0.9985824625E+00   0.0000000000E+00  -0.1582301693E-04  -0.1582301693E-04   0.0000000000E+00  -0.1401714509E-02  -0.1401714509E-02   0.1090063315E+01   0.2792008518E-01   0.2792008518E-01   0.2270026842E-02   0.2270026842E-02   0.6089546055E-07   0.1197394932E-02   0.1062186942E+01
   0.2009900000E+01   0.9404469305E-03   0.9404469305E-03   0.1000000000E-03   0.1053534825E-04   0.1053534825E-04   0.9800000000E-02   0.9299115823E-03   0.9299115823E-03   0.1033303689E+01  -0.2598889796E-01  -0.2598889796E-01  -0.2192955035E-02  -0.2192955035E-02   0.4601232501E-07   0.8614242171E-03   0.1059333502E+01
   0.2009900000E+01   0.9990595531E+00   0.9404469305E-03   0.1000000000E-03  -0.1053534825E-04   0.1053534825E-04   0.9800000000E-02  -0.9299115822E-03   0.9299115823E-03   0.1033303689E+01  -0.2598889796E-01  -0.2598889796E-01   0.2192955035E-02  -0.2192955034E-02  -0.4601229063E-07   0.8614242171E-03   0.1059333502E+01
   0.2009900000E+01   0.9404469305E-03   0.9990595531E+00   0.1000000000E-03   0.1053534825E-04  -0.1053534825E-04   0.9800000000E-02   0.9299115823E-03  -0.9299115822E-03   0.1033303689E+01  -0.2598889796E-01  -0.2598889796E-01  -0.2192955034E-02   0.2192955035E-02  -0.4601229065E-07   0.8614242171E-03   0.1059333502E+01
   0.2009900000E+01   0.9990595531E+00   0.9990595531E+00   0.1000000000E-03  -0.1053534825E-04  -0.1053534825E-04   0.9800000000E-02  -0.9299115822E-03  -0.9299115822E-03   0.1033303689E+01  -0.2598889796E-01  -0.2598889796E-01   0.2192955035E-02   0.2192955035E-02   0.4601225630E-07   0.8614242171E-03   0.1059333502E+01
     1     2     3     4     5     6     7     8
     2     9    10     3     6    11    12     7
 VARIABLES = X,Y,Z,DU1,DU2,DU3,U1,U2,U3,S11,S22,S33,S12,S13,S23,Vf,SMISES
 ZONE, T="0.1000D+01" F=FEPOINT, I=   12 J=    2 ET=BRICK
   0.0000000000E+00   0.1433555495E-02   0.1433555495E-02   0.0000000000E+00   0.1601796843E-04   0.1601796843E-04   0.0000000000E+00   0.1417537526E-02   0.1417537526E-02   0.1079985743E+01   0.1749998898E-01   0.1749998898E-01  -0.2454071295E-02  -0.2454071295E-02   0.5955297112E-07   0.1212011028E-02   0.1062536814E+01
   0.1005499918E+01   0.1120235442E-02   0.1120235442E-02   0.4782770751E-04   0.1320086133E-04   0.1320086133E-04   0.5452090497E-02   0.1107034581E-02   0.1107034581E-02   0.1058634646E+01  -0.2344393761E-02  -0.2344393761E-02  -0.2427352864E-02  -0.2427352864E-02   0.5250023770E-07   0.1032565927E-02   0.1061029209E+01
   0.1005499918E+01   0.9988797646E+00   0.1120235442E-02   0.4782770751E-04  -0.1320086133E-04   0.1320086133E-04   0.5452090497E-02  -0.1107034581E-02   0.1107034581E-02   0.1058634646E+01  -0.2344393761E-02  -0.2344393761E-02   0.2427352865E-02  -0.2427352864E-02  -0.5250022145E-07   0.1032565927E-02   0.1061029209E+01
   0.0000000000E+00   0.9985664445E+00   0.1433555495E-02   0.0000000000E+00  -0.1601796842E-04   0.1601796843E-04   0.0000000000E+00  -0.1417537526E-02   0.1417537526E-02   0.1079985743E+01   0.1749998898E-01   0.1749998898E-01   0.2454071296E-02  -0.2454071295E-02  -0.5955293578E-07   0.1212011028E-02   0.1062536814E+01
   0.0000000000E+00   0.1433555495E-02   0.9985664445E+00   0.0000000000E+00   0.1601796843E-04  -0.1601796842E-04   0.0000000000E+00   0.1417537526E-02  -0.1417537526E-02   0.1079985743E+01   0.1749998898E-01   0.1749998898E-01  -0.2454071295E-02   0.2454071296E-02  -0.5955293576E-07   0.1212011028E-02   0.1062536814E+01
   0.1005499918E+01   0.1120235442E-02   0.9988797646E+00   0.4782770751E-04   0.1320086133E-04  -0.1320086133E-04   0.5452090497E-02   0.1107034581E-02  -0.1107034581E-02   0.1058634646E+01  -0.2344393761E-02  -0.2344393761E-02  -0.2427352864E-02   0.2427352865E-02  -0.5250022145E-07   0.1032565927E-02   0.1061029209E+01
   0.1005499918E+01   0.9988797646E+00   0.9988797646E+00   0.4782770751E-04  -0.1320086133E-04  -0.1320086133E-04   0.5452090497E-02  -0.1107034581E-02  -0.1107034581E-02   0.1058634646E+01  -0.2344393761E-02  -0.2344393761E-02   0.2427352865E-02   0.2427352865E-02   0.5250020522E-07   0.1032565927E-02   0.1061029209E+01
   0.0000000000E+00   0.9985664445E+00   0.9985664445E+00   0.0000000000E+00  -0.1601796842E-04  -0.1601796842E-04   0.0000000000E+00  -0.1417537526E-02  -0.1417537526E-02   0.1079985743E+01   0.1749998898E-01   0.1749998898E-01   0.2454071296E-02   0.2454071296E-02   0.5955290041E-07   0.1212011028E-02   0.1062536814E+01
   0.2010000000E+01   0.9506236245E-03   0.9506236245E-03   0.1000000000E-03   0.1017669396E-04   0.1017669396E-04   0.9900000000E-02   0.9404469305E-03   0.9404469305E-03   0.1037068138E+01  -0.2222649701E-01  -0.2222649701E-01  -0.2408915564E-02  -0.2408915564E-02   0.4560164191E-07   0.8750920954E-03   0.1059343991E+01
   0.2010000000E+01   0.9990493764E+00   0.9506236245E-03   0.1000000000E-03  -0.1017669396E-04   0.1017669396E-04   0.9900000000E-02  -0.9404469304E-03   0.9404469305E-03   0.1037068138E+01  -0.2222649700E-01  -0.2222649701E-01   0.2408915564E-02  -0.2408915564E-02  -0.4560157856E-07   0.8750920953E-03   0.1059343991E+01
   0.2010000000E+01   0.9506236245E-03   0.9990493764E+00   0.1000000000E-03   0.1017669396E-04  -0.1017669396E-04   0.9900000000E-02   0.9404469305E-03  -0.9404469304E-03   0.1037068138E+01  -0.2222649701E-01  -0.2222649700E-01  -0.2408915564E-02   0.2408915564E-02  -0.4560157857E-07   0.8750920953E-03   0.1059343991E+01
   0.2010000000E+01   0.9990493764E+00   0.9990493764E+00   0.1000000000E-03  -0.1017669396E-04  -0.1017669396E-04   0.9900000000E-02  -0.9404469304E-03  -0.9404469304E-03   0.1037068138E+01  -0.2222649700E-01  -0.2222649700E-01   0.2408915564E-02   0.2408915564E-02   0.4560151525E-07   0.8750920953E-03   0.1059343991E+01
     1     2     3     4     5     6     7     8
     2     9    10     3     6    11    12     7
 VARIABLES = X,Y,Z,DU1,DU2,DU3,U1,U2,U3,S11,S22,S33,S12,S13,S23,Vf,SMISES
 ZONE, T="0.1010D+01" F=FEPOINT, I=   12 J=    2 ET=BRICK
   0.0000000000E+00   0.1449540346E-02   0.1449540346E-02   0.0000000000E+00   0.1598485085E-04   0.1598485085E-04   0.0000000000E+00   0.1433555495E-02   0.1433555495E-02   0.1069217391E+01   0.6585376966E-02   0.6585376966E-02  -0.2660775033E-02  -0.2660775033E-02   0.5863486084E-07   0.1226667445E-02   0.1062692020E+01
   0.1005547575E+01   0.1133300919E-02   0.1133300919E-02   0.4765630645E-04   0.1306547733E-04   0.1306547733E-04   0.5499918205E-02   0.1120235442E-02   0.1120235442E-02   0.1055695538E+01  -0.5311868922E-02  -0.5311868922E-02  -0.2649983358E-02  -0.2649983358E-02   0.5204709405E-07   0.1046726385E-02   0.1061067124E+01
   0.1005547575E+01   0.9988666991E+00   0.1133300919E-02   0.4765630645E-04  -0.1306547733E-04   0.1306547733E-04   0.5499918204E-02  -0.1120235442E-02   0.1120235442E-02   0.1055695538E+01  -0.5311868922E-02  -0.5311868922E-02   0.2649983359E-02  -0.2649983358E-02  -0.5204708005E-07   0.1046726385E-02   0.1061067124E+01
   0.0000000000E+00   0.9985504597E+00   0.1449540346E-02   0.0000000000E+00  -0.1598485084E-04   0.1598485085E-04   0.0000000000E+00  -0.1433555495E-02   0.1433555495E-02   0.1069217391E+01   0.6585376965E-02   0.6585376965E-02   0.2660775034E-02  -0.2660775033E-02  -0.5863486081E-07   0.1226667445E-02   0.1062692019E+01
   0.0000000000E+00   0.1449540346E-02   0.9985504597E+00   0.0000000000E+00   0.1598485085E-04  -0.1598485084E-04   0.0000000000E+00   0.1433555495E-02  -0.1433555495E-02   0.1069217391E+01   0.6585376965E-02   0.6585376965E-02  -0.2660775033E-02   0.2660775034E-02  -0.5863486080E-07   0.1226667445E-02   0.1062692019E+01
   0.1005547575E+01   0.1133300919E-02   0.9988666991E+00   0.4765630645E-04   0.1306547733E-04  -0.1306547733E-04   0.5499918204E-02   0.1120235442E-02  -0.1120235442E-02   0.1055695538E+01  -0.5311868922E-02  -0.5311868922E-02  -0.2649983358E-02   0.2649983359E-02  -0.5204708005E-07   0.1046726385E-02   0.1061067124E+01
   0.1005547575E+01   0.9988666991E+00   0.9988666991E+00   0.4765630645E-04  -0.1306547733E-04  -0.1306547733E-04   0.5499918204E-02  -0.1120235442E-02  -0.1120235442E-02   0.1055695538E+01  -0.5311868922E-02  -0.5311868922E-02   0.2649983359E-02   0.2649983359E-02   0.5204706608E-07   0.1046726385E-02   0.1061067124E+01
   0.0000000000E+00   0.9985504597E+00   0.9985504597E+00   0.0000000000E+00  -0.1598485084E-04  -0.1598485084E-04   0.0000000000E+00  -0.1433555495E-02  -0.1433555495E-02   0.1069217391E+01   0.6585376965E-02   0.6585376965E-02   0.2660775034E-02   0.2660775034E-02   0.5863486076E-07   0.1226667445E-02   0.1062692019E+01
   0.2010100000E+01   0.9605587211E-03   0.9605587211E-03   0.1000000000E-03   0.9935096617E-05   0.9935096617E-05   0.1000000000E-01   0.9506236245E-03   0.9506236245E-03   0.1041948811E+01  -0.1724433811E-01  -0.1724433811E-01  -0.2647273551E-02  -0.2647273551E-02   0.4561284273E-07   0.8887630323E-03   0.1059252748E+01
   0.2010100000E+01   0.9990394413E+00   0.9605587211E-03   0.1000000000E-03  -0.9935096617E-05   0.9935096617E-05   0.1000000000E-01  -0.9506236244E-03   0.9506236245E-03   0.1041948811E+01  -0.1724433811E-01  -0.1724433811E-01   0.2647273552E-02  -0.2647273551E-02  -0.4561274993E-07   0.8887630323E-03   0.1059252748E+01
   0.2010100000E+01   0.9605587211E-03   0.9990394413E+00   0.1000000000E-03   0.9935096617E-05  -0.9935096617E-05   0.1000000000E-01   0.9506236245E-03  -0.9506236244E-03   0.1041948811E+01  -0.1724433811E-01  -0.1724433811E-01  -0.2647273551E-02   0.2647273552E-02  -0.4561274995E-07   0.8887630323E-03   0.1059252748E+01
   0.2010100000E+01   0.9990394413E+00   0.9990394413E+00   0.1000000000E-03  -0.9935096617E-05  -0.9935096617E-05   0.1000000000E-01  -0.9506236244E-03  -0.9506236244E-03   0.1041948811E+01  -0.1724433811E-01  -0.1724433811E-01   0.2647273552E-02   0.2647273552E-02   0.4561265718E-07   0.8887630323E-03   0.1059252748E+01
     1     2     3     4     5     6     7     8
     2     9    10     3     6    11    12     7
 VARIABLES = X,Y,Z,DU1,DU2,DU3,U1,U2,U3,S11,S22,S33,S12,S13,S23,Vf,SMISES
 ZONE, T="0.1020D+01" F=FEPOINT, I=   12 J=    2 ET=BRICK
   0.0000000000E+00   0.1465276021E-02   0.1465276021E-02   0.0000000000E+00   0.1573567577E-04   0.1573567577E-04   0.0000000000E+00   0.1449540346E-02   0.1449540346E-02   0.1058475955E+01  -0.4100154514E-02  -0.4100154514E-02  -0.2868877307E-02  -0.2868877307E-02   0.5803516400E-07   0.1241329588E-02   0.1062645863E+01
   0.1005595229E+01   0.1146188596E-02   0.1146188596E-02   0.4765408251E-04   0.1288767637E-04   0.1288767637E-04   0.5547574511E-02   0.1133300919E-02   0.1133300919E-02   0.1053191376E+01  -0.7698438861E-02  -0.7698438861E-02  -0.2873711043E-02  -0.2873711043E-02   0.5191347288E-07   0.1060884647E-02   0.1060959991E+01
   0.1005595229E+01   0.9988538114E+00   0.1146188596E-02   0.4765408251E-04  -0.1288767637E-04   0.1288767637E-04   0.5547574511E-02  -0.1133300919E-02   0.1133300919E-02   0.1053191376E+01  -0.7698438861E-02  -0.7698438861E-02   0.2873711044E-02  -0.2873711043E-02  -0.5191345996E-07   0.1060884647E-02   0.1060959991E+01
   0.0000000000E+00   0.9985347240E+00   0.1465276021E-02   0.0000000000E+00  -0.1573567577E-04   0.1573567577E-04   0.0000000000E+00  -0.1449540346E-02   0.1449540346E-02   0.1058475955E+01  -0.4100154514E-02  -0.4100154514E-02   0.2868877307E-02  -0.2868877307E-02  -0.5803519675E-07   0.1241329588E-02   0.1062645863E+01
   0.0000000000E+00   0.1465276021E-02   0.9985347240E+00   0.0000000000E+00   0.1573567577E-04  -0.1573567577E-04   0.0000000000E+00   0.1449540346E-02  -0.1449540346E-02   0.1058475955E+01  -0.4100154514E-02  -0.4100154514E-02  -0.2868877307E-02   0.2868877307E-02  -0.5803519673E-07   0.1241329588E-02   0.1062645863E+01
   0.1005595229E+01   0.1146188596E-02   0.9988538114E+00   0.4765408251E-04   0.1288767637E-04  -0.1288767637E-04   0.5547574511E-02   0.1133300919E-02  -0.1133300919E-02   0.1053191376E+01  -0.7698438861E-02  -0.7698438861E-02  -0.2873711043E-02   0.2873711044E-02  -0.5191345996E-07   0.1060884647E-02   0.1060959991E+01
   0.1005595229E+01   0.9988538114E+00   0.9988538114E+00   0.4765408251E-04  -0.1288767637E-04  -0.1288767637E-04   0.5547574511E-02  -0.1133300919E-02  -0.1133300919E-02   0.1053191376E+01  -0.7698438860E-02  -0.7698438860E-02   0.2873711044E-02   0.2873711044E-02   0.5191344706E-07   0.1060884647E-02   0.1060959991E+01
   0.0000000000E+00   0.9985347240E+00   0.9985347240E+00   0.0000000000E+00  -0.1573567577E-04  -0.1573567577E-04   0.0000000000E+00  -0.1449540346E-02  -0.1449540346E-02   0.1058475955E+01  -0.4100154514E-02  -0.4100154514E-02   0.2868877307E-02   0.2868877307E-02   0.5803522947E-07   0.1241329588E-02   0.1062645863E+01
   0.2010200000E+01   0.9703848690E-03   0.9703848690E-03   0.1000000000E-03   0.9826147910E-05   0.9826147910E-05   0.1010000000E-01   0.9605587211E-03   0.9605587211E-03   0.1047674516E+01  -0.1133030907E-01  -0.1133030907E-01  -0.2886476760E-02  -0.2886476760E-02   0.4594332550E-07   0.9024232769E-03   0.1059075683E+01
   0.2010200000E+01   0.9990296151E+00   0.9703848690E-03   0.1000000000E-03  -0.9826147909E-05   0.9826147910E-05   0.1010000000E-01  -0.9605587210E-03   0.9605587211E-03   0.1047674516E+01  -0.1133030907E-01  -0.1133030907E-01   0.2886476760E-02  -0.2886476760E-02  -0.4594320357E-07   0.9024232769E-03   0.1059075683E+01
   0.2010200000E+01   0.9703848690E-03   0.9990296151E+00   0.1000000000E-03   0.9826147910E-05  -0.9826147909E-05   0.1010000000E-01   0.9605587211E-03  -0.9605587210E-03   0.1047674516E+01  -0.1133030907E-01  -0.1133030907E-01  -0.2886476760E-02   0.2886476760E-02  -0.4594320358E-07   0.9024232769E-03   0.1059075683E+01
   0.2010200000E+01   0.9990296151E+00   0.9990296151E+00   0.1000000000E-03  -0.9826147910E-05  -0.9826147910E-05   0.1010000000E-01  -0.9605587210E-03  -0.9605587210E-03   0.1047674516E+01  -0.1133030907E-01  -0.1133030907E-01   0.2886476760E-02   0.2886476760E-02   0.4594308168E-07   0.9024232769E-03   0.1059075682E+01
     1     2     3     4     5     6     7     8
     2     9    10     3     6    11    12     7
 VARIABLES = X,Y,Z,DU1,DU2,DU3,U1,U2,U3,S11,S22,S33,S12,S13,S23,Vf,SMISES
 ZONE, T="0.1030D+01" F=FEPOINT, I=   12 J=    2 ET=BRICK
   0.0000000000E+00   0.1480571770E-02   0.1480571770E-02   0.0000000000E+00   0.1529574879E-04   0.1529574879E-04   0.0000000000E+00   0.1465276021E-02   0.1465276021E-02   0.1048440687E+01  -0.1388663196E-01  -0.1388663196E-01  -0.3058058234E-02  -0.3058058234E-02   0.5760078196E-07   0.1255964373E-02   0.1062406587E+01
   0.1005643042E+01   0.1158872521E-02   0.1158872521E-02   0.4781332381E-04   0.1268392491E-04   0.1268392491E-04   0.5595228593E-02   0.1146188596E-02   0.1146188596E-02   0.1051298457E+01  -0.9344325832E-02  -0.9344325832E-02  -0.3078032390E-02  -0.3078032390E-02   0.5194385641E-07   0.1075019258E-02   0.1060723269E+01
   0.1005643042E+01   0.9988411275E+00   0.1158872521E-02   0.4781332381E-04  -0.1268392491E-04   0.1268392491E-04   0.5595228593E-02  -0.1146188596E-02   0.1146188596E-02   0.1051298457E+01  -0.9344325832E-02  -0.9344325832E-02   0.3078032391E-02  -0.3078032390E-02  -0.5194384305E-07   0.1075019258E-02   0.1060723269E+01
   0.0000000000E+00   0.9985194282E+00   0.1480571770E-02   0.0000000000E+00  -0.1529574879E-04   0.1529574879E-04   0.0000000000E+00  -0.1465276021E-02   0.1465276021E-02   0.1048440687E+01  -0.1388663196E-01  -0.1388663196E-01   0.3058058234E-02  -0.3058058234E-02  -0.5760084340E-07   0.1255964373E-02   0.1062406587E+01
   0.0000000000E+00   0.1480571770E-02   0.9985194282E+00   0.0000000000E+00   0.1529574879E-04  -0.1529574879E-04   0.0000000000E+00   0.1465276021E-02  -0.1465276021E-02   0.1048440687E+01  -0.1388663196E-01  -0.1388663196E-01  -0.3058058234E-02   0.3058058234E-02  -0.5760084338E-07   0.1255964373E-02   0.1062406587E+01
   0.1005643042E+01   0.1158872521E-02   0.9988411275E+00   0.4781332381E-04   0.1268392491E-04  -0.1268392491E-04   0.5595228593E-02   0.1146188596E-02  -0.1146188596E-02   0.1051298457E+01  -0.9344325832E-02  -0.9344325832E-02  -0.3078032390E-02   0.3078032391E-02  -0.5194384305E-07   0.1075019258E-02   0.1060723269E+01
   0.1005643042E+01   0.9988411275E+00   0.9988411275E+00   0.4781332381E-04  -0.1268392491E-04  -0.1268392491E-04   0.5595228593E-02  -0.1146188596E-02  -0.1146188596E-02   0.1051298457E+01  -0.9344325832E-02  -0.9344325832E-02   0.3078032390E-02   0.3078032390E-02   0.5194382971E-07   0.1075019258E-02   0.1060723269E+01
   0.0000000000E+00   0.9985194282E+00   0.9985194282E+00   0.0000000000E+00  -0.1529574879E-04  -0.1529574879E-04   0.0000000000E+00  -0.1465276021E-02  -0.1465276021E-02   0.1048440687E+01  -0.1388663196E-01  -0.1388663196E-01   0.3058058234E-02   0.3058058234E-02   0.5760090482E-07   0.1255964373E-02   0.1062406587E+01
   0.2010300000E+01   0.9802422586E-03   0.9802422586E-03   0.1000000000E-03   0.9857389584E-05   0.9857389584E-05   0.1020000000E-01   0.9703848690E-03   0.9703848690E-03   0.1053918647E+01  -0.4834812107E-02  -0.4834812107E-02  -0.3105842729E-02  -0.3105842729E-02   0.4643597900E-07   0.9160626018E-03   0.1058835505E+01
   0.2010300000E+01   0.9990197577E+00   0.9802422586E-03   0.1000000000E-03  -0.9857389584E-05   0.9857389584E-05   0.1020000000E-01  -0.9703848689E-03   0.9703848690E-03   0.1053918647E+01  -0.4834812107E-02  -0.4834812107E-02   0.3105842729E-02  -0.3105842729E-02  -0.4643582910E-07   0.9160626018E-03   0.1058835505E+01
   0.2010300000E+01   0.9802422586E-03   0.9990197577E+00   0.1000000000E-03   0.9857389584E-05  -0.9857389584E-05   0.1020000000E-01   0.9703848690E-03  -0.9703848689E-03   0.1053918647E+01  -0.4834812107E-02  -0.4834812107E-02  -0.3105842729E-02   0.3105842729E-02  -0.4643582911E-07   0.9160626018E-03   0.1058835505E+01
   0.2010300000E+01   0.9990197577E+00   0.9990197577E+00   0.1000000000E-03  -0.9857389584E-05  -0.9857389584E-05   0.1020000000E-01  -0.9703848689E-03  -0.9703848689E-03   0.1053918647E+01  -0.4834812107E-02  -0.4834812107E-02   0.3105842729E-02   0.3105842729E-02   0.4643567925E-07   0.9160626018E-03   0.1058835505E+01
     1     2     3     4     5     6     7     8
     2     9    10     3     6    11    12     7
 VARIABLES = X,Y,Z,DU1,DU2,DU3,U1,U2,U3,S11,S22,S33,S12,S13,S23,Vf,SMISES
 ZONE, T="0.1040D+01" F=FEPOINT, I=   12 J=    2 ET=BRICK
   0.0000000000E+00   0.1495273092E-02   0.1495273092E-02   0.0000000000E+00   0.1470132148E-04   0.1470132148E-04   0.0000000000E+00   0.1480571770E-02   0.1480571770E-02   0.1039710049E+01  -0.2219831021E-01  -0.2219831021E-01  -0.3210109892E-02  -0.3210109892E-02   0.5714344539E-07   0.1270542664E-02   0.1061995734E+01
   0.1005691159E+01   0.1171344382E-02   0.1171344382E-02   0.4811697165E-04   0.1247186173E-04   0.1247186173E-04   0.5643041917E-02   0.1158872521E-02   0.1158872521E-02   0.1050134599E+01  -0.1015750489E-01  -0.1015750489E-01  -0.3244536569E-02  -0.3244536569E-02   0.5194424121E-07   0.1089112872E-02   0.1060381533E+01
   0.1005691159E+01   0.9988286556E+00   0.1171344382E-02   0.4811697165E-04  -0.1247186173E-04   0.1247186173E-04   0.5643041917E-02  -0.1158872520E-02   0.1158872521E-02   0.1050134599E+01  -0.1015750489E-01  -0.1015750489E-01   0.3244536570E-02  -0.3244536569E-02  -0.5194422574E-07   0.1089112872E-02   0.1060381533E+01
   0.0000000000E+00   0.9985047269E+00   0.1495273092E-02   0.0000000000E+00  -0.1470132148E-04   0.1470132148E-04   0.0000000000E+00  -0.1480571770E-02   0.1480571770E-02   0.1039710049E+01  -0.2219831021E-01  -0.2219831021E-01   0.3210109892E-02  -0.3210109892E-02  -0.5714353023E-07   0.1270542664E-02   0.1061995734E+01
   0.0000000000E+00   0.1495273092E-02   0.9985047269E+00   0.0000000000E+00   0.1470132148E-04  -0.1470132148E-04   0.0000000000E+00   0.1480571770E-02  -0.1480571770E-02   0.1039710049E+01  -0.2219831021E-01  -0.2219831021E-01  -0.3210109892E-02   0.3210109892E-02  -0.5714353021E-07   0.1270542664E-02   0.1061995734E+01
   0.1005691159E+01   0.1171344382E-02   0.9988286556E+00   0.4811697165E-04   0.1247186173E-04  -0.1247186173E-04   0.5643041917E-02   0.1158872521E-02  -0.1158872520E-02   0.1050134599E+01  -0.1015750489E-01  -0.1015750489E-01  -0.3244536569E-02   0.3244536570E-02  -0.5194422574E-07   0.1089112872E-02   0.1060381533E+01
   0.1005691159E+01   0.9988286556E+00   0.9988286556E+00   0.4811697165E-04  -0.1247186173E-04  -0.1247186173E-04   0.5643041917E-02  -0.1158872520E-02  -0.1158872520E-02   0.1050134599E+01  -0.1015750489E-01  -0.1015750489E-01   0.3244536569E-02   0.3244536569E-02   0.5194421030E-07   0.1089112872E-02   0.1060381533E+01
   0.0000000000E+00   0.9985047269E+00   0.9985047269E+00   0.0000000000E+00  -0.1470132148E-04  -0.1470132148E-04   0.0000000000E+00  -0.1480571770E-02  -0.1480571770E-02   0.1039710049E+01  -0.2219831021E-01  -0.2219831021E-01   0.3210109892E-02   0.3210109892E-02   0.5714361503E-07   0.1270542664E-02   0.1061995734E+01
   0.2010400000E+01   0.9902700116E-03   0.9902700116E-03   0.1000000000E-03   0.1002775301E-04   0.1002775301E-04   0.1030000000E-01   0.9802422586E-03   0.9802422586E-03   0.1060318306E+01   0.1850507640E-02   0.1850507640E-02  -0.3286753242E-02  -0.3286753242E-02   0.4689170921E-07   0.9296751053E-03   0.1058559698E+01
   0.2010400000E+01   0.9990097300E+00   0.9902700116E-03   0.1000000000E-03  -0.1002775301E-04   0.1002775301E-04   0.1030000000E-01  -0.9802422585E-03   0.9802422586E-03   0.1060318306E+01   0.1850507640E-02   0.1850507639E-02   0.3286753242E-02  -0.3286753241E-02  -0.4689153345E-07   0.9296751053E-03   0.1058559698E+01
   0.2010400000E+01   0.9902700116E-03   0.9990097300E+00   0.1000000000E-03   0.1002775301E-04  -0.1002775301E-04   0.1030000000E-01   0.9802422586E-03  -0.9802422585E-03   0.1060318306E+01   0.1850507639E-02   0.1850507640E-02  -0.3286753241E-02   0.3286753242E-02  -0.4689153347E-07   0.9296751053E-03   0.1058559698E+01
   0.2010400000E+01   0.9990097300E+00   0.9990097300E+00   0.1000000000E-03  -0.1002775301E-04  -0.1002775301E-04   0.1030000000E-01  -0.9802422585E-03  -0.9802422585E-03   0.1060318306E+01   0.1850507639E-02   0.1850507639E-02   0.3286753242E-02   0.3286753242E-02   0.4689135775E-07   0.9296751052E-03   0.1058559698E+01
     1     2     3     4     5     6     7     8
     2     9    10     3     6    11    12     7
 VARIABLES = X,Y,Z,DU1,DU2,DU3,U1,U2,U3,S11,S22,S33,S12,S13,S23,Vf,SMISES
 ZONE, T="0.1050D+01" F=FEPOINT, I=   12 J=    2 ET=BRICK
   0.0000000000E+00   0.1509269758E-02   0.1509269758E-02   0.0000000000E+00   0.1399666656E-04   0.1399666656E-04   0.0000000000E+00   0.1495273092E-02   0.1495273092E-02   0.1032767097E+01  -0.2858575735E-01  -0.2858575735E-01  -0.3309927157E-02  -0.3309927157E-02   0.5646437506E-07   0.1285041233E-02   0.1061445792E+01
   0.1005739699E+01   0.1183613209E-02   0.1183613209E-02   0.4853995710E-04   0.1226882626E-04   0.1226882626E-04   0.5691158889E-02   0.1171344382E-02   0.1171344382E-02   0.1049752857E+01  -0.1011745458E-01  -0.1011745458E-01  -0.3357915489E-02  -0.3357915489E-02   0.5170765835E-07   0.1103153426E-02   0.1059966117E+01
   0.1005739699E+01   0.9988163868E+00   0.1183613209E-02   0.4853995710E-04  -0.1226882626E-04   0.1226882626E-04   0.5691158889E-02  -0.1171344382E-02   0.1171344382E-02   0.1049752857E+01  -0.1011745458E-01  -0.1011745458E-01   0.3357915490E-02  -0.3357915489E-02  -0.5170763915E-07   0.1103153426E-02   0.1059966117E+01
   0.0000000000E+00   0.9984907302E+00   0.1509269758E-02   0.0000000000E+00  -0.1399666656E-04   0.1399666656E-04   0.0000000000E+00  -0.1495273092E-02   0.1495273092E-02   0.1032767097E+01  -0.2858575735E-01  -0.2858575735E-01   0.3309927157E-02  -0.3309927157E-02  -0.5646447715E-07   0.1285041233E-02   0.1061445792E+01
   0.0000000000E+00   0.1509269758E-02   0.9984907302E+00   0.0000000000E+00   0.1399666656E-04  -0.1399666656E-04   0.0000000000E+00   0.1495273092E-02  -0.1495273092E-02   0.1032767097E+01  -0.2858575735E-01  -0.2858575735E-01  -0.3309927157E-02   0.3309927157E-02  -0.5646447713E-07   0.1285041233E-02   0.1061445792E+01
   0.1005739699E+01   0.1183613209E-02   0.9988163868E+00   0.4853995710E-04   0.1226882626E-04  -0.1226882626E-04   0.5691158889E-02   0.1171344382E-02  -0.1171344382E-02   0.1049752857E+01  -0.1011745458E-01  -0.1011745458E-01  -0.3357915489E-02   0.3357915490E-02  -0.5170763915E-07   0.1103153426E-02   0.1059966117E+01
   0.1005739699E+01   0.9988163868E+00   0.9988163868E+00   0.4853995710E-04  -0.1226882626E-04  -0.1226882626E-04   0.5691158889E-02  -0.1171344382E-02  -0.1171344382E-02   0.1049752856E+01  -0.1011745458E-01  -0.1011745458E-01   0.3357915490E-02   0.3357915490E-02   0.5170761997E-07   0.1103153426E-02   0.1059966117E+01
   0.0000000000E+00   0.9984907302E+00   0.9984907302E+00   0.0000000000E+00  -0.1399666656E-04  -0.1399666656E-04   0.0000000000E+00  -0.1495273092E-02  -0.1495273092E-02   0.1032767097E+01  -0.2858575735E-01  -0.2858575735E-01   0.3309927157E-02   0.3309927157E-02   0.5646457921E-07   0.1285041233E-02   0.1061445792E+01
   0.2010500000E+01   0.1000597555E-02   0.1000597555E-02   0.1000000000E-03   0.1032754315E-04   0.1032754315E-04   0.1040000000E-01   0.9902700116E-03   0.9902700116E-03   0.1066496351E+01   0.8317344410E-02   0.8317344410E-02  -0.3413684802E-02  -0.3413684802E-02   0.4709576011E-07   0.9432596241E-03   0.1058278163E+01
   0.2010500000E+01   0.9989994024E+00   0.1000597555E-02   0.1000000000E-03  -0.1032754315E-04   0.1032754315E-04   0.1040000000E-01  -0.9902700115E-03   0.9902700116E-03   0.1066496350E+01   0.8317344410E-02   0.8317344410E-02   0.3413684802E-02  -0.3413684802E-02  -0.4709556152E-07   0.9432596240E-03   0.1058278163E+01
   0.2010500000E+01   0.1000597555E-02   0.9989994024E+00   0.1000000000E-03   0.1032754315E-04  -0.1032754315E-04   0.1040000000E-01   0.9902700116E-03  -0.9902700115E-03   0.1066496350E+01   0.8317344410E-02   0.8317344410E-02  -0.3413684802E-02   0.3413684802E-02  -0.4709556154E-07   0.9432596240E-03   0.1058278163E+01
   0.2010500000E+01   0.9989994024E+00   0.9989994024E+00   0.1000000000E-03  -0.1032754315E-04  -0.1032754315E-04   0.1040000000E-01  -0.9902700115E-03  -0.9902700115E-03   0.1066496350E+01   0.8317344410E-02   0.8317344410E-02   0.3413684802E-02   0.3413684802E-02   0.4709536298E-07   0.9432596240E-03   0.1058278163E+01
     1     2     3     4     5     6     7     8
     2     9    10     3     6    11    12     7
 VARIABLES = X,Y,Z,DU1,DU2,DU3,U1,U2,U3,S11,S22,S33,S12,S13,S23,Vf,SMISES
 ZONE, T="0.1060D+01" F=FEPOINT, I=   12 J=    2 ET=BRICK
   0.0000000000E+00   0.1522500559E-02   0.1522500559E-02   0.0000000000E+00   0.1323080052E-04   0.1323080052E-04   0.0000000000E+00   0.1509269758E-02   0.1509269758E-02   0.1027954466E+01  -0.3274780604E-01  -0.3274780604E-01  -0.3346276144E-02  -0.3346276144E-02   0.5538584424E-07   0.1299444143E-02   0.1060797317E+01
   0.1005788750E+01   0.1195703697E-02   0.1195703697E-02   0.4905097703E-04   0.1209048867E-04   0.1209048867E-04   0.5739698846E-02   0.1183613209E-02   0.1183613209E-02   0.1050140764E+01  -0.9273001020E-02  -0.9273001020E-02  -0.3406755249E-02  -0.3406755249E-02   0.5104695767E-07   0.1117134822E-02   0.1059512407E+01
   0.1005788750E+01   0.9988042963E+00   0.1195703697E-02   0.4905097703E-04  -0.1209048867E-04   0.1209048867E-04   0.5739698846E-02  -0.1183613208E-02   0.1183613209E-02   0.1050140764E+01  -0.9273001020E-02  -0.9273001020E-02   0.3406755249E-02  -0.3406755249E-02  -0.5104693333E-07   0.1117134822E-02   0.1059512407E+01
   0.0000000000E+00   0.9984774994E+00   0.1522500559E-02   0.0000000000E+00  -0.1323080052E-04   0.1323080052E-04   0.0000000000E+00  -0.1509269758E-02   0.1509269758E-02   0.1027954466E+01  -0.3274780604E-01  -0.3274780604E-01   0.3346276144E-02  -0.3346276144E-02  -0.5538595704E-07   0.1299444143E-02   0.1060797317E+01
   0.0000000000E+00   0.1522500559E-02   0.9984774994E+00   0.0000000000E+00   0.1323080052E-04  -0.1323080052E-04   0.0000000000E+00   0.1509269758E-02  -0.1509269758E-02   0.1027954466E+01  -0.3274780604E-01  -0.3274780604E-01  -0.3346276144E-02   0.3346276144E-02  -0.5538595702E-07   0.1299444143E-02   0.1060797317E+01
   0.1005788750E+01   0.1195703697E-02   0.9988042963E+00   0.4905097703E-04   0.1209048867E-04  -0.1209048867E-04   0.5739698846E-02   0.1183613209E-02  -0.1183613208E-02   0.1050140764E+01  -0.9273001020E-02  -0.9273001020E-02  -0.3406755249E-02   0.3406755249E-02  -0.5104693333E-07   0.1117134822E-02   0.1059512407E+01
   0.1005788750E+01   0.9988042963E+00   0.9988042963E+00   0.4905097703E-04  -0.1209048867E-04  -0.1209048867E-04   0.5739698846E-02  -0.1183613208E-02  -0.1183613208E-02   0.1050140764E+01  -0.9273001019E-02  -0.9273001019E-02   0.3406755249E-02   0.3406755249E-02   0.5104690901E-07   0.1117134822E-02   0.1059512407E+01
   0.0000000000E+00   0.9984774994E+00   0.9984774994E+00   0.0000000000E+00  -0.1323080052E-04  -0.1323080052E-04   0.0000000000E+00  -0.1509269758E-02  -0.1509269758E-02   0.1027954466E+01  -0.3274780604E-01  -0.3274780604E-01   0.3346276144E-02   0.3346276144E-02   0.5538606981E-07   0.1299444143E-02   0.1060797317E+01
   0.2010600000E+01   0.1011336534E-02   0.1011336534E-02   0.1000000000E-03   0.1073897933E-04   0.1073897933E-04   0.1050000000E-01   0.1000597555E-02   0.1000597555E-02   0.1072084920E+01   0.1416699120E-01   0.1416699120E-01  -0.3475025235E-02  -0.3475025235E-02   0.4685170658E-07   0.9568197344E-03   0.1058020702E+01
   0.2010600000E+01   0.9989886635E+00   0.1011336534E-02   0.1000000000E-03  -0.1073897933E-04   0.1073897933E-04   0.1050000000E-01  -0.1000597555E-02   0.1000597555E-02   0.1072084920E+01   0.1416699120E-01   0.1416699120E-01   0.3475025235E-02  -0.3475025235E-02  -0.4685148904E-07   0.9568197344E-03   0.1058020702E+01
   0.2010600000E+01   0.1011336534E-02   0.9989886635E+00   0.1000000000E-03   0.1073897933E-04  -0.1073897933E-04   0.1050000000E-01   0.1000597555E-02  -0.1000597555E-02   0.1072084920E+01   0.1416699120E-01   0.1416699120E-01  -0.3475025235E-02   0.3475025235E-02  -0.4685148905E-07   0.9568197344E-03   0.1058020702E+01
   0.2010600000E+01   0.9989886635E+00   0.9989886635E+00   0.1000000000E-03  -0.1073897933E-04  -0.1073897933E-04   0.1050000000E-01  -0.1000597555E-02  -0.1000597555E-02   0.1072084920E+01   0.1416699120E-01   0.1416699120E-01   0.3475025235E-02   0.3475025235E-02   0.4685127155E-07   0.9568197343E-03   0.1058020702E+01
     1     2     3     4     5     6     7     8
     2     9    10     3     6    11    12     7
 VARIABLES = X,Y,Z,DU1,DU2,DU3,U1,U2,U3,S11,S22,S33,S12,S13,S23,Vf,SMISES
 ZONE, T="0.1070D+01" F=FEPOINT, I=   12 J=    2 ET=BRICK
   0.0000000000E+00   0.1534954646E-02   0.1534954646E-02   0.0000000000E+00   0.1245408741E-04   0.1245408741E-04   0.0000000000E+00   0.1522500559E-02   0.1522500559E-02   0.1025460003E+01  -0.3454252791E-01  -0.3454252791E-01  -0.3312312484E-02  -0.3312312484E-02   0.5378208130E-07   0.1313743483E-02   0.1060095716E+01
   0.1005838364E+01   0.1207653383E-02   0.1207653383E-02   0.4961458761E-04   0.1194968617E-04   0.1194968617E-04   0.5788749823E-02   0.1195703697E-02   0.1195703697E-02   0.1051224867E+01  -0.7734732957E-02  -0.7734732957E-02  -0.3384076420E-02  -0.3384076420E-02   0.4982710595E-07   0.1131057086E-02   0.1059056968E+01
   0.1005838364E+01   0.9987923466E+00   0.1207653383E-02   0.4961458761E-04  -0.1194968617E-04   0.1194968617E-04   0.5788749823E-02  -0.1195703697E-02   0.1195703697E-02   0.1051224867E+01  -0.7734732957E-02  -0.7734732957E-02   0.3384076420E-02  -0.3384076420E-02  -0.4982707541E-07   0.1131057086E-02   0.1059056968E+01
   0.0000000000E+00   0.9984650454E+00   0.1534954646E-02   0.0000000000E+00  -0.1245408741E-04   0.1245408741E-04   0.0000000000E+00  -0.1522500559E-02   0.1522500559E-02   0.1025460003E+01  -0.3454252791E-01  -0.3454252791E-01   0.3312312483E-02  -0.3312312483E-02  -0.5378219828E-07   0.1313743483E-02   0.1060095716E+01
   0.0000000000E+00   0.1534954646E-02   0.9984650454E+00   0.0000000000E+00   0.1245408741E-04  -0.1245408741E-04   0.0000000000E+00   0.1522500559E-02  -0.1522500559E-02   0.1025460003E+01  -0.3454252791E-01  -0.3454252791E-01  -0.3312312483E-02   0.3312312483E-02  -0.5378219826E-07   0.1313743483E-02   0.1060095716E+01
   0.1005838364E+01   0.1207653383E-02   0.9987923466E+00   0.4961458761E-04   0.1194968617E-04  -0.1194968617E-04   0.5788749823E-02   0.1195703697E-02  -0.1195703697E-02   0.1051224867E+01  -0.7734732957E-02  -0.7734732957E-02  -0.3384076420E-02   0.3384076420E-02  -0.4982707541E-07   0.1131057086E-02   0.1059056968E+01
   0.1005838364E+01   0.9987923466E+00   0.9987923466E+00   0.4961458761E-04  -0.1194968617E-04  -0.1194968617E-04   0.5788749823E-02  -0.1195703697E-02  -0.1195703697E-02   0.1051224867E+01  -0.7734732956E-02  -0.7734732956E-02   0.3384076420E-02   0.3384076420E-02   0.4982704490E-07   0.1131057086E-02   0.1059056968E+01
   0.0000000000E+00   0.9984650454E+00   0.9984650454E+00   0.0000000000E+00  -0.1245408741E-04  -0.1245408741E-04   0.0000000000E+00  -0.1522500559E-02  -0.1522500559E-02   0.1025460003E+01  -0.3454252791E-01  -0.3454252791E-01   0.3312312483E-02   0.3312312483E-02   0.5378231524E-07   0.1313743483E-02   0.1060095716E+01
   0.2010700000E+01   0.1022573801E-02   0.1022573801E-02   0.1000000000E-03   0.1123726706E-04   0.1123726706E-04   0.1060000000E-01   0.1011336534E-02   0.1011336534E-02   0.1076748893E+01   0.1903647595E-01   0.1903647595E-01  -0.3463638689E-02  -0.3463638689E-02   0.4601518429E-07   0.9703633524E-03   0.1057814536E+01
   0.2010700000E+01   0.9989774262E+00   0.1022573801E-02   0.1000000000E-03  -0.1123726706E-04   0.1123726706E-04   0.1060000000E-01  -0.1011336534E-02   0.1011336534E-02   0.1076748893E+01   0.1903647595E-01   0.1903647595E-01   0.3463638689E-02  -0.3463638689E-02  -0.4601495239E-07   0.9703633524E-03   0.1057814536E+01
   0.2010700000E+01   0.1022573801E-02   0.9989774262E+00   0.1000000000E-03   0.1123726706E-04  -0.1123726706E-04   0.1060000000E-01   0.1011336534E-02  -0.1011336534E-02   0.1076748893E+01   0.1903647595E-01   0.1903647595E-01  -0.3463638689E-02   0.3463638689E-02  -0.4601495240E-07   0.9703633524E-03   0.1057814536E+01
   0.2010700000E+01   0.9989774262E+00   0.9989774262E+00   0.1000000000E-03  -0.1123726706E-04  -0.1123726706E-04   0.1060000000E-01  -0.1011336534E-02  -0.1011336534E-02   0.1076748893E+01   0.1903647595E-01   0.1903647595E-01   0.3463638689E-02   0.3463638689E-02   0.4601472054E-07   0.9703633523E-03   0.1057814536E+01
     1     2     3     4     5     6     7     8
     2     9    10     3     6    11    12     7
 VARIABLES = X,Y,Z,DU1,DU2,DU3,U1,U2,U3,S11,S22,S33,S12,S13,S23,Vf,SMISES
 ZONE, T="0.1080D+01" F=FEPOINT, I=   12 J=    2 ET=BRICK
   0.0000000000E+00   0.1546669598E-02   0.1546669598E-02   0.0000000000E+00   0.1171495147E-04   0.1171495147E-04   0.0000000000E+00   0.1534954646E-02   0.1534954646E-02   0.1025313358E+01  -0.3398716911E-01  -0.3398716911E-01  -0.3205834293E-02  -0.3205834293E-02   0.5160220200E-07   0.1327939450E-02   0.1059387875E+01
   0.1005888558E+01   0.1219508931E-02   0.1219508931E-02   0.5019347813E-04   0.1185554761E-04   0.1185554761E-04   0.5838364411E-02   0.1207653383E-02   0.1207653383E-02   0.1052879887E+01  -0.5662874790E-02  -0.5662874790E-02  -0.3287603375E-02  -0.3287603375E-02   0.4798944854E-07   0.1144926040E-02   0.1058634690E+01
   0.1005888558E+01   0.9987804911E+00   0.1219508931E-02   0.5019347813E-04  -0.1185554761E-04   0.1185554761E-04   0.5838364411E-02  -0.1207653383E-02   0.1207653383E-02   0.1052879887E+01  -0.5662874790E-02  -0.5662874790E-02   0.3287603376E-02  -0.3287603375E-02  -0.4798941122E-07   0.1144926040E-02   0.1058634690E+01
   0.0000000000E+00   0.9984533304E+00   0.1546669598E-02   0.0000000000E+00  -0.1171495147E-04   0.1171495147E-04   0.0000000000E+00  -0.1534954646E-02   0.1534954646E-02   0.1025313358E+01  -0.3398716911E-01  -0.3398716911E-01   0.3205834292E-02  -0.3205834292E-02  -0.5160231701E-07   0.1327939450E-02   0.1059387875E+01
   0.0000000000E+00   0.1546669598E-02   0.9984533304E+00   0.0000000000E+00   0.1171495147E-04  -0.1171495147E-04   0.0000000000E+00   0.1534954646E-02  -0.1534954646E-02   0.1025313358E+01  -0.3398716911E-01  -0.3398716911E-01  -0.3205834292E-02   0.3205834292E-02  -0.5160231699E-07   0.1327939450E-02   0.1059387875E+01
   0.1005888558E+01   0.1219508931E-02   0.9987804911E+00   0.5019347813E-04   0.1185554761E-04  -0.1185554761E-04   0.5838364411E-02   0.1207653383E-02  -0.1207653383E-02   0.1052879887E+01  -0.5662874790E-02  -0.5662874790E-02  -0.3287603375E-02   0.3287603376E-02  -0.4798941122E-07   0.1144926040E-02   0.1058634690E+01
   0.1005888558E+01   0.9987804911E+00   0.9987804911E+00   0.5019347813E-04  -0.1185554761E-04  -0.1185554761E-04   0.5838364411E-02  -0.1207653383E-02  -0.1207653383E-02   0.1052879887E+01  -0.5662874790E-02  -0.5662874790E-02   0.3287603376E-02   0.3287603376E-02   0.4798937391E-07   0.1144926040E-02   0.1058634690E+01
   0.0000000000E+00   0.9984533304E+00   0.9984533304E+00   0.0000000000E+00  -0.1171495147E-04  -0.1171495147E-04   0.0000000000E+00  -0.1534954646E-02  -0.1534954646E-02   0.1025313358E+01  -0.3398716911E-01  -0.3398716911E-01   0.3205834292E-02   0.3205834292E-02   0.5160243200E-07   0.1327939450E-02   0.1059387875E+01
   0.2010800000E+01   0.1034365939E-02   0.1034365939E-02   0.1000000000E-03   0.1179213753E-04   0.1179213753E-04   0.1070000000E-01   0.1022573801E-02   0.1022573801E-02   0.1080207673E+01   0.2262273909E-01   0.2262273909E-01  -0.3377154209E-02  -0.3377154209E-02   0.4451955536E-07   0.9839019740E-03   0.1057682027E+01
   0.2010800000E+01   0.9989656341E+00   0.1034365939E-02   0.1000000000E-03  -0.1179213753E-04   0.1179213753E-04   0.1070000000E-01  -0.1022573801E-02   0.1022573801E-02   0.1080207673E+01   0.2262273909E-01   0.2262273909E-01   0.3377154209E-02  -0.3377154209E-02  -0.4451931425E-07   0.9839019740E-03   0.1057682027E+01
   0.2010800000E+01   0.1034365939E-02   0.9989656341E+00   0.1000000000E-03   0.1179213753E-04  -0.1179213753E-04   0.1070000000E-01   0.1022573801E-02  -0.1022573801E-02   0.1080207673E+01   0.2262273909E-01   0.2262273909E-01  -0.3377154209E-02   0.3377154209E-02  -0.4451931427E-07   0.9839019740E-03   0.1057682027E+01
   0.2010800000E+01   0.9989656341E+00   0.9989656341E+00   0.1000000000E-03  -0.1179213753E-04  -0.1179213753E-04   0.1070000000E-01  -0.1022573801E-02  -0.1022573801E-02   0.1080207673E+01   0.2262273909E-01   0.2262273909E-01   0.3377154209E-02   0.3377154209E-02   0.4451907318E-07   0.9839019739E-03   0.1057682027E+01
     1     2     3     4     5     6     7     8
     2     9    10     3     6    11    12     7
 VARIABLES = X,Y,Z,DU1,DU2,DU3,U1,U2,U3,S11,S22,S33,S12,S13,S23,Vf,SMISES
 ZONE, T="0.1090D+01" F=FEPOINT, I=   12 J=    2 ET=BRICK
   0.0000000000E+00   0.1557726503E-02   0.1557726503E-02   0.0000000000E+00   0.1105690524E-04   0.1105690524E-04   0.0000000000E+00   0.1546669598E-02   0.1546669598E-02   0.1027393057E+01  -0.3124772577E-01  -0.3124772577E-01  -0.3029266115E-02  -0.3029266115E-02   0.4887980379E-07   0.1342039847E-02   0.1058718823E+01
   0.1005939309E+01   0.1231321893E-02   0.1231321893E-02   0.5075078185E-04   0.1181296153E-04   0.1181296153E-04   0.5888557889E-02   0.1219508931E-02   0.1219508931E-02   0.1054941523E+01  -0.3251823647E-02  -0.3251823647E-02  -0.3119755485E-02  -0.3119755485E-02   0.4556233871E-07   0.1158752523E-02   0.1058276156E+01
   0.1005939309E+01   0.9987686781E+00   0.1231321893E-02   0.5075078185E-04  -0.1181296153E-04   0.1181296153E-04   0.5888557889E-02  -0.1219508931E-02   0.1219508931E-02   0.1054941523E+01  -0.3251823647E-02  -0.3251823647E-02   0.3119755485E-02  -0.3119755485E-02  -0.4556229454E-07   0.1158752523E-02   0.1058276156E+01
   0.0000000000E+00   0.9984422735E+00   0.1557726503E-02   0.0000000000E+00  -0.1105690524E-04   0.1105690524E-04   0.0000000000E+00  -0.1546669598E-02   0.1546669598E-02   0.1027393057E+01  -0.3124772577E-01  -0.3124772577E-01   0.3029266115E-02  -0.3029266115E-02  -0.4887991143E-07   0.1342039847E-02   0.1058718823E+01
   0.0000000000E+00   0.1557726503E-02   0.9984422735E+00   0.0000000000E+00   0.1105690524E-04  -0.1105690524E-04   0.0000000000E+00   0.1546669598E-02  -0.1546669598E-02   0.1027393057E+01  -0.3124772577E-01  -0.3124772577E-01  -0.3029266115E-02   0.3029266115E-02  -0.4887991141E-07   0.1342039847E-02   0.1058718823E+01
   0.1005939309E+01   0.1231321893E-02   0.9987686781E+00   0.5075078185E-04   0.1181296153E-04  -0.1181296153E-04   0.5888557889E-02   0.1219508931E-02  -0.1219508931E-02   0.1054941523E+01  -0.3251823647E-02  -0.3251823647E-02  -0.3119755485E-02   0.3119755485E-02  -0.4556229454E-07   0.1158752523E-02   0.1058276156E+01
   0.1005939309E+01   0.9987686781E+00   0.9987686781E+00   0.5075078185E-04  -0.1181296153E-04  -0.1181296153E-04   0.5888557889E-02  -0.1219508931E-02  -0.1219508931E-02   0.1054941523E+01  -0.3251823647E-02  -0.3251823647E-02   0.3119755485E-02   0.3119755485E-02   0.4556225039E-07   0.1158752523E-02   0.1058276156E+01
   0.0000000000E+00   0.9984422735E+00   0.9984422735E+00   0.0000000000E+00  -0.1105690524E-04  -0.1105690524E-04   0.0000000000E+00  -0.1546669598E-02  -0.1546669598E-02   0.1027393056E+01  -0.3124772577E-01  -0.3124772577E-01   0.3029266115E-02   0.3029266115E-02   0.4888001905E-07   0.1342039847E-02   0.1058718823E+01
   0.2010900000E+01   0.1046735697E-02   0.1046735697E-02   0.1000000000E-03   0.1236975792E-04   0.1236975792E-04   0.1080000000E-01   0.1034365939E-02   0.1034365939E-02   0.1082253769E+01   0.2470311977E-01   0.2470311977E-01  -0.3217966841E-02  -0.3217966841E-02   0.4238766483E-07   0.9974496230E-03   0.1057638808E+01
   0.2010900000E+01   0.9989532643E+00   0.1046735697E-02   0.1000000000E-03  -0.1236975792E-04   0.1236975792E-04   0.1080000000E-01  -0.1034365939E-02   0.1034365939E-02   0.1082253769E+01   0.2470311977E-01   0.2470311977E-01   0.3217966841E-02  -0.3217966841E-02  -0.4238741997E-07   0.9974496229E-03   0.1057638808E+01
   0.2010900000E+01   0.1046735697E-02   0.9989532643E+00   0.1000000000E-03   0.1236975792E-04  -0.1236975792E-04   0.1080000000E-01   0.1034365939E-02  -0.1034365939E-02   0.1082253769E+01   0.2470311977E-01   0.2470311977E-01  -0.3217966841E-02   0.3217966841E-02  -0.4238741999E-07   0.9974496229E-03   0.1057638808E+01
   0.2010900000E+01   0.9989532643E+00   0.9989532643E+00   0.1000000000E-03  -0.1236975792E-04  -0.1236975792E-04   0.1080000000E-01  -0.1034365939E-02  -0.1034365939E-02   0.1082253769E+01   0.2470311977E-01   0.2470311977E-01   0.3217966841E-02   0.3217966841E-02   0.4238717516E-07   0.9974496229E-03   0.1057638808E+01
     1     2     3     4     5     6     7     8
     2     9    10     3     6    11    12     7
 VARIABLES = X,Y,Z,DU1,DU2,DU3,U1,U2,U3,S11,S22,S33,S12,S13,S23,Vf,SMISES
 ZONE, T="0.1100D+01" F=FEPOINT, I=   12 J=    2 ET=BRICK
   0.0000000000E+00   0.1568242569E-02   0.1568242569E-02   0.0000000000E+00   0.1051606632E-04   0.1051606632E-04   0.0000000000E+00   0.1557726503E-02   0.1557726503E-02   0.1031442940E+01  -0.2661948848E-01  -0.2661948848E-01  -0.2789381104E-02  -0.2789381104E-02   0.4572695967E-07   0.1356059057E-02   0.1058128636E+01
   0.1005990561E+01   0.1243144305E-02   0.1243144305E-02   0.5125228287E-04   0.1182241210E-04   0.1182241210E-04   0.5939308671E-02   0.1231321893E-02   0.1231321893E-02   0.1057221691E+01  -0.7127643127E-03  -0.7127643127E-03  -0.2887365907E-02  -0.2887365907E-02   0.4265571845E-07   0.1172551266E-02   0.1058005408E+01
   0.1005990561E+01   0.9987568557E+00   0.1243144305E-02   0.5125228287E-04  -0.1182241210E-04   0.1182241210E-04   0.5939308671E-02  -0.1231321892E-02   0.1231321893E-02   0.1057221691E+01  -0.7127643126E-03  -0.7127643127E-03   0.2887365907E-02  -0.2887365907E-02  -0.4265566792E-07   0.1172551266E-02   0.1058005408E+01
   0.0000000000E+00   0.9984317574E+00   0.1568242569E-02   0.0000000000E+00  -0.1051606632E-04   0.1051606632E-04   0.0000000000E+00  -0.1557726503E-02   0.1557726503E-02   0.1031442940E+01  -0.2661948847E-01  -0.2661948847E-01   0.2789381104E-02  -0.2789381104E-02  -0.4572705553E-07   0.1356059057E-02   0.1058128636E+01
   0.0000000000E+00   0.1568242569E-02   0.9984317574E+00   0.0000000000E+00   0.1051606632E-04  -0.1051606632E-04   0.0000000000E+00   0.1557726503E-02  -0.1557726503E-02   0.1031442940E+01  -0.2661948847E-01  -0.2661948847E-01  -0.2789381104E-02   0.2789381104E-02  -0.4572705551E-07   0.1356059057E-02   0.1058128636E+01
   0.1005990561E+01   0.1243144305E-02   0.9987568557E+00   0.5125228287E-04   0.1182241210E-04  -0.1182241210E-04   0.5939308671E-02   0.1231321893E-02  -0.1231321892E-02   0.1057221691E+01  -0.7127643127E-03  -0.7127643126E-03  -0.2887365907E-02   0.2887365907E-02  -0.4265566792E-07   0.1172551266E-02   0.1058005408E+01
   0.1005990561E+01   0.9987568557E+00   0.9987568557E+00   0.5125228287E-04  -0.1182241210E-04  -0.1182241210E-04   0.5939308671E-02  -0.1231321892E-02  -0.1231321892E-02   0.1057221691E+01  -0.7127643126E-03  -0.7127643126E-03   0.2887365907E-02   0.2887365907E-02   0.4265561741E-07   0.1172551266E-02   0.1058005408E+01
   0.0000000000E+00   0.9984317574E+00   0.9984317574E+00   0.0000000000E+00  -0.1051606632E-04  -0.1051606632E-04   0.0000000000E+00  -0.1557726503E-02  -0.1557726503E-02   0.1031442940E+01  -0.2661948847E-01  -0.2661948847E-01   0.2789381104E-02   0.2789381104E-02   0.4572715137E-07   0.1356059057E-02   0.1058128635E+01
   0.2011000000E+01   0.1059670585E-02   0.1059670585E-02   0.1000000000E-03   0.1293488815E-04   0.1293488815E-04   0.1090000000E-01   0.1046735697E-02   0.1046735697E-02   0.1082766876E+01   0.2515065486E-01   0.2515065486E-01  -0.2992955162E-02  -0.2992955162E-02   0.3972709300E-07   0.1011021594E-02   0.1057692479E+01
   0.2011000000E+01   0.9989403294E+00   0.1059670585E-02   0.1000000000E-03  -0.1293488815E-04   0.1293488815E-04   0.1090000000E-01  -0.1046735696E-02   0.1046735697E-02   0.1082766876E+01   0.2515065486E-01   0.2515065486E-01   0.2992955162E-02  -0.2992955162E-02  -0.3972684994E-07   0.1011021594E-02   0.1057692479E+01
   0.2011000000E+01   0.1059670585E-02   0.9989403294E+00   0.1000000000E-03   0.1293488815E-04  -0.1293488815E-04   0.1090000000E-01   0.1046735697E-02  -0.1046735696E-02   0.1082766876E+01   0.2515065486E-01   0.2515065486E-01  -0.2992955162E-02   0.2992955162E-02  -0.3972684995E-07   0.1011021594E-02   0.1057692479E+01
   0.2011000000E+01   0.9989403294E+00   0.9989403294E+00   0.1000000000E-03  -0.1293488815E-04  -0.1293488815E-04   0.1090000000E-01  -0.1046735696E-02  -0.1046735696E-02   0.1082766876E+01   0.2515065486E-01   0.2515065486E-01   0.2992955162E-02   0.2992955162E-02   0.3972660691E-07   0.1011021594E-02   0.1057692479E+01
     1     2     3     4     5     6     7     8
     2     9    10     3     6    11    12     7
 VARIABLES = X,Y,Z,DU1,DU2,DU3,U1,U2,U3,S11,S22,S33,S12,S13,S23,Vf,SMISES
 ZONE, T="0.1110D+01" F=FEPOINT, I=   12 J=    2 ET=BRICK
   0.0000000000E+00   0.1578361863E-02   0.1578361863E-02   0.0000000000E+00   0.1011929333E-04   0.1011929333E-04   0.0000000000E+00   0.1568242569E-02   0.1568242569E-02   0.1037096305E+01  -0.2050040482E-01  -0.2050040482E-01  -0.2496779988E-02  -0.2496779988E-02   0.4231386754E-07   0.1370016626E-02   0.1057649781E+01
   0.1006042229E+01   0.1255024481E-02   0.1255024481E-02   0.5166838928E-04   0.1188017675E-04   0.1188017675E-04   0.5990560954E-02   0.1243144305E-02   0.1243144305E-02   0.1059524837E+01   0.1744141235E-02   0.1744141235E-02  -0.2601147205E-02  -0.2601147205E-02   0.3944086589E-07   0.1186339515E-02   0.1057838295E+01
   0.1006042229E+01   0.9987449755E+00   0.1255024481E-02   0.5166838928E-04  -0.1188017675E-04   0.1188017675E-04   0.5990560953E-02  -0.1243144305E-02   0.1243144305E-02   0.1059524837E+01   0.1744141235E-02   0.1744141235E-02   0.2601147205E-02  -0.2601147205E-02  -0.3944081001E-07   0.1186339515E-02   0.1057838295E+01
   0.0000000000E+00   0.9984216381E+00   0.1578361863E-02   0.0000000000E+00  -0.1011929333E-04   0.1011929333E-04   0.0000000000E+00  -0.1568242569E-02   0.1568242569E-02   0.1037096305E+01  -0.2050040482E-01  -0.2050040482E-01   0.2496779987E-02  -0.2496779987E-02  -0.4231394844E-07   0.1370016626E-02   0.1057649781E+01
   0.0000000000E+00   0.1578361863E-02   0.9984216381E+00   0.0000000000E+00   0.1011929333E-04  -0.1011929333E-04   0.0000000000E+00   0.1568242569E-02  -0.1568242569E-02   0.1037096305E+01  -0.2050040482E-01  -0.2050040482E-01  -0.2496779987E-02   0.2496779987E-02  -0.4231394841E-07   0.1370016626E-02   0.1057649781E+01
   0.1006042229E+01   0.1255024481E-02   0.9987449755E+00   0.5166838928E-04   0.1188017675E-04  -0.1188017675E-04   0.5990560953E-02   0.1243144305E-02  -0.1243144305E-02   0.1059524837E+01   0.1744141235E-02   0.1744141235E-02  -0.2601147205E-02   0.2601147205E-02  -0.3944081001E-07   0.1186339515E-02   0.1057838295E+01
   0.1006042229E+01   0.9987449755E+00   0.9987449755E+00   0.5166838928E-04  -0.1188017675E-04  -0.1188017675E-04   0.5990560953E-02  -0.1243144305E-02  -0.1243144305E-02   0.1059524837E+01   0.1744141235E-02   0.1744141235E-02   0.2601147205E-02   0.2601147205E-02   0.3944075414E-07   0.1186339515E-02   0.1057838295E+01
   0.0000000000E+00   0.9984216381E+00   0.9984216381E+00   0.0000000000E+00  -0.1011929333E-04  -0.1011929333E-04   0.0000000000E+00  -0.1568242569E-02  -0.1568242569E-02   0.1037096305E+01  -0.2050040482E-01  -0.2050040482E-01   0.2496779987E-02   0.2496779987E-02   0.4231402931E-07   0.1370016626E-02   0.1057649781E+01
   0.2011100000E+01   0.1073123726E-02   0.1073123726E-02   0.1000000000E-03   0.1345314086E-04   0.1345314086E-04   0.1100000000E-01   0.1059670585E-02   0.1059670585E-02   0.1081722392E+01   0.2394304909E-01   0.2394304909E-01  -0.2712934936E-02  -0.2712934936E-02   0.3671005741E-07   0.1024633098E-02   0.1057841991E+01
   0.2011100000E+01   0.9989268763E+00   0.1073123726E-02   0.1000000000E-03  -0.1345314086E-04   0.1345314086E-04   0.1100000000E-01  -0.1059670585E-02   0.1059670585E-02   0.1081722392E+01   0.2394304909E-01   0.2394304909E-01   0.2712934936E-02  -0.2712934936E-02  -0.3670982149E-07   0.1024633098E-02   0.1057841991E+01
   0.2011100000E+01   0.1073123726E-02   0.9989268763E+00   0.1000000000E-03   0.1345314086E-04  -0.1345314086E-04   0.1100000000E-01   0.1059670585E-02  -0.1059670585E-02   0.1081722392E+01   0.2394304909E-01   0.2394304909E-01  -0.2712934936E-02   0.2712934936E-02  -0.3670982150E-07   0.1024633098E-02   0.1057841991E+01
   0.2011100000E+01   0.9989268763E+00   0.9989268763E+00   0.1000000000E-03  -0.1345314086E-04  -0.1345314086E-04   0.1100000000E-01  -0.1059670585E-02  -0.1059670585E-02   0.1081722392E+01   0.2394304909E-01   0.2394304909E-01   0.2712934936E-02   0.2712934936E-02   0.3670958559E-07   0.1024633098E-02   0.1057841991E+01
     1     2     3     4     5     6     7     8
     2     9    10     3     6    11    12     7
 VARIABLES = X,Y,Z,DU1,DU2,DU3,U1,U2,U3,S11,S22,S33,S12,S13,S23,Vf,SMISES
 ZONE, T="0.1120D+01" F=FEPOINT, I=   12 J=    2 ET=BRICK
   0.0000000000E+00   0.1588244885E-02   0.1588244885E-02   0.0000000000E+00   0.9883022667E-05   0.9883022667E-05   0.0000000000E+00   0.1578361863E-02   0.1578361863E-02   0.1043905703E+01  -0.1335946979E-01  -0.1335946979E-01  -0.2165157195E-02  -0.2165157195E-02   0.3883854313E-07   0.1383935585E-02   0.1057305098E+01
   0.1006094205E+01   0.1267003332E-02   0.1267003332E-02   0.5197576105E-04   0.1197885030E-04   0.1197885030E-04   0.6042229343E-02   0.1255024481E-02   0.1255024481E-02   0.1061663989E+01   0.3926535884E-02   0.3926535884E-02  -0.2274936875E-02  -0.2274936875E-02   0.3611976641E-07   0.1200135523E-02   0.1057781524E+01
   0.1006094205E+01   0.9987329967E+00   0.1267003332E-02   0.5197576105E-04  -0.1197885030E-04   0.1197885030E-04   0.6042229343E-02  -0.1255024481E-02   0.1255024481E-02   0.1061663989E+01   0.3926535884E-02   0.3926535883E-02   0.2274936875E-02  -0.2274936875E-02  -0.3611970662E-07   0.1200135523E-02   0.1057781524E+01
   0.0000000000E+00   0.9984117551E+00   0.1588244885E-02   0.0000000000E+00  -0.9883022667E-05   0.9883022667E-05   0.0000000000E+00  -0.1578361862E-02   0.1578361863E-02   0.1043905703E+01  -0.1335946979E-01  -0.1335946979E-01   0.2165157195E-02  -0.2165157195E-02  -0.3883860716E-07   0.1383935585E-02   0.1057305098E+01
   0.0000000000E+00   0.1588244885E-02   0.9984117551E+00   0.0000000000E+00   0.9883022667E-05  -0.9883022667E-05   0.0000000000E+00   0.1578361863E-02  -0.1578361862E-02   0.1043905703E+01  -0.1335946979E-01  -0.1335946979E-01  -0.2165157195E-02   0.2165157195E-02  -0.3883860714E-07   0.1383935585E-02   0.1057305098E+01
   0.1006094205E+01   0.1267003332E-02   0.9987329967E+00   0.5197576105E-04   0.1197885030E-04  -0.1197885030E-04   0.6042229343E-02   0.1255024481E-02  -0.1255024481E-02   0.1061663989E+01   0.3926535883E-02   0.3926535884E-02  -0.2274936875E-02   0.2274936875E-02  -0.3611970662E-07   0.1200135523E-02   0.1057781524E+01
   0.1006094205E+01   0.9987329967E+00   0.9987329967E+00   0.5197576105E-04  -0.1197885030E-04  -0.1197885030E-04   0.6042229343E-02  -0.1255024481E-02  -0.1255024481E-02   0.1061663989E+01   0.3926535883E-02   0.3926535883E-02   0.2274936875E-02   0.2274936875E-02   0.3611964684E-07   0.1200135523E-02   0.1057781524E+01
   0.0000000000E+00   0.9984117551E+00   0.9984117551E+00   0.0000000000E+00  -0.9883022667E-05  -0.9883022667E-05   0.0000000000E+00  -0.1578361862E-02  -0.1578361862E-02   0.1043905703E+01  -0.1335946979E-01  -0.1335946979E-01   0.2165157194E-02   0.2165157194E-02   0.3883867118E-07   0.1383935585E-02   0.1057305098E+01
   0.2011200000E+01   0.1087016919E-02   0.1087016919E-02   0.1000000000E-03   0.1389319303E-04   0.1389319303E-04   0.1110000000E-01   0.1073123726E-02   0.1073123726E-02   0.1079193733E+01   0.2116462156E-01   0.2116462156E-01  -0.2391884613E-02  -0.2391884613E-02   0.3354248072E-07   0.1038297912E-02   0.1058077801E+01
   0.2011200000E+01   0.9989129831E+00   0.1087016919E-02   0.1000000000E-03  -0.1389319303E-04   0.1389319303E-04   0.1110000000E-01  -0.1073123726E-02   0.1073123726E-02   0.1079193733E+01   0.2116462156E-01   0.2116462156E-01   0.2391884613E-02  -0.2391884613E-02  -0.3354225682E-07   0.1038297912E-02   0.1058077801E+01
   0.2011200000E+01   0.1087016919E-02   0.9989129831E+00   0.1000000000E-03   0.1389319303E-04  -0.1389319303E-04   0.1110000000E-01   0.1073123726E-02  -0.1073123726E-02   0.1079193733E+01   0.2116462156E-01   0.2116462156E-01  -0.2391884613E-02   0.2391884613E-02  -0.3354225684E-07   0.1038297912E-02   0.1058077801E+01
   0.2011200000E+01   0.9989129831E+00   0.9989129831E+00   0.1000000000E-03  -0.1389319303E-04  -0.1389319303E-04   0.1110000000E-01  -0.1073123726E-02  -0.1073123726E-02   0.1079193733E+01   0.2116462156E-01   0.2116462156E-01   0.2391884613E-02   0.2391884613E-02   0.3354203295E-07   0.1038297912E-02   0.1058077801E+01
     1     2     3     4     5     6     7     8
     2     9    10     3     6    11    12     7
 VARIABLES = X,Y,Z,DU1,DU2,DU3,U1,U2,U3,S11,S22,S33,S12,S13,S23,Vf,SMISES
 ZONE, T="0.1130D+01" F=FEPOINT, I=   12 J=    2 ET=BRICK
   0.0000000000E+00   0.1598057722E-02   0.1598057722E-02   0.0000000000E+00   0.9812836850E-05   0.9812836850E-05   0.0000000000E+00   0.1588244885E-02   0.1588244885E-02   0.1051376103E+01  -0.5702539316E-02  -0.5702539316E-02  -0.1810396600E-02  -0.1810396600E-02   0.3549299764E-07   0.1397840629E-02   0.1057106564E+01
   0.1006146364E+01   0.1279111468E-02   0.1279111468E-02   0.5215850578E-04   0.1210813611E-04   0.1210813611E-04   0.6094205104E-02   0.1267003332E-02   0.1267003332E-02   0.1063475265E+01   0.5674326763E-02   0.5674326763E-02  -0.1924769343E-02  -0.1924769343E-02   0.3289069152E-07   0.1213957037E-02   0.1057832499E+01
   0.1006146364E+01   0.9987208885E+00   0.1279111468E-02   0.5215850578E-04  -0.1210813611E-04   0.1210813611E-04   0.6094205104E-02  -0.1267003332E-02   0.1267003332E-02   0.1063475265E+01   0.5674326763E-02   0.5674326763E-02   0.1924769343E-02  -0.1924769343E-02  -0.3289062960E-07   0.1213957037E-02   0.1057832499E+01
   0.0000000000E+00   0.9984019423E+00   0.1598057722E-02   0.0000000000E+00  -0.9812836850E-05   0.9812836850E-05   0.0000000000E+00  -0.1588244885E-02   0.1588244885E-02   0.1051376103E+01  -0.5702539316E-02  -0.5702539316E-02   0.1810396600E-02  -0.1810396600E-02  -0.3549304425E-07   0.1397840629E-02   0.1057106564E+01
   0.0000000000E+00   0.1598057722E-02   0.9984019423E+00   0.0000000000E+00   0.9812836850E-05  -0.9812836850E-05   0.0000000000E+00   0.1588244885E-02  -0.1588244885E-02   0.1051376103E+01  -0.5702539316E-02  -0.5702539316E-02  -0.1810396600E-02   0.1810396600E-02  -0.3549304423E-07   0.1397840629E-02   0.1057106564E+01
   0.1006146364E+01   0.1279111468E-02   0.9987208885E+00   0.5215850578E-04   0.1210813611E-04  -0.1210813611E-04   0.6094205104E-02   0.1267003332E-02  -0.1267003332E-02   0.1063475265E+01   0.5674326763E-02   0.5674326763E-02  -0.1924769343E-02   0.1924769343E-02  -0.3289062960E-07   0.1213957037E-02   0.1057832499E+01
   0.1006146364E+01   0.9987208885E+00   0.9987208885E+00   0.5215850578E-04  -0.1210813611E-04  -0.1210813611E-04   0.6094205104E-02  -0.1267003332E-02  -0.1267003332E-02   0.1063475265E+01   0.5674326763E-02   0.5674326763E-02   0.1924769343E-02   0.1924769343E-02   0.3289056769E-07   0.1213957037E-02   0.1057832499E+01
   0.0000000000E+00   0.9984019423E+00   0.9984019423E+00   0.0000000000E+00  -0.9812836850E-05  -0.9812836850E-05   0.0000000000E+00  -0.1588244885E-02  -0.1588244885E-02   0.1051376103E+01  -0.5702539316E-02  -0.5702539316E-02   0.1810396600E-02   0.1810396600E-02   0.3549309085E-07   0.1397840629E-02   0.1057106564E+01
   0.2011300000E+01   0.1101245718E-02   0.1101245718E-02   0.1000000000E-03   0.1422879953E-04   0.1422879953E-04   0.1120000000E-01   0.1087016919E-02   0.1087016919E-02   0.1075348186E+01   0.1700103733E-01   0.1700103733E-01  -0.2045993430E-02  -0.2045993430E-02   0.3042895209E-07   0.1052027162E-02   0.1058382767E+01
   0.2011300000E+01   0.9988987543E+00   0.1101245718E-02   0.1000000000E-03  -0.1422879953E-04   0.1422879953E-04   0.1120000000E-01  -0.1087016919E-02   0.1087016919E-02   0.1075348186E+01   0.1700103733E-01   0.1700103733E-01   0.2045993430E-02  -0.2045993430E-02  -0.3042874441E-07   0.1052027162E-02   0.1058382767E+01
   0.2011300000E+01   0.1101245718E-02   0.9988987543E+00   0.1000000000E-03   0.1422879953E-04  -0.1422879953E-04   0.1120000000E-01   0.1087016919E-02  -0.1087016919E-02   0.1075348186E+01   0.1700103733E-01   0.1700103733E-01  -0.2045993430E-02   0.2045993430E-02  -0.3042874442E-07   0.1052027162E-02   0.1058382767E+01
   0.2011300000E+01   0.9988987543E+00   0.9988987543E+00   0.1000000000E-03  -0.1422879953E-04  -0.1422879953E-04   0.1120000000E-01  -0.1087016919E-02  -0.1087016919E-02   0.1075348186E+01   0.1700103733E-01   0.1700103733E-01   0.2045993429E-02   0.2045993429E-02   0.3042853675E-07   0.1052027162E-02   0.1058382767E+01
     1     2     3     4     5     6     7     8
     2     9    10     3     6    11    12     7
 VARIABLES = X,Y,Z,DU1,DU2,DU3,U1,U2,U3,S11,S22,S33,S12,S13,S23,Vf,SMISES
 ZONE, T="0.1140D+01" F=FEPOINT, I=   12 J=    2 ET=BRICK
   0.0000000000E+00   0.1607961468E-02   0.1607961468E-02   0.0000000000E+00   0.9903745524E-05   0.9903745524E-05   0.0000000000E+00   0.1598057722E-02   0.1598057722E-02   0.1058999081E+01   0.1962028869E-02   0.1962028869E-02  -0.1449550607E-02  -0.1449550607E-02   0.3243288609E-07   0.1411756304E-02   0.1057054957E+01
   0.1006198572E+01   0.1291367294E-02   0.1291367294E-02   0.5220888456E-04   0.1225582662E-04   0.1225582662E-04   0.6146363610E-02   0.1279111468E-02   0.1279111468E-02   0.1064829783E+01   0.6870784602E-02   0.6870784602E-02  -0.1567832805E-02  -0.1567832805E-02   0.2991712905E-07   0.1227819895E-02   0.1057979955E+01
   0.1006198572E+01   0.9987086327E+00   0.1291367294E-02   0.5220888456E-04  -0.1225582662E-04   0.1225582662E-04   0.6146363610E-02  -0.1279111468E-02   0.1279111468E-02   0.1064829783E+01   0.6870784602E-02   0.6870784602E-02   0.1567832805E-02  -0.1567832805E-02  -0.2991706699E-07   0.1227819895E-02   0.1057979954E+01
   0.0000000000E+00   0.9983920385E+00   0.1607961468E-02   0.0000000000E+00  -0.9903745524E-05   0.9903745524E-05   0.0000000000E+00  -0.1598057722E-02   0.1598057722E-02   0.1058999081E+01   0.1962028869E-02   0.1962028869E-02   0.1449550607E-02  -0.1449550607E-02  -0.3243291600E-07   0.1411756304E-02   0.1057054957E+01
   0.0000000000E+00   0.1607961468E-02   0.9983920385E+00   0.0000000000E+00   0.9903745524E-05  -0.9903745524E-05   0.0000000000E+00   0.1598057722E-02  -0.1598057722E-02   0.1058999081E+01   0.1962028869E-02   0.1962028869E-02  -0.1449550607E-02   0.1449550607E-02  -0.3243291598E-07   0.1411756304E-02   0.1057054957E+01
   0.1006198572E+01   0.1291367294E-02   0.9987086327E+00   0.5220888456E-04   0.1225582662E-04  -0.1225582662E-04   0.6146363610E-02   0.1279111468E-02  -0.1279111468E-02   0.1064829783E+01   0.6870784602E-02   0.6870784602E-02  -0.1567832805E-02   0.1567832805E-02  -0.2991706699E-07   0.1227819895E-02   0.1057979954E+01
   0.1006198572E+01   0.9987086327E+00   0.9987086327E+00   0.5220888456E-04  -0.1225582662E-04  -0.1225582662E-04   0.6146363610E-02  -0.1279111468E-02  -0.1279111468E-02   0.1064829783E+01   0.6870784602E-02   0.6870784602E-02   0.1567832805E-02   0.1567832805E-02   0.2991700494E-07   0.1227819895E-02   0.1057979954E+01
   0.0000000000E+00   0.9983920385E+00   0.9983920385E+00   0.0000000000E+00  -0.9903745524E-05  -0.9903745524E-05   0.0000000000E+00  -0.1598057722E-02  -0.1598057722E-02   0.1058999081E+01   0.1962028869E-02   0.1962028869E-02   0.1449550607E-02   0.1449550607E-02   0.3243294590E-07   0.1411756303E-02   0.1057054957E+01
   0.2011400000E+01   0.1115686190E-02   0.1115686190E-02   0.1000000000E-03   0.1444047236E-04   0.1444047236E-04   0.1130000000E-01   0.1101245718E-02   0.1101245718E-02   0.1070436504E+01   0.1172715384E-01   0.1172715384E-01  -0.1692595269E-02  -0.1692595269E-02   0.2754089524E-07   0.1065828329E-02   0.1058733722E+01
   0.2011400000E+01   0.9988843138E+00   0.1115686190E-02   0.1000000000E-03  -0.1444047236E-04   0.1444047236E-04   0.1130000000E-01  -0.1101245718E-02   0.1101245718E-02   0.1070436504E+01   0.1172715384E-01   0.1172715384E-01   0.1692595268E-02  -0.1692595268E-02  -0.2754070708E-07   0.1065828329E-02   0.1058733722E+01
   0.2011400000E+01   0.1115686190E-02   0.9988843138E+00   0.1000000000E-03   0.1444047236E-04  -0.1444047236E-04   0.1130000000E-01   0.1101245718E-02  -0.1101245718E-02   0.1070436504E+01   0.1172715384E-01   0.1172715384E-01  -0.1692595268E-02   0.1692595268E-02  -0.2754070710E-07   0.1065828329E-02   0.1058733722E+01
   0.2011400000E+01   0.9988843138E+00   0.9988843138E+00   0.1000000000E-03  -0.1444047236E-04  -0.1444047236E-04   0.1130000000E-01  -0.1101245718E-02  -0.1101245718E-02   0.1070436504E+01   0.1172715384E-01   0.1172715384E-01   0.1692595268E-02   0.1692595268E-02   0.2754051893E-07   0.1065828329E-02   0.1058733722E+01
     1     2     3     4     5     6     7     8
     2     9    10     3     6    11    12     7
 VARIABLES = X,Y,Z,DU1,DU2,DU3,U1,U2,U3,S11,S22,S33,S12,S13,S23,Vf,SMISES
 ZONE, T="0.1150D+01" F=FEPOINT, I=   12 J=    2 ET=BRICK
   0.0000000000E+00   0.1618102583E-02   0.1618102583E-02   0.0000000000E+00   0.1014111540E-04   0.1014111540E-04   0.0000000000E+00   0.1607961468E-02   0.1607961468E-02   0.1066285764E+01   0.9155659616E-02   0.9155659616E-02  -0.1099765458E-02  -0.1099765458E-02   0.2975656551E-07   0.1425705314E-02   0.1057140415E+01
   0.1006250700E+01   0.1303776179E-02   0.1303776179E-02   0.5212750157E-04   0.1240888441E-04   0.1240888441E-04   0.6198572494E-02   0.1291367294E-02   0.1291367294E-02   0.1065642138E+01   0.7449573231E-02   0.7449573231E-02  -0.1221377965E-02  -0.1221377965E-02   0.2730612706E-07   0.1241736847E-02   0.1058205303E+01
   0.1006250700E+01   0.9986962238E+00   0.1303776179E-02   0.5212750157E-04  -0.1240888441E-04   0.1240888441E-04   0.6198572494E-02  -0.1291367294E-02   0.1291367294E-02   0.1065642138E+01   0.7449573231E-02   0.7449573231E-02   0.1221377965E-02  -0.1221377965E-02  -0.2730606690E-07   0.1241736847E-02   0.1058205303E+01
   0.0000000000E+00   0.9983818974E+00   0.1618102583E-02   0.0000000000E+00  -0.1014111540E-04   0.1014111540E-04   0.0000000000E+00  -0.1607961468E-02   0.1607961468E-02   0.1066285764E+01   0.9155659615E-02   0.9155659615E-02   0.1099765458E-02  -0.1099765458E-02  -0.2975658055E-07   0.1425705314E-02   0.1057140415E+01
   0.0000000000E+00   0.1618102583E-02   0.9983818974E+00   0.0000000000E+00   0.1014111540E-04  -0.1014111540E-04   0.0000000000E+00   0.1607961468E-02  -0.1607961468E-02   0.1066285764E+01   0.9155659615E-02   0.9155659615E-02  -0.1099765458E-02   0.1099765458E-02  -0.2975658053E-07   0.1425705314E-02   0.1057140415E+01
   0.1006250700E+01   0.1303776179E-02   0.9986962238E+00   0.5212750157E-04   0.1240888441E-04  -0.1240888441E-04   0.6198572494E-02   0.1291367294E-02  -0.1291367294E-02   0.1065642138E+01   0.7449573231E-02   0.7449573231E-02  -0.1221377965E-02   0.1221377965E-02  -0.2730606691E-07   0.1241736847E-02   0.1058205303E+01
   0.1006250700E+01   0.9986962238E+00   0.9986962238E+00   0.5212750157E-04  -0.1240888441E-04  -0.1240888441E-04   0.6198572494E-02  -0.1291367294E-02  -0.1291367294E-02   0.1065642138E+01   0.7449573231E-02   0.7449573231E-02   0.1221377965E-02   0.1221377965E-02   0.2730600675E-07   0.1241736847E-02   0.1058205303E+01
   0.0000000000E+00   0.9983818974E+00   0.9983818974E+00   0.0000000000E+00  -0.1014111540E-04  -0.1014111540E-04   0.0000000000E+00  -0.1607961468E-02  -0.1607961468E-02   0.1066285764E+01   0.9155659615E-02   0.9155659615E-02   0.1099765458E-02   0.1099765458E-02   0.2975659558E-07   0.1425705314E-02   0.1057140415E+01
   0.2011500000E+01   0.1130202902E-02   0.1130202902E-02   0.1000000000E-03   0.1451671198E-04   0.1451671198E-04   0.1140000000E-01   0.1115686190E-02   0.1115686190E-02   0.1064776878E+01   0.5688808680E-02   0.5688808680E-02  -0.1349059651E-02  -0.1349059651E-02   0.2499414543E-07   0.1079704574E-02   0.1059103551E+01
   0.2011500000E+01   0.9988697971E+00   0.1130202902E-02   0.1000000000E-03  -0.1451671198E-04   0.1451671198E-04   0.1140000000E-01  -0.1115686190E-02   0.1115686190E-02   0.1064776878E+01   0.5688808679E-02   0.5688808679E-02   0.1349059651E-02  -0.1349059651E-02  -0.2499397905E-07   0.1079704574E-02   0.1059103551E+01
   0.2011500000E+01   0.1130202902E-02   0.9988697971E+00   0.1000000000E-03   0.1451671198E-04  -0.1451671198E-04   0.1140000000E-01   0.1115686190E-02  -0.1115686190E-02   0.1064776878E+01   0.5688808679E-02   0.5688808679E-02  -0.1349059651E-02   0.1349059651E-02  -0.2499397907E-07   0.1079704574E-02   0.1059103551E+01
   0.2011500000E+01   0.9988697971E+00   0.9988697971E+00   0.1000000000E-03  -0.1451671198E-04  -0.1451671198E-04   0.1140000000E-01  -0.1115686190E-02  -0.1115686190E-02   0.1064776878E+01   0.5688808679E-02   0.5688808679E-02   0.1349059651E-02   0.1349059651E-02   0.2499381268E-07   0.1079704574E-02   0.1059103551E+01
     1     2     3     4     5     6     7     8
     2     9    10     3     6    11    12     7
 VARIABLES = X,Y,Z,DU1,DU2,DU3,U1,U2,U3,S11,S22,S33,S12,S13,S23,Vf,SMISES
 ZONE, T="0.1160D+01" F=FEPOINT, I=   12 J=    2 ET=BRICK
   0.0000000000E+00   0.1628604731E-02   0.1628604731E-02   0.0000000000E+00   0.1050214770E-04   0.1050214770E-04   0.0000000000E+00   0.1618102583E-02   0.1618102583E-02   0.1072796505E+01   0.1545782086E-01   0.1545782086E-01  -0.7772210756E-03  -0.7772210756E-03   0.2749715526E-07   0.1439707071E-02   0.1057343838E+01
   0.1006302623E+01   0.1316330711E-02   0.1316330711E-02   0.5192298328E-04   0.1255453176E-04   0.1255453176E-04   0.6250699996E-02   0.1303776179E-02   0.1303776179E-02   0.1065874951E+01   0.7397366188E-02   0.7397366188E-02  -0.9016497376E-03  -0.9016497376E-03   0.2509970620E-07   0.1255716673E-02   0.1058484553E+01
   0.1006302623E+01   0.9986836693E+00   0.1316330711E-02   0.5192298328E-04  -0.1255453176E-04   0.1255453176E-04   0.6250699996E-02  -0.1303776179E-02   0.1303776179E-02   0.1065874951E+01   0.7397366188E-02   0.7397366187E-02   0.9016497373E-03  -0.9016497375E-03  -0.2509964990E-07   0.1255716673E-02   0.1058484553E+01
   0.0000000000E+00   0.9983713953E+00   0.1628604731E-02   0.0000000000E+00  -0.1050214770E-04   0.1050214770E-04   0.0000000000E+00  -0.1618102583E-02   0.1618102583E-02   0.1072796505E+01   0.1545782086E-01   0.1545782086E-01   0.7772210753E-03  -0.7772210756E-03  -0.2749715820E-07   0.1439707071E-02   0.1057343838E+01
   0.0000000000E+00   0.1628604731E-02   0.9983713953E+00   0.0000000000E+00   0.1050214770E-04  -0.1050214770E-04   0.0000000000E+00   0.1618102583E-02  -0.1618102583E-02   0.1072796505E+01   0.1545782086E-01   0.1545782086E-01  -0.7772210756E-03   0.7772210753E-03  -0.2749715818E-07   0.1439707071E-02   0.1057343838E+01
   0.1006302623E+01   0.1316330711E-02   0.9986836693E+00   0.5192298328E-04   0.1255453176E-04  -0.1255453176E-04   0.6250699996E-02   0.1303776179E-02  -0.1303776179E-02   0.1065874951E+01   0.7397366187E-02   0.7397366188E-02  -0.9016497375E-03   0.9016497373E-03  -0.2509964990E-07   0.1255716673E-02   0.1058484553E+01
   0.1006302623E+01   0.9986836693E+00   0.9986836693E+00   0.5192298328E-04  -0.1255453176E-04  -0.1255453176E-04   0.6250699996E-02  -0.1303776179E-02  -0.1303776179E-02   0.1065874951E+01   0.7397366187E-02   0.7397366187E-02   0.9016497372E-03   0.9016497372E-03   0.2509959359E-07   0.1255716673E-02   0.1058484553E+01
   0.0000000000E+00   0.9983713953E+00   0.9983713953E+00   0.0000000000E+00  -0.1050214770E-04  -0.1050214770E-04   0.0000000000E+00  -0.1618102583E-02  -0.1618102583E-02   0.1072796505E+01   0.1545782086E-01   0.1545782086E-01   0.7772210752E-03   0.7772210752E-03   0.2749716112E-07   0.1439707071E-02   0.1057343838E+01
   0.2011600000E+01   0.1144657611E-02   0.1144657611E-02   0.1000000000E-03   0.1445470839E-04   0.1445470839E-04   0.1150000000E-01   0.1130202902E-02   0.1130202902E-02   0.1058734328E+01  -0.7201912754E-03  -0.7201912754E-03  -0.1031713885E-02  -0.1031713885E-02   0.2283966946E-07   0.1093654434E-02   0.1059463576E+01
   0.2011600000E+01   0.9988553424E+00   0.1144657611E-02   0.1000000000E-03  -0.1445470839E-04   0.1445470839E-04   0.1150000000E-01  -0.1130202902E-02   0.1130202902E-02   0.1058734328E+01  -0.7201912752E-03  -0.7201912755E-03   0.1031713885E-02  -0.1031713885E-02  -0.2283952601E-07   0.1093654434E-02   0.1059463576E+01
   0.2011600000E+01   0.1144657611E-02   0.9988553424E+00   0.1000000000E-03   0.1445470839E-04  -0.1445470839E-04   0.1150000000E-01   0.1130202902E-02  -0.1130202902E-02   0.1058734328E+01  -0.7201912755E-03  -0.7201912752E-03  -0.1031713885E-02   0.1031713885E-02  -0.2283952603E-07   0.1093654434E-02   0.1059463576E+01
   0.2011600000E+01   0.9988553424E+00   0.9988553424E+00   0.1000000000E-03  -0.1445470839E-04  -0.1445470839E-04   0.1150000000E-01  -0.1130202902E-02  -0.1130202902E-02   0.1058734328E+01  -0.7201912753E-03  -0.7201912753E-03   0.1031713885E-02   0.1031713885E-02   0.2283938255E-07   0.1093654434E-02   0.1059463575E+01
     1     2     3     4     5     6     7     8
     2     9    10     3     6    11    12     7
 VARIABLES = X,Y,Z,DU1,DU2,DU3,U1,U2,U3,S11,S22,S33,S12,S13,S23,Vf,SMISES
 ZONE, T="0.1170D+01" F=FEPOINT, I=   12 J=    2 ET=BRICK
   0.0000000000E+00   0.1639562504E-02   0.1639562504E-02   0.0000000000E+00   0.1095777358E-04   0.1095777358E-04   0.0000000000E+00   0.1628604731E-02   0.1628604731E-02   0.1078165577E+01   0.2052871893E-01   0.2052871893E-01  -0.4961541547E-03  -0.4961541547E-03   0.2562813562E-07   0.1453776554E-02   0.1057638963E+01
   0.1006354234E+01   0.1329011972E-02   0.1329011972E-02   0.5161118365E-04   0.1268126118E-04   0.1268126118E-04   0.6302622979E-02   0.1316330711E-02   0.1316330711E-02   0.1065539326E+01   0.6752080623E-02   0.6752080623E-02  -0.6229114599E-03  -0.6229114599E-03   0.2327988511E-07   0.1269763675E-02   0.1058790605E+01
   0.1006354234E+01   0.9986709880E+00   0.1329011972E-02   0.5161118365E-04  -0.1268126118E-04   0.1268126118E-04   0.6302622979E-02  -0.1316330711E-02   0.1316330711E-02   0.1065539326E+01   0.6752080622E-02   0.6752080622E-02   0.6229114596E-03  -0.6229114598E-03  -0.2327983440E-07   0.1269763675E-02   0.1058790605E+01
   0.0000000000E+00   0.9983604375E+00   0.1639562504E-02   0.0000000000E+00  -0.1095777358E-04   0.1095777358E-04   0.0000000000E+00  -0.1628604731E-02   0.1628604731E-02   0.1078165577E+01   0.2052871893E-01   0.2052871893E-01   0.4961541544E-03  -0.4961541547E-03  -0.2562812988E-07   0.1453776554E-02   0.1057638963E+01
   0.0000000000E+00   0.1639562504E-02   0.9983604375E+00   0.0000000000E+00   0.1095777358E-04  -0.1095777358E-04   0.0000000000E+00   0.1628604731E-02  -0.1628604731E-02   0.1078165577E+01   0.2052871893E-01   0.2052871893E-01  -0.4961541547E-03   0.4961541544E-03  -0.2562812985E-07   0.1453776554E-02   0.1057638963E+01
   0.1006354234E+01   0.1329011972E-02   0.9986709880E+00   0.5161118365E-04   0.1268126118E-04  -0.1268126118E-04   0.6302622979E-02   0.1316330711E-02  -0.1316330711E-02   0.1065539326E+01   0.6752080622E-02   0.6752080622E-02  -0.6229114598E-03   0.6229114596E-03  -0.2327983441E-07   0.1269763675E-02   0.1058790605E+01
   0.1006354234E+01   0.9986709880E+00   0.9986709880E+00   0.5161118365E-04  -0.1268126118E-04  -0.1268126118E-04   0.6302622979E-02  -0.1316330711E-02  -0.1316330711E-02   0.1065539326E+01   0.6752080622E-02   0.6752080622E-02   0.6229114595E-03   0.6229114595E-03   0.2327978369E-07   0.1269763674E-02   0.1058790605E+01
   0.0000000000E+00   0.9983604375E+00   0.9983604375E+00   0.0000000000E+00  -0.1095777358E-04  -0.1095777358E-04   0.0000000000E+00  -0.1628604731E-02  -0.1628604731E-02   0.1078165577E+01   0.2052871893E-01   0.2052871893E-01   0.4961541543E-03   0.4961541543E-03   0.2562812411E-07   0.1453776554E-02   0.1057638963E+01
   0.2011700000E+01   0.1158918077E-02   0.1158918077E-02   0.1000000000E-03   0.1426046629E-04   0.1426046629E-04   0.1160000000E-01   0.1144657611E-02   0.1144657611E-02   0.1052696878E+01  -0.7084281029E-02  -0.7084281029E-02  -0.7548668355E-03  -0.7548668355E-03   0.2106799426E-07   0.1107671925E-02   0.1059786011E+01
   0.2011700000E+01   0.9988410819E+00   0.1158918077E-02   0.1000000000E-03  -0.1426046629E-04   0.1426046629E-04   0.1160000000E-01  -0.1144657611E-02   0.1144657611E-02   0.1052696878E+01  -0.7084281028E-02  -0.7084281028E-02   0.7548668350E-03  -0.7548668355E-03  -0.2106787374E-07   0.1107671925E-02   0.1059786011E+01
   0.2011700000E+01   0.1158918077E-02   0.9988410819E+00   0.1000000000E-03   0.1426046629E-04  -0.1426046629E-04   0.1160000000E-01   0.1144657611E-02  -0.1144657611E-02   0.1052696878E+01  -0.7084281028E-02  -0.7084281028E-02  -0.7548668355E-03   0.7548668350E-03  -0.2106787376E-07   0.1107671925E-02   0.1059786011E+01
   0.2011700000E+01   0.9988410819E+00   0.9988410819E+00   0.1000000000E-03  -0.1426046629E-04  -0.1426046629E-04   0.1160000000E-01  -0.1144657611E-02  -0.1144657611E-02   0.1052696878E+01  -0.7084281028E-02  -0.7084281028E-02   0.7548668349E-03   0.7548668349E-03   0.2106775322E-07   0.1107671925E-02   0.1059786011E+01
     1     2     3     4     5     6     7     8
     2     9    10     3     6    11    12     7
 VARIABLES = X,Y,Z,DU1,DU2,DU3,U1,U2,U3,S11,S22,S33,S12,S13,S23,Vf,SMISES
 ZONE, T="0.1180D+01" F=FEPOINT, I=   12 J=    2 ET=BRICK
   0.0000000000E+00   0.1651037325E-02   0.1651037325E-02   0.0000000000E+00   0.1147482032E-04   0.1147482032E-04   0.0000000000E+00   0.1639562504E-02   0.1639562504E-02   0.1082119639E+01   0.2412536658E-01   0.2412536658E-01  -0.2680279525E-03  -0.2680279525E-03   0.2408000159E-07   0.1467923567E-02   0.1057994893E+01
   0.1006405448E+01   0.1341791662E-02   0.1341791662E-02   0.5121397936E-04   0.1277969025E-04   0.1277969025E-04   0.6354234163E-02   0.1329011972E-02   0.1329011972E-02   0.1064691383E+01   0.5597107643E-02   0.5597107643E-02  -0.3966237741E-03  -0.3966237741E-03   0.2178481998E-07   0.1283877549E-02   0.1059095679E+01
   0.1006405448E+01   0.9986582083E+00   0.1341791662E-02   0.5121397936E-04  -0.1277969025E-04   0.1277969025E-04   0.6354234163E-02  -0.1329011972E-02   0.1329011972E-02   0.1064691383E+01   0.5597107643E-02   0.5597107643E-02   0.3966237737E-03  -0.3966237740E-03  -0.2178477625E-07   0.1283877549E-02   0.1059095679E+01
   0.0000000000E+00   0.9983489627E+00   0.1651037325E-02   0.0000000000E+00  -0.1147482032E-04   0.1147482032E-04   0.0000000000E+00  -0.1639562504E-02   0.1639562504E-02   0.1082119639E+01   0.2412536658E-01   0.2412536658E-01   0.2680279521E-03  -0.2680279524E-03  -0.2407999098E-07   0.1467923567E-02   0.1057994893E+01
   0.0000000000E+00   0.1651037325E-02   0.9983489627E+00   0.0000000000E+00   0.1147482032E-04  -0.1147482032E-04   0.0000000000E+00   0.1639562504E-02  -0.1639562504E-02   0.1082119639E+01   0.2412536658E-01   0.2412536658E-01  -0.2680279524E-03   0.2680279521E-03  -0.2407999096E-07   0.1467923567E-02   0.1057994893E+01
   0.1006405448E+01   0.1341791662E-02   0.9986582083E+00   0.5121397936E-04   0.1277969025E-04  -0.1277969025E-04   0.6354234163E-02   0.1329011972E-02  -0.1329011972E-02   0.1064691383E+01   0.5597107643E-02   0.5597107643E-02  -0.3966237740E-03   0.3966237737E-03  -0.2178477626E-07   0.1283877549E-02   0.1059095679E+01
   0.1006405448E+01   0.9986582083E+00   0.9986582083E+00   0.5121397936E-04  -0.1277969025E-04  -0.1277969025E-04   0.6354234163E-02  -0.1329011972E-02  -0.1329011972E-02   0.1064691383E+01   0.5597107643E-02   0.5597107643E-02   0.3966237737E-03   0.3966237737E-03   0.2178473253E-07   0.1283877549E-02   0.1059095679E+01
   0.0000000000E+00   0.9983489627E+00   0.9983489627E+00   0.0000000000E+00  -0.1147482032E-04  -0.1147482032E-04   0.0000000000E+00  -0.1639562504E-02  -0.1639562504E-02   0.1082119639E+01   0.2412536658E-01   0.2412536658E-01   0.2680279521E-03   0.2680279521E-03   0.2407998035E-07   0.1467923567E-02   0.1057994893E+01
   0.2011800000E+01   0.1172866425E-02   0.1172866425E-02   0.1000000000E-03   0.1394834833E-04   0.1394834833E-04   0.1170000000E-01   0.1158918077E-02   0.1158918077E-02   0.1047050137E+01  -0.1299373208E-01  -0.1299373208E-01  -0.5299953078E-03  -0.5299953078E-03   0.1962483432E-07   0.1121747033E-02   0.1060046266E+01
   0.2011800000E+01   0.9988271336E+00   0.1172866425E-02   0.1000000000E-03  -0.1394834833E-04   0.1394834833E-04   0.1170000000E-01  -0.1158918077E-02   0.1158918077E-02   0.1047050137E+01  -0.1299373208E-01  -0.1299373208E-01   0.5299953072E-03  -0.5299953077E-03  -0.1962473567E-07   0.1121747033E-02   0.1060046266E+01
   0.2011800000E+01   0.1172866425E-02   0.9988271336E+00   0.1000000000E-03   0.1394834833E-04  -0.1394834833E-04   0.1170000000E-01   0.1158918077E-02  -0.1158918077E-02   0.1047050137E+01  -0.1299373208E-01  -0.1299373208E-01  -0.5299953077E-03   0.5299953072E-03  -0.1962473569E-07   0.1121747033E-02   0.1060046266E+01
   0.2011800000E+01   0.9988271336E+00   0.9988271336E+00   0.1000000000E-03  -0.1394834833E-04  -0.1394834833E-04   0.1170000000E-01  -0.1158918077E-02  -0.1158918077E-02   0.1047050137E+01  -0.1299373208E-01  -0.1299373208E-01   0.5299953072E-03   0.5299953072E-03   0.1962463701E-07   0.1121747033E-02   0.1060046266E+01
     1     2     3     4     5     6     7     8
     2     9    10     3     6    11    12     7
 VARIABLES = X,Y,Z,DU1,DU2,DU3,U1,U2,U3,S11,S22,S33,S12,S13,S23,Vf,SMISES
 ZONE, T="0.1190D+01" F=FEPOINT, I=   12 J=    2 ET=BRICK
   0.0000000000E+00   0.1663055619E-02   0.1663055619E-02   0.0000000000E+00   0.1201829426E-04   0.1201829426E-04   0.0000000000E+00   0.1651037325E-02   0.1651037325E-02   0.1084489193E+01   0.2611047300E-01   0.2611047300E-01  -0.1009012838E-03  -0.1009012838E-03   0.2276322195E-07   0.1482152421E-02   0.1058378816E+01
   0.1006456206E+01   0.1354634863E-02   0.1354634863E-02   0.5075774158E-04   0.1284320078E-04   0.1284320078E-04   0.6405448142E-02   0.1341791662E-02   0.1341791662E-02   0.1063425349E+01   0.4052216261E-02   0.4052216261E-02  -0.2308277274E-03  -0.2308277274E-03   0.2053130087E-07   0.1298053659E-02   0.1059373655E+01
   0.1006456206E+01   0.9986453651E+00   0.1354634863E-02   0.5075774158E-04  -0.1284320078E-04   0.1284320078E-04   0.6405448142E-02  -0.1341791662E-02   0.1341791662E-02   0.1063425348E+01   0.4052216260E-02   0.4052216260E-02   0.2308277270E-03  -0.2308277274E-03  -0.2053126512E-07   0.1298053659E-02   0.1059373655E+01
   0.0000000000E+00   0.9983369444E+00   0.1663055619E-02   0.0000000000E+00  -0.1201829425E-04   0.1201829426E-04   0.0000000000E+00  -0.1651037325E-02   0.1651037325E-02   0.1084489193E+01   0.2611047300E-01   0.2611047300E-01   0.1009012834E-03  -0.1009012838E-03  -0.2276321039E-07   0.1482152421E-02   0.1058378816E+01
   0.0000000000E+00   0.1663055619E-02   0.9983369444E+00   0.0000000000E+00   0.1201829426E-04  -0.1201829425E-04   0.0000000000E+00   0.1651037325E-02  -0.1651037325E-02   0.1084489193E+01   0.2611047300E-01   0.2611047300E-01  -0.1009012838E-03   0.1009012834E-03  -0.2276321037E-07   0.1482152421E-02   0.1058378816E+01
   0.1006456206E+01   0.1354634863E-02   0.9986453651E+00   0.5075774158E-04   0.1284320078E-04  -0.1284320078E-04   0.6405448142E-02   0.1341791662E-02  -0.1341791662E-02   0.1063425348E+01   0.4052216260E-02   0.4052216260E-02  -0.2308277274E-03   0.2308277270E-03  -0.2053126513E-07   0.1298053659E-02   0.1059373655E+01
   0.1006456206E+01   0.9986453651E+00   0.9986453651E+00   0.5075774158E-04  -0.1284320078E-04  -0.1284320078E-04   0.6405448142E-02  -0.1341791662E-02  -0.1341791662E-02   0.1063425348E+01   0.4052216260E-02   0.4052216260E-02   0.2308277270E-03   0.2308277270E-03   0.2053122937E-07   0.1298053659E-02   0.1059373655E+01
   0.0000000000E+00   0.9983369444E+00   0.9983369444E+00   0.0000000000E+00  -0.1201829425E-04  -0.1201829425E-04   0.0000000000E+00  -0.1651037325E-02  -0.1651037325E-02   0.1084489193E+01   0.2611047300E-01   0.2611047300E-01   0.1009012834E-03   0.1009012834E-03   0.2276319881E-07   0.1482152421E-02   0.1058378816E+01
   0.2011900000E+01   0.1186406496E-02   0.1186406496E-02   0.1000000000E-03   0.1354007040E-04   0.1354007040E-04   0.1180000000E-01   0.1172866425E-02   0.1172866425E-02   0.1042152025E+01  -0.1807172748E-01  -0.1807172748E-01  -0.3651397246E-03  -0.3651397246E-03   0.1843315117E-07   0.1135866540E-02   0.1060224894E+01
   0.2011900000E+01   0.9988135935E+00   0.1186406496E-02   0.1000000000E-03  -0.1354007040E-04   0.1354007040E-04   0.1180000000E-01  -0.1172866425E-02   0.1172866425E-02   0.1042152025E+01  -0.1807172747E-01  -0.1807172747E-01   0.3651397241E-03  -0.3651397246E-03  -0.1843307239E-07   0.1135866540E-02   0.1060224894E+01
   0.2011900000E+01   0.1186406496E-02   0.9988135935E+00   0.1000000000E-03   0.1354007040E-04  -0.1354007040E-04   0.1180000000E-01   0.1172866425E-02  -0.1172866425E-02   0.1042152025E+01  -0.1807172747E-01  -0.1807172747E-01  -0.3651397246E-03   0.3651397241E-03  -0.1843307241E-07   0.1135866540E-02   0.1060224894E+01
   0.2011900000E+01   0.9988135935E+00   0.9988135935E+00   0.1000000000E-03  -0.1354007040E-04  -0.1354007040E-04   0.1180000000E-01  -0.1172866425E-02  -0.1172866425E-02   0.1042152025E+01  -0.1807172747E-01  -0.1807172747E-01   0.3651397241E-03   0.3651397241E-03   0.1843299359E-07   0.1135866540E-02   0.1060224894E+01
     1     2     3     4     5     6     7     8
     2     9    10     3     6    11    12     7
 VARIABLES = X,Y,Z,DU1,DU2,DU3,U1,U2,U3,S11,S22,S33,S12,S13,S23,Vf,SMISES
 ZONE, T="0.1200D+01" F=FEPOINT, I=   12 J=    2 ET=BRICK
   0.0000000000E+00   0.1675609249E-02   0.1675609249E-02   0.0000000000E+00   0.1255363009E-04   0.1255363009E-04   0.0000000000E+00   0.1663055619E-02   0.1663055619E-02   0.1085212761E+01   0.2645411039E-01   0.2645411039E-01   0.9662895075E-06   0.9662895075E-06   0.2159173832E-07   0.1496462026E-02   0.1058758659E+01
   0.1006506477E+01   0.1367503186E-02   0.1367503186E-02   0.5027158750E-04   0.1286832280E-04   0.1286832280E-04   0.6456205884E-02   0.1354634863E-02   0.1354634863E-02   0.1061863943E+01   0.2262035090E-02   0.2262035090E-02  -0.1297652073E-03  -0.1297652073E-03   0.1943786179E-07   0.1312283635E-02   0.1059602125E+01
   0.1006506477E+01   0.9986324968E+00   0.1367503186E-02   0.5027158750E-04  -0.1286832280E-04   0.1286832280E-04   0.6456205884E-02  -0.1354634863E-02   0.1354634863E-02   0.1061863943E+01   0.2262035090E-02   0.2262035090E-02   0.1297652069E-03  -0.1297652073E-03  -0.1943783454E-07   0.1312283635E-02   0.1059602125E+01
   0.0000000000E+00   0.9983243908E+00   0.1675609249E-02   0.0000000000E+00  -0.1255363009E-04   0.1255363009E-04   0.0000000000E+00  -0.1663055619E-02   0.1663055619E-02   0.1085212761E+01   0.2645411039E-01   0.2645411039E-01  -0.9662898904E-06   0.9662895107E-06  -0.2159172957E-07   0.1496462026E-02   0.1058758659E+01
   0.0000000000E+00   0.1675609249E-02   0.9983243908E+00   0.0000000000E+00   0.1255363009E-04  -0.1255363009E-04   0.0000000000E+00   0.1663055619E-02  -0.1663055619E-02   0.1085212761E+01   0.2645411039E-01   0.2645411039E-01   0.9662895106E-06  -0.9662898904E-06  -0.2159172955E-07   0.1496462026E-02   0.1058758659E+01
   0.1006506477E+01   0.1367503186E-02   0.9986324968E+00   0.5027158750E-04   0.1286832280E-04  -0.1286832280E-04   0.6456205884E-02   0.1354634863E-02  -0.1354634863E-02   0.1061863943E+01   0.2262035090E-02   0.2262035090E-02  -0.1297652073E-03   0.1297652069E-03  -0.1943783454E-07   0.1312283635E-02   0.1059602125E+01
   0.1006506477E+01   0.9986324968E+00   0.9986324968E+00   0.5027158750E-04  -0.1286832280E-04  -0.1286832280E-04   0.6456205884E-02  -0.1354634863E-02  -0.1354634863E-02   0.1061863943E+01   0.2262035089E-02   0.2262035089E-02   0.1297652069E-03   0.1297652069E-03   0.1943780728E-07   0.1312283635E-02   0.1059602125E+01
   0.0000000000E+00   0.9983243908E+00   0.9983243908E+00   0.0000000000E+00  -0.1255363009E-04  -0.1255363009E-04   0.0000000000E+00  -0.1663055619E-02  -0.1663055619E-02   0.1085212761E+01   0.2645411039E-01   0.2645411039E-01  -0.9662898935E-06  -0.9662898935E-06   0.2159172079E-07   0.1496462026E-02   0.1058758659E+01
   0.2012000000E+01   0.1199469716E-02   0.1199469716E-02   0.1000000000E-03   0.1306322011E-04   0.1306322011E-04   0.1190000000E-01   0.1186406496E-02   0.1186406496E-02   0.1038309382E+01  -0.2199906431E-01  -0.2199906431E-01  -0.2645384602E-03  -0.2645384602E-03   0.1741591436E-07   0.1150015122E-02   0.1060309050E+01
   0.2012000000E+01   0.9988005303E+00   0.1199469716E-02   0.1000000000E-03  -0.1306322010E-04   0.1306322011E-04   0.1190000000E-01  -0.1186406496E-02   0.1186406496E-02   0.1038309382E+01  -0.2199906431E-01  -0.2199906431E-01   0.2645384597E-03  -0.2645384602E-03  -0.1741585266E-07   0.1150015122E-02   0.1060309050E+01
   0.2012000000E+01   0.1199469716E-02   0.9988005303E+00   0.1000000000E-03   0.1306322011E-04  -0.1306322010E-04   0.1190000000E-01   0.1186406496E-02  -0.1186406496E-02   0.1038309382E+01  -0.2199906431E-01  -0.2199906431E-01  -0.2645384602E-03   0.2645384597E-03  -0.1741585268E-07   0.1150015122E-02   0.1060309050E+01
   0.2012000000E+01   0.9988005303E+00   0.9988005303E+00   0.1000000000E-03  -0.1306322010E-04  -0.1306322010E-04   0.1190000000E-01  -0.1186406496E-02  -0.1186406496E-02   0.1038309382E+01  -0.2199906431E-01  -0.2199906431E-01   0.2645384596E-03   0.2645384596E-03   0.1741579094E-07   0.1150015122E-02   0.1060309050E+01
     1     2     3     4     5     6     7     8
     2     9    10     3     6    11    12     7
 VARIABLES = X,Y,Z,DU1,DU2,DU3,U1,U2,U3,S11,S22,S33,S12,S13,S23,Vf,SMISES
 ZONE, T="0.1210D+01" F=FEPOINT, I=   12 J=    2 ET=BRICK
   0.0000000000E+00   0.1688695261E-02   0.1688695261E-02   0.0000000000E+00   0.1308601260E-04   0.1308601260E-04   0.0000000000E+00   0.1675609249E-02   0.1675609249E-02   0.1079841836E+01   0.2614048789E-01   0.2614048789E-01   0.3698796723E-04   0.3698796723E-04   0.2039973905E-07   0.1513075095E-02   0.1053701367E+01
   0.1006556305E+01   0.1380356813E-02   0.1380356813E-02   0.4982796852E-04   0.1285362713E-04   0.1285362713E-04   0.6506477471E-02   0.1367503186E-02   0.1367503186E-02   0.1059545154E+01   0.5053314825E-03   0.5053314825E-03  -0.9378716971E-04  -0.9378716971E-04   0.1842953812E-07   0.1326854850E-02   0.1059039973E+01
   0.1006556305E+01   0.9986196432E+00   0.1380356813E-02   0.4982796852E-04  -0.1285362713E-04   0.1285362713E-04   0.6506477471E-02  -0.1367503186E-02   0.1367503186E-02   0.1059545154E+01   0.5053314825E-03   0.5053314824E-03   0.9378716933E-04  -0.9378716970E-04  -0.1842951940E-07   0.1326854850E-02   0.1059039973E+01
   0.0000000000E+00   0.9983113047E+00   0.1688695261E-02   0.0000000000E+00  -0.1308601260E-04   0.1308601260E-04   0.0000000000E+00  -0.1675609249E-02   0.1675609249E-02   0.1079841836E+01   0.2614048789E-01   0.2614048789E-01  -0.3698796762E-04   0.3698796723E-04  -0.2039973645E-07   0.1513075095E-02   0.1053701367E+01
   0.0000000000E+00   0.1688695261E-02   0.9983113047E+00   0.0000000000E+00   0.1308601260E-04  -0.1308601260E-04   0.0000000000E+00   0.1675609249E-02  -0.1675609249E-02   0.1079841836E+01   0.2614048789E-01   0.2614048789E-01   0.3698796723E-04  -0.3698796762E-04  -0.2039973642E-07   0.1513075095E-02   0.1053701367E+01
   0.1006556305E+01   0.1380356813E-02   0.9986196432E+00   0.4982796852E-04   0.1285362713E-04  -0.1285362713E-04   0.6506477471E-02   0.1367503186E-02  -0.1367503186E-02   0.1059545154E+01   0.5053314824E-03   0.5053314825E-03  -0.9378716970E-04   0.9378716933E-04  -0.1842951940E-07   0.1326854850E-02   0.1059039973E+01
   0.1006556305E+01   0.9986196432E+00   0.9986196432E+00   0.4982796852E-04  -0.1285362713E-04  -0.1285362713E-04   0.6506477471E-02  -0.1367503186E-02  -0.1367503186E-02   0.1059545154E+01   0.5053314824E-03   0.5053314824E-03   0.9378716932E-04   0.9378716932E-04   0.1842950068E-07   0.1326854850E-02   0.1059039973E+01
   0.0000000000E+00   0.9983113047E+00   0.9983113047E+00   0.0000000000E+00  -0.1308601260E-04  -0.1308601260E-04   0.0000000000E+00  -0.1675609249E-02  -0.1675609249E-02   0.1079841836E+01   0.2614048789E-01   0.2614048789E-01  -0.3698796762E-04  -0.3698796762E-04   0.2039973381E-07   0.1513075095E-02   0.1053701367E+01
   0.2012100000E+01   0.1212019117E-02   0.1212019117E-02   0.1000000000E-03   0.1254940136E-04   0.1254940136E-04   0.1200000000E-01   0.1199469716E-02   0.1199469716E-02   0.1035758087E+01  -0.2453481005E-01  -0.2453481005E-01  -0.2285119211E-03  -0.2285119211E-03   0.1651428485E-07   0.1164176589E-02   0.1060293349E+01
   0.2012100000E+01   0.9987879809E+00   0.1212019117E-02   0.1000000000E-03  -0.1254940136E-04   0.1254940136E-04   0.1200000000E-01  -0.1199469716E-02   0.1199469716E-02   0.1035758087E+01  -0.2453481005E-01  -0.2453481005E-01   0.2285119205E-03  -0.2285119211E-03  -0.1651423692E-07   0.1164176589E-02   0.1060293349E+01
   0.2012100000E+01   0.1212019117E-02   0.9987879809E+00   0.1000000000E-03   0.1254940136E-04  -0.1254940136E-04   0.1200000000E-01   0.1199469716E-02  -0.1199469716E-02   0.1035758087E+01  -0.2453481005E-01  -0.2453481005E-01  -0.2285119211E-03   0.2285119205E-03  -0.1651423694E-07   0.1164176589E-02   0.1060293349E+01
   0.2012100000E+01   0.9987879809E+00   0.9987879809E+00   0.1000000000E-03  -0.1254940136E-04  -0.1254940136E-04   0.1200000000E-01  -0.1199469716E-02  -0.1199469716E-02   0.1035758087E+01  -0.2453481005E-01  -0.2453481005E-01   0.2285119205E-03   0.2285119205E-03   0.1651418896E-07   0.1164176589E-02   0.1060293349E+01
     1     2     3     4     5     6     7     8
     2     9    10     3     6    11    12     7
 VARIABLES = X,Y,Z,DU1,DU2,DU3,U1,U2,U3,S11,S22,S33,S12,S13,S23,Vf,SMISES
 ZONE, T="0.1220D+01" F=FEPOINT, I=   12 J=    2 ET=BRICK
   0.0000000000E+00   0.1702294023E-02   0.1702294023E-02   0.0000000000E+00   0.1359876193E-04   0.1359876193E-04   0.0000000000E+00   0.1688695261E-02   0.1688695261E-02   0.1068193452E+01   0.2469648919E-01   0.2469648919E-01   0.6447625511E-05   0.6447625511E-05   0.1917037523E-07   0.1532349042E-02   0.1043496970E+01
   0.1006605792E+01   0.1393151837E-02   0.1393151837E-02   0.4948655732E-04   0.1279502435E-04   0.1279502435E-04   0.6556305440E-02   0.1380356813E-02   0.1380356813E-02   0.1056539812E+01  -0.1177851103E-02  -0.1177851103E-02  -0.1215635299E-03  -0.1215635299E-03   0.1747720022E-07   0.1341803456E-02   0.1057717863E+01
   0.1006605792E+01   0.9986068482E+00   0.1393151837E-02   0.4948655732E-04  -0.1279502435E-04   0.1279502435E-04   0.6556305440E-02  -0.1380356813E-02   0.1380356813E-02   0.1056539812E+01  -0.1177851103E-02  -0.1177851103E-02   0.1215635295E-03  -0.1215635299E-03  -0.1747718996E-07   0.1341803456E-02   0.1057717863E+01
   0.0000000000E+00   0.9982977060E+00   0.1702294023E-02   0.0000000000E+00  -0.1359876193E-04   0.1359876193E-04   0.0000000000E+00  -0.1688695261E-02   0.1688695261E-02   0.1068193452E+01   0.2469648919E-01   0.2469648919E-01  -0.6447625907E-05   0.6447625515E-05  -0.1917038242E-07   0.1532349042E-02   0.1043496970E+01
   0.0000000000E+00   0.1702294023E-02   0.9982977060E+00   0.0000000000E+00   0.1359876193E-04  -0.1359876193E-04   0.0000000000E+00   0.1688695261E-02  -0.1688695261E-02   0.1068193452E+01   0.2469648919E-01   0.2469648919E-01   0.6447625515E-05  -0.6447625907E-05  -0.1917038240E-07   0.1532349042E-02   0.1043496970E+01
   0.1006605792E+01   0.1393151837E-02   0.9986068482E+00   0.4948655732E-04   0.1279502435E-04  -0.1279502435E-04   0.6556305440E-02   0.1380356813E-02  -0.1380356813E-02   0.1056539812E+01  -0.1177851103E-02  -0.1177851103E-02  -0.1215635299E-03   0.1215635295E-03  -0.1747718997E-07   0.1341803456E-02   0.1057717863E+01
   0.1006605792E+01   0.9986068482E+00   0.9986068482E+00   0.4948655732E-04  -0.1279502435E-04  -0.1279502435E-04   0.6556305440E-02  -0.1380356813E-02  -0.1380356813E-02   0.1056539812E+01  -0.1177851103E-02  -0.1177851103E-02   0.1215635295E-03   0.1215635295E-03   0.1747717969E-07   0.1341803455E-02   0.1057717863E+01
   0.0000000000E+00   0.9982977060E+00   0.9982977060E+00   0.0000000000E+00  -0.1359876193E-04  -0.1359876193E-04   0.0000000000E+00  -0.1688695261E-02  -0.1688695261E-02   0.1068193452E+01   0.2469648918E-01   0.2469648918E-01  -0.6447625910E-05  -0.6447625910E-05   0.1917038958E-07   0.1532349042E-02   0.1043496970E+01
   0.2012200000E+01   0.1224050274E-02   0.1224050274E-02   0.1000000000E-03   0.1203115639E-04   0.1203115639E-04   0.1210000000E-01   0.1212019117E-02   0.1212019117E-02   0.1034595747E+01  -0.2556384375E-01  -0.2556384375E-01  -0.2534483047E-03  -0.2534483047E-03   0.1569765136E-07   0.1178331819E-02   0.1060160144E+01
   0.2012200000E+01   0.9987759497E+00   0.1224050274E-02   0.1000000000E-03  -0.1203115639E-04   0.1203115639E-04   0.1210000000E-01  -0.1212019117E-02   0.1212019117E-02   0.1034595747E+01  -0.2556384374E-01  -0.2556384374E-01   0.2534483041E-03  -0.2534483047E-03  -0.1569761362E-07   0.1178331819E-02   0.1060160144E+01
   0.2012200000E+01   0.1224050274E-02   0.9987759497E+00   0.1000000000E-03   0.1203115639E-04  -0.1203115639E-04   0.1210000000E-01   0.1212019117E-02  -0.1212019117E-02   0.1034595747E+01  -0.2556384374E-01  -0.2556384374E-01  -0.2534483047E-03   0.2534483041E-03  -0.1569761364E-07   0.1178331819E-02   0.1060160144E+01
   0.2012200000E+01   0.9987759497E+00   0.9987759497E+00   0.1000000000E-03  -0.1203115639E-04  -0.1203115639E-04   0.1210000000E-01  -0.1212019117E-02  -0.1212019117E-02   0.1034595747E+01  -0.2556384374E-01  -0.2556384374E-01   0.2534483041E-03   0.2534483041E-03   0.1569757585E-07   0.1178331819E-02   0.1060160144E+01
     1     2     3     4     5     6     7     8
     2     9    10     3     6    11    12     7
 VARIABLES = X,Y,Z,DU1,DU2,DU3,U1,U2,U3,S11,S22,S33,S12,S13,S23,Vf,SMISES
 ZONE, T="0.1230D+01" F=FEPOINT, I=   12 J=    2 ET=BRICK
   0.0000000000E+00   0.1716362517E-02   0.1716362517E-02   0.0000000000E+00   0.1406849379E-04   0.1406849379E-04   0.0000000000E+00   0.1702294023E-02   0.1702294023E-02   0.1050589586E+01   0.2164093653E-01   0.2164093653E-01  -0.8880948446E-04  -0.8880948446E-04   0.1792855785E-07   0.1554443970E-02   0.1028948724E+01
   0.1006655093E+01   0.1405838979E-02   0.1405838979E-02   0.4930145609E-04   0.1268714224E-04   0.1268714224E-04   0.6605791997E-02   0.1393151837E-02   0.1393151837E-02   0.1052966088E+01  -0.2769660483E-02  -0.2769660483E-02  -0.2087783649E-03  -0.2087783649E-03   0.1658406088E-07   0.1357137996E-02   0.1055736183E+01
   0.1006655093E+01   0.9985941610E+00   0.1405838979E-02   0.4930145609E-04  -0.1268714224E-04   0.1268714224E-04   0.6605791997E-02  -0.1393151837E-02   0.1393151837E-02   0.1052966088E+01  -0.2769660483E-02  -0.2769660483E-02   0.2087783645E-03  -0.2087783649E-03  -0.1658405872E-07   0.1357137996E-02   0.1055736183E+01
   0.0000000000E+00   0.9982836375E+00   0.1716362517E-02   0.0000000000E+00  -0.1406849379E-04   0.1406849379E-04   0.0000000000E+00  -0.1702294023E-02   0.1702294023E-02   0.1050589586E+01   0.2164093653E-01   0.2164093653E-01   0.8880948406E-04  -0.8880948446E-04  -0.1792857816E-07   0.1554443970E-02   0.1028948724E+01
   0.0000000000E+00   0.1716362517E-02   0.9982836375E+00   0.0000000000E+00   0.1406849379E-04  -0.1406849379E-04   0.0000000000E+00   0.1702294023E-02  -0.1702294023E-02   0.1050589586E+01   0.2164093653E-01   0.2164093653E-01  -0.8880948446E-04   0.8880948406E-04  -0.1792857815E-07   0.1554443970E-02   0.1028948724E+01
   0.1006655093E+01   0.1405838979E-02   0.9985941610E+00   0.4930145609E-04   0.1268714224E-04  -0.1268714224E-04   0.6605791997E-02   0.1393151837E-02  -0.1393151837E-02   0.1052966088E+01  -0.2769660483E-02  -0.2769660483E-02  -0.2087783649E-03   0.2087783645E-03  -0.1658405873E-07   0.1357137996E-02   0.1055736183E+01
   0.1006655093E+01   0.9985941610E+00   0.9985941610E+00   0.4930145609E-04  -0.1268714224E-04  -0.1268714224E-04   0.6605791997E-02  -0.1393151837E-02  -0.1393151837E-02   0.1052966088E+01  -0.2769660482E-02  -0.2769660482E-02   0.2087783645E-03   0.2087783645E-03   0.1658405655E-07   0.1357137996E-02   0.1055736183E+01
   0.0000000000E+00   0.9982836375E+00   0.9982836375E+00   0.0000000000E+00  -0.1406849379E-04  -0.1406849379E-04   0.0000000000E+00  -0.1702294023E-02  -0.1702294023E-02   0.1050589586E+01   0.2164093653E-01   0.2164093653E-01   0.8880948405E-04   0.8880948405E-04   0.1792859845E-07   0.1554443970E-02   0.1028948724E+01
   0.2012300000E+01   0.1235590006E-02   0.1235590006E-02   0.1000000000E-03   0.1153973218E-04   0.1153973218E-04   0.1220000000E-01   0.1224050274E-02   0.1224050274E-02   0.1034804454E+01  -0.2508442096E-01  -0.2508442096E-01  -0.3315981234E-03  -0.3315981234E-03   0.1496364796E-07   0.1192458422E-02   0.1059889816E+01
   0.2012300000E+01   0.9987644100E+00   0.1235590006E-02   0.1000000000E-03  -0.1153973218E-04   0.1153973218E-04   0.1220000000E-01  -0.1224050274E-02   0.1224050274E-02   0.1034804454E+01  -0.2508442096E-01  -0.2508442096E-01   0.3315981228E-03  -0.3315981233E-03  -0.1496361679E-07   0.1192458422E-02   0.1059889816E+01
   0.2012300000E+01   0.1235590006E-02   0.9987644100E+00   0.1000000000E-03   0.1153973218E-04  -0.1153973218E-04   0.1220000000E-01   0.1224050274E-02  -0.1224050274E-02   0.1034804454E+01  -0.2508442096E-01  -0.2508442096E-01  -0.3315981233E-03   0.3315981228E-03  -0.1496361681E-07   0.1192458422E-02   0.1059889816E+01
   0.2012300000E+01   0.9987644100E+00   0.9987644100E+00   0.1000000000E-03  -0.1153973218E-04  -0.1153973218E-04   0.1220000000E-01  -0.1224050274E-02  -0.1224050274E-02   0.1034804454E+01  -0.2508442096E-01  -0.2508442096E-01   0.3315981228E-03   0.3315981228E-03   0.1496358560E-07   0.1192458422E-02   0.1059889816E+01
     1     2     3     4     5     6     7     8
     2     9    10     3     6    11    12     7
 VARIABLES = X,Y,Z,DU1,DU2,DU3,U1,U2,U3,S11,S22,S33,S12,S13,S23,Vf,SMISES
 ZONE, T="0.1240D+01" F=FEPOINT, I=   12 J=    2 ET=BRICK
   0.0000000000E+00   0.1730833292E-02   0.1730833292E-02   0.0000000000E+00   0.1447077452E-04   0.1447077452E-04   0.0000000000E+00   0.1716362517E-02   0.1716362517E-02   0.1027385074E+01   0.1667736111E-01   0.1667736111E-01  -0.2440474283E-03  -0.2440474283E-03   0.1672858215E-07   0.1579534166E-02   0.1010708247E+01
   0.1006704415E+01   0.1418362953E-02   0.1418362953E-02   0.4932109763E-04   0.1252397343E-04   0.1252397343E-04   0.6655093453E-02   0.1405838979E-02   0.1405838979E-02   0.1048934313E+01  -0.4239122330E-02  -0.4239122330E-02  -0.3480006826E-03  -0.3480006826E-03   0.1577976208E-07   0.1372867649E-02   0.1053174509E+01
   0.1006704415E+01   0.9985816370E+00   0.1418362953E-02   0.4932109763E-04  -0.1252397343E-04   0.1252397343E-04   0.6655093453E-02  -0.1405838979E-02   0.1405838979E-02   0.1048934313E+01  -0.4239122330E-02  -0.4239122330E-02   0.3480006822E-03  -0.3480006826E-03  -0.1577976737E-07   0.1372867649E-02   0.1053174509E+01
   0.0000000000E+00   0.9982691667E+00   0.1730833292E-02   0.0000000000E+00  -0.1447077452E-04   0.1447077452E-04   0.0000000000E+00  -0.1716362517E-02   0.1716362517E-02   0.1027385074E+01   0.1667736111E-01   0.1667736111E-01   0.2440474279E-03  -0.2440474283E-03  -0.1672861833E-07   0.1579534166E-02   0.1010708247E+01
   0.0000000000E+00   0.1730833292E-02   0.9982691667E+00   0.0000000000E+00   0.1447077452E-04  -0.1447077452E-04   0.0000000000E+00   0.1716362517E-02  -0.1716362517E-02   0.1027385074E+01   0.1667736111E-01   0.1667736111E-01  -0.2440474283E-03   0.2440474279E-03  -0.1672861831E-07   0.1579534166E-02   0.1010708247E+01
   0.1006704415E+01   0.1418362953E-02   0.9985816370E+00   0.4932109763E-04   0.1252397343E-04  -0.1252397343E-04   0.6655093453E-02   0.1405838979E-02  -0.1405838979E-02   0.1048934313E+01  -0.4239122330E-02  -0.4239122330E-02  -0.3480006826E-03   0.3480006822E-03  -0.1577976738E-07   0.1372867649E-02   0.1053174509E+01
   0.1006704415E+01   0.9985816370E+00   0.9985816370E+00   0.4932109763E-04  -0.1252397343E-04  -0.1252397343E-04   0.6655093453E-02  -0.1405838979E-02  -0.1405838979E-02   0.1048934313E+01  -0.4239122330E-02  -0.4239122330E-02   0.3480006822E-03   0.3480006822E-03   0.1577977264E-07   0.1372867649E-02   0.1053174509E+01
   0.0000000000E+00   0.9982691667E+00   0.9982691667E+00   0.0000000000E+00  -0.1447077452E-04  -0.1447077452E-04   0.0000000000E+00  -0.1716362517E-02  -0.1716362517E-02   0.1027385074E+01   0.1667736111E-01   0.1667736111E-01   0.2440474279E-03   0.2440474279E-03   0.1672865447E-07   0.1579534166E-02   0.1010708247E+01
   0.2012400000E+01   0.1246693033E-02   0.1246693033E-02   0.1000000000E-03   0.1110302710E-04   0.1110302710E-04   0.1230000000E-01   0.1235590006E-02   0.1235590006E-02   0.1036262680E+01  -0.2319833096E-01  -0.2319833096E-01  -0.4513058966E-03  -0.4513058966E-03   0.1432883814E-07   0.1206530761E-02   0.1059462747E+01
   0.2012400000E+01   0.9987533070E+00   0.1246693033E-02   0.1000000000E-03  -0.1110302710E-04   0.1110302710E-04   0.1230000000E-01  -0.1235590006E-02   0.1235590006E-02   0.1036262680E+01  -0.2319833096E-01  -0.2319833096E-01   0.4513058961E-03  -0.4513058966E-03  -0.1432881010E-07   0.1206530761E-02   0.1059462747E+01
   0.2012400000E+01   0.1246693033E-02   0.9987533070E+00   0.1000000000E-03   0.1110302710E-04  -0.1110302710E-04   0.1230000000E-01   0.1235590006E-02  -0.1235590006E-02   0.1036262680E+01  -0.2319833096E-01  -0.2319833096E-01  -0.4513058966E-03   0.4513058961E-03  -0.1432881012E-07   0.1206530761E-02   0.1059462747E+01
   0.2012400000E+01   0.9987533070E+00   0.9987533070E+00   0.1000000000E-03  -0.1110302710E-04  -0.1110302710E-04   0.1230000000E-01  -0.1235590006E-02  -0.1235590006E-02   0.1036262679E+01  -0.2319833096E-01  -0.2319833096E-01   0.4513058960E-03   0.4513058960E-03   0.1432878203E-07   0.1206530761E-02   0.1059462747E+01
     1     2     3     4     5     6     7     8
     2     9    10     3     6    11    12     7
 VARIABLES = X,Y,Z,DU1,DU2,DU3,U1,U2,U3,S11,S22,S33,S12,S13,S23,Vf,SMISES
 ZONE, T="0.1250D+01" F=FEPOINT, I=   12 J=    2 ET=BRICK
   0.0000000000E+00   0.1745616906E-02   0.1745616906E-02   0.0000000000E+00   0.1478361411E-04   0.1478361411E-04   0.0000000000E+00   0.1730833292E-02   0.1730833292E-02   0.9990440713E+00   0.9704103517E-02   0.9704103517E-02  -0.4518951643E-03  -0.4518951643E-03   0.1564897172E-07   0.1607756979E-02   0.9893418275E+00
   0.1006754001E+01   0.1430662603E-02   0.1430662603E-02   0.4958611872E-04   0.1229965050E-04   0.1229965050E-04   0.6704414551E-02   0.1418362953E-02   0.1418362953E-02   0.1044562785E+01  -0.5534755970E-02  -0.5534755970E-02  -0.5290109518E-03  -0.5290109518E-03   0.1511002051E-07   0.1388995228E-02   0.1050099950E+01
   0.1006754001E+01   0.9985693374E+00   0.1430662603E-02   0.4958611872E-04  -0.1229965050E-04   0.1229965050E-04   0.6704414551E-02  -0.1418362953E-02   0.1418362953E-02   0.1044562785E+01  -0.5534755970E-02  -0.5534755970E-02   0.5290109514E-03  -0.5290109517E-03  -0.1511003226E-07   0.1388995228E-02   0.1050099950E+01
   0.0000000000E+00   0.9982543831E+00   0.1745616906E-02   0.0000000000E+00  -0.1478361411E-04   0.1478361411E-04   0.0000000000E+00  -0.1730833292E-02   0.1730833292E-02   0.9990440712E+00   0.9704103517E-02   0.9704103517E-02   0.4518951639E-03  -0.4518951643E-03  -0.1564902567E-07   0.1607756979E-02   0.9893418274E+00
   0.0000000000E+00   0.1745616906E-02   0.9982543831E+00   0.0000000000E+00   0.1478361411E-04  -0.1478361411E-04   0.0000000000E+00   0.1730833292E-02  -0.1730833292E-02   0.9990440712E+00   0.9704103517E-02   0.9704103517E-02  -0.4518951643E-03   0.4518951639E-03  -0.1564902566E-07   0.1607756979E-02   0.9893418274E+00
   0.1006754001E+01   0.1430662603E-02   0.9985693374E+00   0.4958611872E-04   0.1229965050E-04  -0.1229965050E-04   0.6704414551E-02   0.1418362953E-02  -0.1418362953E-02   0.1044562785E+01  -0.5534755970E-02  -0.5534755970E-02  -0.5290109517E-03   0.5290109514E-03  -0.1511003227E-07   0.1388995228E-02   0.1050099950E+01
   0.1006754001E+01   0.9985693374E+00   0.9985693374E+00   0.4958611872E-04  -0.1229965050E-04  -0.1229965050E-04   0.6704414551E-02  -0.1418362953E-02  -0.1418362953E-02   0.1044562785E+01  -0.5534755969E-02  -0.5534755969E-02   0.5290109513E-03   0.5290109513E-03   0.1511004400E-07   0.1388995228E-02   0.1050099950E+01
   0.0000000000E+00   0.9982543831E+00   0.9982543831E+00   0.0000000000E+00  -0.1478361411E-04  -0.1478361411E-04   0.0000000000E+00  -0.1730833292E-02  -0.1730833292E-02   0.9990440712E+00   0.9704103517E-02   0.9704103517E-02   0.4518951638E-03   0.4518951638E-03   0.1564907960E-07   0.1607756979E-02   0.9893418274E+00
   0.2012500000E+01   0.1257436886E-02   0.1257436886E-02   0.1000000000E-03   0.1074385328E-04   0.1074385328E-04   0.1240000000E-01   0.1246693033E-02   0.1246693033E-02   0.1038758788E+01  -0.2009757635E-01  -0.2009757635E-01  -0.5975435782E-03  -0.5975435782E-03   0.1381246451E-07   0.1220520038E-02   0.1058859405E+01
   0.2012500000E+01   0.9987425631E+00   0.1257436886E-02   0.1000000000E-03  -0.1074385328E-04   0.1074385328E-04   0.1240000000E-01  -0.1246693033E-02   0.1246693033E-02   0.1038758788E+01  -0.2009757635E-01  -0.2009757635E-01   0.5975435776E-03  -0.5975435782E-03  -0.1381243647E-07   0.1220520038E-02   0.1058859405E+01
   0.2012500000E+01   0.1257436886E-02   0.9987425631E+00   0.1000000000E-03   0.1074385328E-04  -0.1074385328E-04   0.1240000000E-01   0.1246693033E-02  -0.1246693033E-02   0.1038758788E+01  -0.2009757635E-01  -0.2009757635E-01  -0.5975435782E-03   0.5975435776E-03  -0.1381243649E-07   0.1220520038E-02   0.1058859405E+01
   0.2012500000E+01   0.9987425631E+00   0.9987425631E+00   0.1000000000E-03  -0.1074385328E-04  -0.1074385328E-04   0.1240000000E-01  -0.1246693033E-02  -0.1246693033E-02   0.1038758788E+01  -0.2009757635E-01  -0.2009757635E-01   0.5975435776E-03   0.5975435776E-03   0.1381240839E-07   0.1220520037E-02   0.1058859405E+01
     1     2     3     4     5     6     7     8
     2     9    10     3     6    11    12     7
 VARIABLES = X,Y,Z,DU1,DU2,DU3,U1,U2,U3,S11,S22,S33,S12,S13,S23,Vf,SMISES
 ZONE, T="0.1260D+01" F=FEPOINT, I=   12 J=    2 ET=BRICK
   0.0000000000E+00   0.1760607135E-02   0.1760607135E-02   0.0000000000E+00   0.1499022873E-04   0.1499022873E-04   0.0000000000E+00   0.1745616906E-02   0.1745616906E-02   0.9655633765E+00   0.9733632531E-03   0.9733632531E-03  -0.7023588378E-03  -0.7023588378E-03   0.1476776347E-07   0.1639469846E-02   0.9645946163E+00
   0.1006804151E+01   0.1442682872E-02   0.1442682872E-02   0.5015025422E-04   0.1202026833E-04   0.1202026833E-04   0.6754000669E-02   0.1430662603E-02   0.1430662603E-02   0.1038759261E+01  -0.6304592610E-02  -0.6304592610E-02  -0.7383045688E-03  -0.7383045688E-03   0.1459711081E-07   0.1406110122E-02   0.1045068558E+01
   0.1006804151E+01   0.9985573171E+00   0.1442682872E-02   0.5015025422E-04  -0.1202026833E-04   0.1202026833E-04   0.6754000669E-02  -0.1430662603E-02   0.1430662603E-02   0.1038759261E+01  -0.6304592610E-02  -0.6304592610E-02   0.7383045684E-03  -0.7383045687E-03  -0.1459712764E-07   0.1406110122E-02   0.1045068558E+01
   0.0000000000E+00   0.9982393929E+00   0.1760607135E-02   0.0000000000E+00  -0.1499022872E-04   0.1499022872E-04   0.0000000000E+00  -0.1745616906E-02   0.1745616906E-02   0.9655633764E+00   0.9733632533E-03   0.9733632535E-03   0.7023588374E-03  -0.7023588378E-03  -0.1476783610E-07   0.1639469846E-02   0.9645946162E+00
   0.0000000000E+00   0.1760607135E-02   0.9982393929E+00   0.0000000000E+00   0.1499022872E-04  -0.1499022872E-04   0.0000000000E+00   0.1745616906E-02  -0.1745616906E-02   0.9655633764E+00   0.9733632535E-03   0.9733632533E-03  -0.7023588378E-03   0.7023588374E-03  -0.1476783608E-07   0.1639469846E-02   0.9645946162E+00
   0.1006804151E+01   0.1442682872E-02   0.9985573171E+00   0.5015025422E-04   0.1202026833E-04  -0.1202026833E-04   0.6754000669E-02   0.1430662603E-02  -0.1430662603E-02   0.1038759261E+01  -0.6304592610E-02  -0.6304592610E-02  -0.7383045687E-03   0.7383045684E-03  -0.1459712764E-07   0.1406110122E-02   0.1045068558E+01
   0.1006804151E+01   0.9985573171E+00   0.9985573171E+00   0.5015025422E-04  -0.1202026833E-04  -0.1202026833E-04   0.6754000669E-02  -0.1430662603E-02  -0.1430662603E-02   0.1038759261E+01  -0.6304592610E-02  -0.6304592610E-02   0.7383045684E-03   0.7383045684E-03   0.1459714444E-07   0.1406110122E-02   0.1045068558E+01
   0.0000000000E+00   0.9982393929E+00   0.9982393929E+00   0.0000000000E+00  -0.1499022872E-04  -0.1499022872E-04   0.0000000000E+00  -0.1745616906E-02  -0.1745616906E-02   0.9655633764E+00   0.9733632537E-03   0.9733632537E-03   0.7023588373E-03   0.7023588373E-03   0.1476790870E-07   0.1639469846E-02   0.9645946162E+00
   0.2012600000E+01   0.1267915490E-02   0.1267915490E-02   0.1000000000E-03   0.1047860365E-04   0.1047860365E-04   0.1250000000E-01   0.1257436886E-02   0.1257436886E-02   0.1042008520E+01  -0.1604708966E-01  -0.1604708966E-01  -0.7527021153E-03  -0.7527021153E-03   0.1341826622E-07   0.1234394443E-02   0.1058060435E+01
   0.2012600000E+01   0.9987320845E+00   0.1267915490E-02   0.1000000000E-03  -0.1047860365E-04   0.1047860365E-04   0.1250000000E-01  -0.1257436886E-02   0.1257436886E-02   0.1042008520E+01  -0.1604708966E-01  -0.1604708966E-01   0.7527021147E-03  -0.7527021152E-03  -0.1341823550E-07   0.1234394443E-02   0.1058060435E+01
   0.2012600000E+01   0.1267915490E-02   0.9987320845E+00   0.1000000000E-03   0.1047860365E-04  -0.1047860365E-04   0.1250000000E-01   0.1257436886E-02  -0.1257436886E-02   0.1042008520E+01  -0.1604708966E-01  -0.1604708966E-01  -0.7527021152E-03   0.7527021147E-03  -0.1341823552E-07   0.1234394443E-02   0.1058060435E+01
   0.2012600000E+01   0.9987320845E+00   0.9987320845E+00   0.1000000000E-03  -0.1047860365E-04  -0.1047860365E-04   0.1250000000E-01  -0.1257436886E-02  -0.1257436886E-02   0.1042008520E+01  -0.1604708966E-01  -0.1604708966E-01   0.7527021146E-03   0.7527021146E-03   0.1341820475E-07   0.1234394443E-02   0.1058060435E+01
     1     2     3     4     5     6     7     8
     2     9    10     3     6    11    12     7
 VARIABLES = X,Y,Z,DU1,DU2,DU3,U1,U2,U3,S11,S22,S33,S12,S13,S23,Vf,SMISES
 ZONE, T="0.1270D+01" F=FEPOINT, I=   12 J=    2 ET=BRICK
   0.0000000000E+00   0.1775683655E-02   0.1775683655E-02   0.0000000000E+00   0.1507652066E-04   0.1507652066E-04   0.0000000000E+00   0.1760607135E-02   0.1760607135E-02   0.9272773491E+00  -0.9161583348E-02  -0.9161583348E-02  -0.9824997485E-03  -0.9824997485E-03   0.1416280321E-07   0.1674866207E-02   0.9364482103E+00
   0.1006855218E+01   0.1454378365E-02   0.1454378365E-02   0.5106699948E-04   0.1169549308E-04   0.1169549308E-04   0.6804150924E-02   0.1442682872E-02   0.1442682872E-02   0.1030565271E+01  -0.6408584278E-02  -0.6408584278E-02  -0.9600181564E-03  -0.9600181564E-03   0.1425749062E-07   0.1424781402E-02   0.1036981970E+01
   0.1006855218E+01   0.9985456216E+00   0.1454378365E-02   0.5106699948E-04  -0.1169549308E-04   0.1169549308E-04   0.6804150924E-02  -0.1442682871E-02   0.1442682872E-02   0.1030565271E+01  -0.6408584277E-02  -0.6408584277E-02   0.9600181560E-03  -0.9600181564E-03  -0.1425751110E-07   0.1424781402E-02   0.1036981970E+01
   0.0000000000E+00   0.9982243163E+00   0.1775683655E-02   0.0000000000E+00  -0.1507652066E-04   0.1507652066E-04   0.0000000000E+00  -0.1760607135E-02   0.1760607135E-02   0.9272773490E+00  -0.9161583347E-02  -0.9161583347E-02   0.9824997480E-03  -0.9824997484E-03  -0.1416289462E-07   0.1674866207E-02   0.9364482103E+00
   0.0000000000E+00   0.1775683655E-02   0.9982243163E+00   0.0000000000E+00   0.1507652066E-04  -0.1507652066E-04   0.0000000000E+00   0.1760607135E-02  -0.1760607135E-02   0.9272773490E+00  -0.9161583347E-02  -0.9161583347E-02  -0.9824997484E-03   0.9824997480E-03  -0.1416289460E-07   0.1674866207E-02   0.9364482103E+00
   0.1006855218E+01   0.1454378365E-02   0.9985456216E+00   0.5106699948E-04   0.1169549308E-04  -0.1169549308E-04   0.6804150924E-02   0.1442682872E-02  -0.1442682871E-02   0.1030565271E+01  -0.6408584277E-02  -0.6408584277E-02  -0.9600181564E-03   0.9600181560E-03  -0.1425751111E-07   0.1424781402E-02   0.1036981970E+01
   0.1006855218E+01   0.9985456216E+00   0.9985456216E+00   0.5106699948E-04  -0.1169549308E-04  -0.1169549308E-04   0.6804150924E-02  -0.1442682871E-02  -0.1442682871E-02   0.1030565271E+01  -0.6408584277E-02  -0.6408584277E-02   0.9600181560E-03   0.9600181560E-03   0.1425753157E-07   0.1424781401E-02   0.1036981970E+01
   0.0000000000E+00   0.9982243163E+00   0.9982243163E+00   0.0000000000E+00  -0.1507652066E-04  -0.1507652066E-04   0.0000000000E+00  -0.1760607135E-02  -0.1760607135E-02   0.9272773490E+00  -0.9161583346E-02  -0.9161583346E-02   0.9824997480E-03   0.9824997480E-03   0.1416298600E-07   0.1674866206E-02   0.9364482103E+00
   0.2012700000E+01   0.1278230654E-02   0.1278230654E-02   0.1000000000E-03   0.1031516410E-04   0.1031516410E-04   0.1260000000E-01   0.1267915490E-02   0.1267915490E-02   0.1045626795E+01  -0.1140608448E-01  -0.1140608448E-01  -0.8988885668E-03  -0.8988885668E-03   0.1312311252E-07   0.1248118237E-02   0.1057039764E+01
   0.2012700000E+01   0.9987217693E+00   0.1278230654E-02   0.1000000000E-03  -0.1031516410E-04   0.1031516410E-04   0.1260000000E-01  -0.1267915490E-02   0.1267915490E-02   0.1045626795E+01  -0.1140608448E-01  -0.1140608448E-01   0.8988885662E-03  -0.8988885667E-03  -0.1312307719E-07   0.1248118236E-02   0.1057039764E+01
   0.2012700000E+01   0.1278230654E-02   0.9987217693E+00   0.1000000000E-03   0.1031516410E-04  -0.1031516410E-04   0.1260000000E-01   0.1267915490E-02  -0.1267915490E-02   0.1045626795E+01  -0.1140608448E-01  -0.1140608448E-01  -0.8988885667E-03   0.8988885662E-03  -0.1312307721E-07   0.1248118236E-02   0.1057039764E+01
   0.2012700000E+01   0.9987217693E+00   0.9987217693E+00   0.1000000000E-03  -0.1031516410E-04  -0.1031516410E-04   0.1260000000E-01  -0.1267915490E-02  -0.1267915490E-02   0.1045626795E+01  -0.1140608448E-01  -0.1140608448E-01   0.8988885661E-03   0.8988885661E-03   0.1312304183E-07   0.1248118236E-02   0.1057039764E+01
     1     2     3     4     5     6     7     8
     2     9    10     3     6    11    12     7
 VARIABLES = X,Y,Z,DU1,DU2,DU3,U1,U2,U3,S11,S22,S33,S12,S13,S23,Vf,SMISES
 ZONE, T="0.1280D+01" F=FEPOINT, I=   12 J=    2 ET=BRICK
   0.0000000000E+00   0.1790716758E-02   0.1790716758E-02   0.0000000000E+00   0.1503310236E-04   0.1503310236E-04   0.0000000000E+00   0.1775683655E-02   0.1775683655E-02   0.8855029698E+00  -0.2032180012E-01  -0.2032180012E-01  -0.1277898855E-02  -0.1277898855E-02   0.1390136901E-07   0.1713630052E-02   0.9058410005E+00
   0.1006907582E+01   0.1465706134E-02   0.1465706134E-02   0.5236379707E-04   0.1132776905E-04   0.1132776905E-04   0.6855217923E-02   0.1454378365E-02   0.1454378365E-02   0.1020279844E+01  -0.6097823829E-02  -0.6097823829E-02  -0.1178574080E-02  -0.1178574080E-02   0.1410858286E-07   0.1444982593E-02   0.1026390304E+01
   0.1006907582E+01   0.9985342939E+00   0.1465706134E-02   0.5236379707E-04  -0.1132776905E-04   0.1132776905E-04   0.6855217923E-02  -0.1454378365E-02   0.1454378365E-02   0.1020279844E+01  -0.6097823829E-02  -0.6097823829E-02   0.1178574080E-02  -0.1178574080E-02  -0.1410860550E-07   0.1444982593E-02   0.1026390304E+01
   0.0000000000E+00   0.9982092832E+00   0.1790716758E-02   0.0000000000E+00  -0.1503310236E-04   0.1503310236E-04   0.0000000000E+00  -0.1775683655E-02   0.1775683655E-02   0.8855029698E+00  -0.2032180012E-01  -0.2032180012E-01   0.1277898854E-02  -0.1277898855E-02  -0.1390147838E-07   0.1713630052E-02   0.9058410004E+00
   0.0000000000E+00   0.1790716758E-02   0.9982092832E+00   0.0000000000E+00   0.1503310236E-04  -0.1503310236E-04   0.0000000000E+00   0.1775683655E-02  -0.1775683655E-02   0.8855029698E+00  -0.2032180012E-01  -0.2032180012E-01  -0.1277898855E-02   0.1277898854E-02  -0.1390147837E-07   0.1713630052E-02   0.9058410004E+00
   0.1006907582E+01   0.1465706134E-02   0.9985342939E+00   0.5236379707E-04   0.1132776905E-04  -0.1132776905E-04   0.6855217923E-02   0.1454378365E-02  -0.1454378365E-02   0.1020279844E+01  -0.6097823829E-02  -0.6097823829E-02  -0.1178574080E-02   0.1178574080E-02  -0.1410860551E-07   0.1444982593E-02   0.1026390304E+01
   0.1006907582E+01   0.9985342939E+00   0.9985342939E+00   0.5236379707E-04  -0.1132776905E-04  -0.1132776905E-04   0.6855217923E-02  -0.1454378365E-02  -0.1454378365E-02   0.1020279844E+01  -0.6097823829E-02  -0.6097823829E-02   0.1178574080E-02   0.1178574080E-02   0.1410862813E-07   0.1444982593E-02   0.1026390304E+01
   0.0000000000E+00   0.9982092832E+00   0.9982092832E+00   0.0000000000E+00  -0.1503310236E-04  -0.1503310236E-04   0.0000000000E+00  -0.1775683655E-02  -0.1775683655E-02   0.8855029697E+00  -0.2032180012E-01  -0.2032180012E-01   0.1277898854E-02   0.1277898854E-02   0.1390158773E-07   0.1713630052E-02   0.9058410004E+00
   0.2012800000E+01   0.1288482036E-02   0.1288482036E-02   0.1000000000E-03   0.1025138170E-04   0.1025138170E-04   0.1270000000E-01   0.1278230654E-02   0.1278230654E-02   0.1049136179E+01  -0.6617331269E-02  -0.6617331269E-02  -0.1019346375E-02  -0.1019346375E-02   0.1287598425E-07   0.1261650581E-02   0.1055762373E+01
   0.2012800000E+01   0.9987115180E+00   0.1288482036E-02   0.1000000000E-03  -0.1025138169E-04   0.1025138170E-04   0.1270000000E-01  -0.1278230654E-02   0.1278230654E-02   0.1049136179E+01  -0.6617331269E-02  -0.6617331269E-02   0.1019346375E-02  -0.1019346375E-02  -0.1287594305E-07   0.1261650581E-02   0.1055762373E+01
   0.2012800000E+01   0.1288482036E-02   0.9987115180E+00   0.1000000000E-03   0.1025138170E-04  -0.1025138169E-04   0.1270000000E-01   0.1278230654E-02  -0.1278230654E-02   0.1049136179E+01  -0.6617331269E-02  -0.6617331269E-02  -0.1019346375E-02   0.1019346375E-02  -0.1287594307E-07   0.1261650581E-02   0.1055762373E+01
   0.2012800000E+01   0.9987115180E+00   0.9987115180E+00   0.1000000000E-03  -0.1025138169E-04  -0.1025138169E-04   0.1270000000E-01  -0.1278230654E-02  -0.1278230654E-02   0.1049136179E+01  -0.6617331269E-02  -0.6617331269E-02   0.1019346375E-02   0.1019346375E-02   0.1287590183E-07   0.1261650581E-02   0.1055762373E+01
     1     2     3     4     5     6     7     8
     2     9    10     3     6    11    12     7
 VARIABLES = X,Y,Z,DU1,DU2,DU3,U1,U2,U3,S11,S22,S33,S12,S13,S23,Vf,SMISES
 ZONE, T="0.1290D+01" F=FEPOINT, I=   12 J=    2 ET=BRICK
   0.0000000000E+00   0.1805576322E-02   0.1805576322E-02   0.0000000000E+00   0.1485956476E-04   0.1485956476E-04   0.0000000000E+00   0.1790716758E-02   0.1790716758E-02   0.8417843160E+00  -0.3187823390E-01  -0.3187823390E-01  -0.1574153376E-02  -0.1574153376E-02   0.1400976818E-07   0.1755276233E-02   0.8736880937E+00
   0.1006961632E+01   0.1476625788E-02   0.1476625788E-02   0.5405021388E-04   0.1091965402E-04   0.1091965402E-04   0.6907581720E-02   0.1465706134E-02   0.1465706134E-02   0.1008127069E+01  -0.5559374948E-02  -0.5559374948E-02  -0.1378750741E-02  -0.1378750741E-02   0.1413420353E-07   0.1466714466E-02   0.1013704536E+01
   0.1006961632E+01   0.9985233742E+00   0.1476625788E-02   0.5405021388E-04  -0.1091965402E-04   0.1091965402E-04   0.6907581720E-02  -0.1465706134E-02   0.1465706134E-02   0.1008127069E+01  -0.5559374948E-02  -0.5559374948E-02   0.1378750740E-02  -0.1378750741E-02  -0.1413422672E-07   0.1466714466E-02   0.1013704536E+01
   0.0000000000E+00   0.9981944237E+00   0.1805576322E-02   0.0000000000E+00  -0.1485956476E-04   0.1485956476E-04   0.0000000000E+00  -0.1790716758E-02   0.1790716758E-02   0.8417843160E+00  -0.3187823390E-01  -0.3187823390E-01   0.1574153375E-02  -0.1574153376E-02  -0.1400989375E-07   0.1755276233E-02   0.8736880936E+00
   0.0000000000E+00   0.1805576322E-02   0.9981944237E+00   0.0000000000E+00   0.1485956476E-04  -0.1485956476E-04   0.0000000000E+00   0.1790716758E-02  -0.1790716758E-02   0.8417843160E+00  -0.3187823390E-01  -0.3187823390E-01  -0.1574153376E-02   0.1574153375E-02  -0.1400989374E-07   0.1755276233E-02   0.8736880936E+00
   0.1006961632E+01   0.1476625788E-02   0.9985233742E+00   0.5405021388E-04   0.1091965402E-04  -0.1091965402E-04   0.6907581720E-02   0.1465706134E-02  -0.1465706134E-02   0.1008127069E+01  -0.5559374948E-02  -0.5559374948E-02  -0.1378750741E-02   0.1378750740E-02  -0.1413422673E-07   0.1466714466E-02   0.1013704536E+01
   0.1006961632E+01   0.9985233742E+00   0.9985233742E+00   0.5405021388E-04  -0.1091965402E-04  -0.1091965402E-04   0.6907581720E-02  -0.1465706134E-02  -0.1465706134E-02   0.1008127069E+01  -0.5559374948E-02  -0.5559374948E-02   0.1378750740E-02   0.1378750740E-02   0.1413424989E-07   0.1466714466E-02   0.1013704536E+01
   0.0000000000E+00   0.9981944237E+00   0.9981944237E+00   0.0000000000E+00  -0.1485956476E-04  -0.1485956476E-04   0.0000000000E+00  -0.1790716758E-02  -0.1790716758E-02   0.8417843160E+00  -0.3187823390E-01  -0.3187823390E-01   0.1574153375E-02   0.1574153375E-02   0.1401001932E-07   0.1755276233E-02   0.8736880936E+00
   0.2012900000E+01   0.1298757180E-02   0.1298757180E-02   0.1000000000E-03   0.1027514408E-04   0.1027514408E-04   0.1280000000E-01   0.1288482036E-02   0.1288482036E-02   0.1052030172E+01  -0.2149778331E-02  -0.2149778331E-02  -0.1098686359E-02  -0.1098686359E-02   0.1260532273E-07   0.1274945548E-02   0.1054190260E+01
   0.2012900000E+01   0.9987012428E+00   0.1298757180E-02   0.1000000000E-03  -0.1027514408E-04   0.1027514408E-04   0.1280000000E-01  -0.1288482036E-02   0.1288482036E-02   0.1052030171E+01  -0.2149778331E-02  -0.2149778331E-02   0.1098686358E-02  -0.1098686359E-02  -0.1260527508E-07   0.1274945548E-02   0.1054190260E+01
   0.2012900000E+01   0.1298757180E-02   0.9987012428E+00   0.1000000000E-03   0.1027514408E-04  -0.1027514408E-04   0.1280000000E-01   0.1288482036E-02  -0.1288482036E-02   0.1052030171E+01  -0.2149778331E-02  -0.2149778331E-02  -0.1098686359E-02   0.1098686358E-02  -0.1260527510E-07   0.1274945548E-02   0.1054190260E+01
   0.2012900000E+01   0.9987012428E+00   0.9987012428E+00   0.1000000000E-03  -0.1027514408E-04  -0.1027514408E-04   0.1280000000E-01  -0.1288482036E-02  -0.1288482036E-02   0.1052030171E+01  -0.2149778331E-02  -0.2149778331E-02   0.1098686358E-02   0.1098686358E-02   0.1260522741E-07   0.1274945547E-02   0.1054190260E+01
     1     2     3     4     5     6     7     8
     2     9    10     3     6    11    12     7
 VARIABLES = X,Y,Z,DU1,DU2,DU3,U1,U2,U3,S11,S22,S33,S12,S13,S23,Vf,SMISES
 ZONE, T="0.1300D+01" F=FEPOINT, I=   12 J=    2 ET=BRICK
   0.0000000000E+00   0.1820141516E-02   0.1820141516E-02   0.0000000000E+00   0.1456519350E-04   0.1456519350E-04   0.0000000000E+00   0.1805576322E-02   0.1805576322E-02   0.7977697281E+00  -0.4303964771E-01  -0.4303964771E-01  -0.1858249010E-02  -0.1858249010E-02   0.1446883185E-07   0.1799229788E-02   0.8408463748E+00
   0.1007017751E+01   0.1487100839E-02   0.1487100839E-02   0.5611922545E-04   0.1047505108E-04   0.1047505108E-04   0.6961631934E-02   0.1476625788E-02   0.1476625788E-02   0.9942363171E+00  -0.4944571474E-02  -0.4944571474E-02  -0.1546755484E-02  -0.1546755484E-02   0.1428958632E-07   0.1490029549E-02   0.9992050597E+00
   0.1007017751E+01   0.9985128992E+00   0.1487100839E-02   0.5611922545E-04  -0.1047505108E-04   0.1047505108E-04   0.6961631934E-02  -0.1476625788E-02   0.1476625788E-02   0.9942363170E+00  -0.4944571474E-02  -0.4944571474E-02   0.1546755483E-02  -0.1546755484E-02  -0.1428960832E-07   0.1490029549E-02   0.9992050596E+00
   0.0000000000E+00   0.9981798585E+00   0.1820141516E-02   0.0000000000E+00  -0.1456519350E-04   0.1456519350E-04   0.0000000000E+00  -0.1805576322E-02   0.1805576322E-02   0.7977697281E+00  -0.4303964771E-01  -0.4303964771E-01   0.1858249009E-02  -0.1858249010E-02  -0.1446897103E-07   0.1799229788E-02   0.8408463748E+00
   0.0000000000E+00   0.1820141516E-02   0.9981798585E+00   0.0000000000E+00   0.1456519350E-04  -0.1456519350E-04   0.0000000000E+00   0.1805576322E-02  -0.1805576322E-02   0.7977697281E+00  -0.4303964771E-01  -0.4303964771E-01  -0.1858249010E-02   0.1858249009E-02  -0.1446897102E-07   0.1799229788E-02   0.8408463748E+00
   0.1007017751E+01   0.1487100839E-02   0.9985128992E+00   0.5611922545E-04   0.1047505108E-04  -0.1047505108E-04   0.6961631934E-02   0.1476625788E-02  -0.1476625788E-02   0.9942363170E+00  -0.4944571474E-02  -0.4944571474E-02  -0.1546755484E-02   0.1546755483E-02  -0.1428960833E-07   0.1490029549E-02   0.9992050596E+00
   0.1007017751E+01   0.9985128992E+00   0.9985128992E+00   0.5611922545E-04  -0.1047505108E-04  -0.1047505108E-04   0.6961631934E-02  -0.1476625788E-02  -0.1476625788E-02   0.9942363170E+00  -0.4944571474E-02  -0.4944571474E-02   0.1546755483E-02   0.1546755483E-02   0.1428963030E-07   0.1490029549E-02   0.9992050596E+00
   0.0000000000E+00   0.9981798585E+00   0.9981798585E+00   0.0000000000E+00  -0.1456519350E-04  -0.1456519350E-04   0.0000000000E+00  -0.1805576322E-02  -0.1805576322E-02   0.7977697281E+00  -0.4303964771E-01  -0.4303964771E-01   0.1858249009E-02   0.1858249009E-02   0.1446911022E-07   0.1799229788E-02   0.8408463748E+00
   0.2013000000E+01   0.1309122181E-02   0.1309122181E-02   0.1000000000E-03   0.1036500069E-04   0.1036500069E-04   0.1290000000E-01   0.1298757180E-02   0.1298757180E-02   0.1053811210E+01   0.1537618193E-02   0.1537618193E-02  -0.1123946712E-02  -0.1123946712E-02   0.1223612753E-07   0.1287952610E-02   0.1052284401E+01
   0.2013000000E+01   0.9986908778E+00   0.1309122181E-02   0.1000000000E-03  -0.1036500069E-04   0.1036500069E-04   0.1290000000E-01  -0.1298757180E-02   0.1298757180E-02   0.1053811210E+01   0.1537618193E-02   0.1537618192E-02   0.1123946711E-02  -0.1123946712E-02  -0.1223607339E-07   0.1287952610E-02   0.1052284401E+01
   0.2013000000E+01   0.1309122181E-02   0.9986908778E+00   0.1000000000E-03   0.1036500069E-04  -0.1036500069E-04   0.1290000000E-01   0.1298757180E-02  -0.1298757180E-02   0.1053811210E+01   0.1537618192E-02   0.1537618193E-02  -0.1123946712E-02   0.1123946711E-02  -0.1223607341E-07   0.1287952610E-02   0.1052284401E+01
   0.2013000000E+01   0.9986908778E+00   0.9986908778E+00   0.1000000000E-03  -0.1036500069E-04  -0.1036500069E-04   0.1290000000E-01  -0.1298757180E-02  -0.1298757180E-02   0.1053811210E+01   0.1537618192E-02   0.1537618192E-02   0.1123946711E-02   0.1123946711E-02   0.1223601925E-07   0.1287952610E-02   0.1052284401E+01
     1     2     3     4     5     6     7     8
     2     9    10     3     6    11    12     7
 VARIABLES = X,Y,Z,DU1,DU2,DU3,U1,U2,U3,S11,S22,S33,S12,S13,S23,Vf,SMISES
 ZONE, T="0.1310D+01" F=FEPOINT, I=   12 J=    2 ET=BRICK
   0.0000000000E+00   0.1834308324E-02   0.1834308324E-02   0.0000000000E+00   0.1416680790E-04   0.1416680790E-04   0.0000000000E+00   0.1820141516E-02   0.1820141516E-02   0.7550258149E+00  -0.5299831731E-01  -0.5299831731E-01  -0.2119604682E-02  -0.2119604682E-02   0.1521972367E-07   0.1844959040E-02   0.8080742379E+00
   0.1007076302E+01   0.1497099841E-02   0.1497099841E-02   0.5855034565E-04   0.9999002158E-05   0.9999002158E-05   0.7017751160E-02   0.1487100839E-02   0.1487100839E-02   0.9786142898E+00  -0.4415493117E-02  -0.4415493117E-02  -0.1671218073E-02  -0.1671218073E-02   0.1451406011E-07   0.1515063710E-02   0.9830602822E+00
   0.1007076302E+01   0.9985029002E+00   0.1497099841E-02   0.5855034565E-04  -0.9999002158E-05   0.9999002158E-05   0.7017751159E-02  -0.1487100839E-02   0.1487100839E-02   0.9786142898E+00  -0.4415493116E-02  -0.4415493116E-02   0.1671218072E-02  -0.1671218073E-02  -0.1451407911E-07   0.1515063710E-02   0.9830602822E+00
   0.0000000000E+00   0.9981656917E+00   0.1834308324E-02   0.0000000000E+00  -0.1416680790E-04   0.1416680790E-04   0.0000000000E+00  -0.1820141516E-02   0.1820141516E-02   0.7550258149E+00  -0.5299831731E-01  -0.5299831731E-01   0.2119604682E-02  -0.2119604682E-02  -0.1521987321E-07   0.1844959040E-02   0.8080742379E+00
   0.0000000000E+00   0.1834308324E-02   0.9981656917E+00   0.0000000000E+00   0.1416680790E-04  -0.1416680790E-04   0.0000000000E+00   0.1820141516E-02  -0.1820141516E-02   0.7550258149E+00  -0.5299831731E-01  -0.5299831731E-01  -0.2119604682E-02   0.2119604682E-02  -0.1521987320E-07   0.1844959040E-02   0.8080742379E+00
   0.1007076302E+01   0.1497099841E-02   0.9985029002E+00   0.5855034565E-04   0.9999002158E-05  -0.9999002158E-05   0.7017751159E-02   0.1487100839E-02  -0.1487100839E-02   0.9786142898E+00  -0.4415493116E-02  -0.4415493116E-02  -0.1671218073E-02   0.1671218072E-02  -0.1451407912E-07   0.1515063710E-02   0.9830602822E+00
   0.1007076302E+01   0.9985029002E+00   0.9985029002E+00   0.5855034565E-04  -0.9999002158E-05  -0.9999002158E-05   0.7017751159E-02  -0.1487100839E-02  -0.1487100839E-02   0.9786142897E+00  -0.4415493116E-02  -0.4415493116E-02   0.1671218072E-02   0.1671218072E-02   0.1451409808E-07   0.1515063710E-02   0.9830602821E+00
   0.0000000000E+00   0.9981656917E+00   0.9981656917E+00   0.0000000000E+00  -0.1416680790E-04  -0.1416680790E-04   0.0000000000E+00  -0.1820141516E-02  -0.1820141516E-02   0.7550258149E+00  -0.5299831731E-01  -0.5299831731E-01   0.2119604682E-02   0.2119604682E-02   0.1522002275E-07   0.1844959040E-02   0.8080742378E+00
   0.2013100000E+01   0.1319613572E-02   0.1319613572E-02   0.1000000000E-03   0.1049139176E-04   0.1049139176E-04   0.1300000000E-01   0.1309122181E-02   0.1309122181E-02   0.1054023175E+01   0.4027452470E-02   0.4027452470E-02  -0.1085658421E-02  -0.1085658421E-02   0.1171244956E-07   0.1300617494E-02   0.1050005829E+01
   0.2013100000E+01   0.9986803864E+00   0.1319613572E-02   0.1000000000E-03  -0.1049139176E-04   0.1049139176E-04   0.1300000000E-01  -0.1309122180E-02   0.1309122181E-02   0.1054023175E+01   0.4027452470E-02   0.4027452470E-02   0.1085658420E-02  -0.1085658421E-02  -0.1171238929E-07   0.1300617494E-02   0.1050005829E+01
   0.2013100000E+01   0.1319613572E-02   0.9986803864E+00   0.1000000000E-03   0.1049139176E-04  -0.1049139176E-04   0.1300000000E-01   0.1309122181E-02  -0.1309122180E-02   0.1054023175E+01   0.4027452470E-02   0.4027452470E-02  -0.1085658421E-02   0.1085658420E-02  -0.1171238931E-07   0.1300617494E-02   0.1050005829E+01
   0.2013100000E+01   0.9986803864E+00   0.9986803864E+00   0.1000000000E-03  -0.1049139176E-04  -0.1049139176E-04   0.1300000000E-01  -0.1309122180E-02  -0.1309122180E-02   0.1054023175E+01   0.4027452470E-02   0.4027452470E-02   0.1085658420E-02   0.1085658420E-02   0.1171232906E-07   0.1300617494E-02   0.1050005829E+01
     1     2     3     4     5     6     7     8
     2     9    10     3     6    11    12     7
 VARIABLES = X,Y,Z,DU1,DU2,DU3,U1,U2,U3,S11,S22,S33,S12,S13,S23,Vf,SMISES
 ZONE, T="0.1320D+01" F=FEPOINT, I=   12 J=    2 ET=BRICK
   0.0000000000E+00   0.1847992192E-02   0.1847992192E-02   0.0000000000E+00   0.1368386799E-04   0.1368386799E-04   0.0000000000E+00   0.1834308324E-02   0.1834308324E-02   0.7148436238E+00  -0.6109471956E-01  -0.6109471956E-01  -0.2350640181E-02  -0.2350640181E-02   0.1617722590E-07   0.1892122998E-02   0.7760025282E+00
   0.1007137616E+01   0.1506595906E-02   0.1506595906E-02   0.6131427133E-04   0.9496064831E-05   0.9496064831E-05   0.7076301505E-02   0.1497099841E-02   0.1497099841E-02   0.9611231780E+00  -0.4194597429E-02  -0.4194597429E-02  -0.1743946290E-02  -0.1743946290E-02   0.1474731182E-07   0.1542065573E-02   0.9653545061E+00
   0.1007137616E+01   0.9984934041E+00   0.1506595906E-02   0.6131427133E-04  -0.9496064831E-05   0.9496064831E-05   0.7076301505E-02  -0.1497099841E-02   0.1497099841E-02   0.9611231780E+00  -0.4194597428E-02  -0.4194597428E-02   0.1743946290E-02  -0.1743946290E-02  -0.1474732591E-07   0.1542065573E-02   0.9653545060E+00
   0.0000000000E+00   0.9981520078E+00   0.1847992192E-02   0.0000000000E+00  -0.1368386799E-04   0.1368386799E-04   0.0000000000E+00  -0.1834308324E-02   0.1834308324E-02   0.7148436238E+00  -0.6109471955E-01  -0.6109471955E-01   0.2350640181E-02  -0.2350640181E-02  -0.1617738205E-07   0.1892122998E-02   0.7760025282E+00
   0.0000000000E+00   0.1847992192E-02   0.9981520078E+00   0.0000000000E+00   0.1368386799E-04  -0.1368386799E-04   0.0000000000E+00   0.1834308324E-02  -0.1834308324E-02   0.7148436238E+00  -0.6109471955E-01  -0.6109471955E-01  -0.2350640181E-02   0.2350640181E-02  -0.1617738204E-07   0.1892122998E-02   0.7760025282E+00
   0.1007137616E+01   0.1506595906E-02   0.9984934041E+00   0.6131427133E-04   0.9496064831E-05  -0.9496064831E-05   0.7076301505E-02   0.1497099841E-02  -0.1497099841E-02   0.9611231780E+00  -0.4194597428E-02  -0.4194597428E-02  -0.1743946290E-02   0.1743946290E-02  -0.1474732592E-07   0.1542065573E-02   0.9653545060E+00
   0.1007137616E+01   0.9984934041E+00   0.9984934041E+00   0.6131427133E-04  -0.9496064831E-05  -0.9496064831E-05   0.7076301505E-02  -0.1497099841E-02  -0.1497099841E-02   0.9611231779E+00  -0.4194597427E-02  -0.4194597427E-02   0.1743946289E-02   0.1743946289E-02   0.1474733995E-07   0.1542065573E-02   0.9653545060E+00
   0.0000000000E+00   0.9981520078E+00   0.9981520078E+00   0.0000000000E+00  -0.1368386799E-04  -0.1368386799E-04   0.0000000000E+00  -0.1834308324E-02  -0.1834308324E-02   0.7148436238E+00  -0.6109471955E-01  -0.6109471955E-01   0.2350640180E-02   0.2350640180E-02   0.1617753817E-07   0.1892122998E-02   0.7760025281E+00
   0.2013200000E+01   0.1330231959E-02   0.1330231959E-02   0.1000000000E-03   0.1061838686E-04   0.1061838686E-04   0.1310000000E-01   0.1319613572E-02   0.1319613572E-02   0.1052277814E+01   0.4970850155E-02   0.4970850155E-02  -0.9786846094E-03  -0.9786846094E-03   0.1101866244E-07   0.1312883131E-02   0.1047315198E+01
   0.2013200000E+01   0.9986697680E+00   0.1330231959E-02   0.1000000000E-03  -0.1061838686E-04   0.1061838686E-04   0.1310000000E-01  -0.1319613572E-02   0.1319613572E-02   0.1052277814E+01   0.4970850155E-02   0.4970850155E-02   0.9786846087E-03  -0.9786846094E-03  -0.1101859661E-07   0.1312883131E-02   0.1047315198E+01
   0.2013200000E+01   0.1330231959E-02   0.9986697680E+00   0.1000000000E-03   0.1061838686E-04  -0.1061838686E-04   0.1310000000E-01   0.1319613572E-02  -0.1319613572E-02   0.1052277814E+01   0.4970850155E-02   0.4970850155E-02  -0.9786846094E-03   0.9786846087E-03  -0.1101859662E-07   0.1312883131E-02   0.1047315198E+01
   0.2013200000E+01   0.9986697680E+00   0.9986697680E+00   0.1000000000E-03  -0.1061838686E-04  -0.1061838686E-04   0.1310000000E-01  -0.1319613572E-02  -0.1319613572E-02   0.1052277814E+01   0.4970850155E-02   0.4970850155E-02   0.9786846087E-03   0.9786846087E-03   0.1101853088E-07   0.1312883131E-02   0.1047315198E+01
     1     2     3     4     5     6     7     8
     2     9    10     3     6    11    12     7
 VARIABLES = X,Y,Z,DU1,DU2,DU3,U1,U2,U3,S11,S22,S33,S12,S13,S23,Vf,SMISES
 ZONE, T="0.1330D+01" F=FEPOINT, I=   12 J=    2 ET=BRICK
   0.0000000000E+00   0.1861124274E-02   0.1861124274E-02   0.0000000000E+00   0.1313208251E-04   0.1313208251E-04   0.0000000000E+00   0.1847992192E-02   0.1847992192E-02   0.6781072286E+00  -0.6694712924E-01  -0.6694712924E-01  -0.2546833358E-02  -0.2546833358E-02   0.1724559678E-07   0.1940680245E-02   0.7451328348E+00
   0.1007201994E+01   0.1515563721E-02   0.1515563721E-02   0.6437798771E-04   0.8967815732E-05   0.8967815732E-05   0.7137615776E-02   0.1506595906E-02   0.1506595906E-02   0.9414927269E+00  -0.4597746573E-02  -0.4597746573E-02  -0.1760342664E-02  -0.1760342664E-02   0.1494393957E-07   0.1571405018E-02   0.9461330943E+00
   0.1007201994E+01   0.9984844363E+00   0.1515563721E-02   0.6437798771E-04  -0.8967815732E-05   0.8967815732E-05   0.7137615776E-02  -0.1506595906E-02   0.1506595906E-02   0.9414927269E+00  -0.4597746573E-02  -0.4597746573E-02   0.1760342663E-02  -0.1760342664E-02  -0.1494394677E-07   0.1571405018E-02   0.9461330942E+00
   0.0000000000E+00   0.9981388757E+00   0.1861124274E-02   0.0000000000E+00  -0.1313208251E-04   0.1313208251E-04   0.0000000000E+00  -0.1847992192E-02   0.1847992192E-02   0.6781072286E+00  -0.6694712924E-01  -0.6694712924E-01   0.2546833357E-02  -0.2546833358E-02  -0.1724575552E-07   0.1940680245E-02   0.7451328348E+00
   0.0000000000E+00   0.1861124274E-02   0.9981388757E+00   0.0000000000E+00   0.1313208251E-04  -0.1313208251E-04   0.0000000000E+00   0.1847992192E-02  -0.1847992192E-02   0.6781072286E+00  -0.6694712924E-01  -0.6694712924E-01  -0.2546833358E-02   0.2546833357E-02  -0.1724575551E-07   0.1940680245E-02   0.7451328348E+00
   0.1007201994E+01   0.1515563721E-02   0.9984844363E+00   0.6437798771E-04   0.8967815732E-05  -0.8967815732E-05   0.7137615776E-02   0.1506595906E-02  -0.1506595906E-02   0.9414927269E+00  -0.4597746573E-02  -0.4597746573E-02  -0.1760342664E-02   0.1760342663E-02  -0.1494394678E-07   0.1571405018E-02   0.9461330942E+00
   0.1007201994E+01   0.9984844363E+00   0.9984844363E+00   0.6437798771E-04  -0.8967815732E-05  -0.8967815732E-05   0.7137615776E-02  -0.1506595906E-02  -0.1506595906E-02   0.9414927269E+00  -0.4597746572E-02  -0.4597746572E-02   0.1760342663E-02   0.1760342663E-02   0.1494395391E-07   0.1571405018E-02   0.9461330942E+00
   0.0000000000E+00   0.9981388757E+00   0.9981388757E+00   0.0000000000E+00  -0.1313208251E-04  -0.1313208251E-04   0.0000000000E+00  -0.1847992192E-02  -0.1847992192E-02   0.6781072286E+00  -0.6694712923E-01  -0.6694712923E-01   0.2546833357E-02   0.2546833357E-02   0.1724591419E-07   0.1940680245E-02   0.7451328347E+00
   0.2013300000E+01   0.1340937803E-02   0.1340937803E-02   0.1000000000E-03   0.1070584348E-04   0.1070584348E-04   0.1320000000E-01   0.1330231959E-02   0.1330231959E-02   0.1048275192E+01   0.4110293627E-02   0.4110293627E-02  -0.8026308517E-03  -0.8026308517E-03   0.1019222652E-07   0.1324690443E-02   0.1044170454E+01
   0.2013300000E+01   0.9986590622E+00   0.1340937803E-02   0.1000000000E-03  -0.1070584348E-04   0.1070584348E-04   0.1320000000E-01  -0.1330231959E-02   0.1330231959E-02   0.1048275192E+01   0.4110293627E-02   0.4110293626E-02   0.8026308510E-03  -0.8026308517E-03  -0.1019215566E-07   0.1324690443E-02   0.1044170454E+01
   0.2013300000E+01   0.1340937803E-02   0.9986590622E+00   0.1000000000E-03   0.1070584348E-04  -0.1070584348E-04   0.1320000000E-01   0.1330231959E-02  -0.1330231959E-02   0.1048275192E+01   0.4110293626E-02   0.4110293627E-02  -0.8026308517E-03   0.8026308510E-03  -0.1019215568E-07   0.1324690443E-02   0.1044170454E+01
   0.2013300000E+01   0.9986590622E+00   0.9986590622E+00   0.1000000000E-03  -0.1070584348E-04  -0.1070584348E-04   0.1320000000E-01  -0.1330231959E-02  -0.1330231959E-02   0.1048275192E+01   0.4110293626E-02   0.4110293626E-02   0.8026308509E-03   0.8026308509E-03   0.1019208502E-07   0.1324690443E-02   0.1044170454E+01
     1     2     3     4     5     6     7     8
     2     9    10     3     6    11    12     7
 VARIABLES = X,Y,Z,DU1,DU2,DU3,U1,U2,U3,S11,S22,S33,S12,S13,S23,Vf,SMISES
 ZONE, T="0.1340D+01" F=FEPOINT, I=   12 J=    2 ET=BRICK
   0.0000000000E+00   0.1873642077E-02   0.1873642077E-02   0.0000000000E+00   0.1251780298E-04   0.1251780298E-04   0.0000000000E+00   0.1861124274E-02   0.1861124274E-02   0.6452815840E+00  -0.7049980058E-01  -0.7049980058E-01  -0.2706378314E-02  -0.2706378314E-02   0.1833245239E-07   0.1990915571E-02   0.7158736243E+00
   0.1007269702E+01   0.1523974218E-02   0.1523974218E-02   0.6770862973E-04   0.8410496666E-05   0.8410496666E-05   0.7201993764E-02   0.1515563721E-02   0.1515563721E-02   0.9194034124E+00  -0.6025041114E-02  -0.6025041114E-02  -0.1719496882E-02  -0.1719496882E-02   0.1508220557E-07   0.1603533148E-02   0.9254765152E+00
   0.1007269702E+01   0.9984760258E+00   0.1523974218E-02   0.6770862973E-04  -0.8410496666E-05   0.8410496666E-05   0.7201993764E-02  -0.1515563721E-02   0.1515563721E-02   0.9194034124E+00  -0.6025041113E-02  -0.6025041113E-02   0.1719496880E-02  -0.1719496882E-02  -0.1508220383E-07   0.1603533148E-02   0.9254765152E+00
   0.0000000000E+00   0.9981263579E+00   0.1873642077E-02   0.0000000000E+00  -0.1251780298E-04   0.1251780298E-04   0.0000000000E+00  -0.1861124274E-02   0.1861124274E-02   0.6452815840E+00  -0.7049980058E-01  -0.7049980057E-01   0.2706378313E-02  -0.2706378314E-02  -0.1833260958E-07   0.1990915571E-02   0.7158736243E+00
   0.0000000000E+00   0.1873642077E-02   0.9981263579E+00   0.0000000000E+00   0.1251780298E-04  -0.1251780298E-04   0.0000000000E+00   0.1861124274E-02  -0.1861124274E-02   0.6452815840E+00  -0.7049980057E-01  -0.7049980058E-01  -0.2706378314E-02   0.2706378313E-02  -0.1833260957E-07   0.1990915571E-02   0.7158736243E+00
   0.1007269702E+01   0.1523974218E-02   0.9984760258E+00   0.6770862973E-04   0.8410496666E-05  -0.8410496666E-05   0.7201993764E-02   0.1515563721E-02  -0.1515563721E-02   0.9194034124E+00  -0.6025041113E-02  -0.6025041113E-02  -0.1719496882E-02   0.1719496880E-02  -0.1508220384E-07   0.1603533148E-02   0.9254765152E+00
   0.1007269702E+01   0.9984760258E+00   0.9984760258E+00   0.6770862973E-04  -0.8410496666E-05  -0.8410496666E-05   0.7201993764E-02  -0.1515563721E-02  -0.1515563721E-02   0.9194034124E+00  -0.6025041112E-02  -0.6025041112E-02   0.1719496880E-02   0.1719496880E-02   0.1508220201E-07   0.1603533148E-02   0.9254765152E+00
   0.0000000000E+00   0.9981263579E+00   0.9981263579E+00   0.0000000000E+00  -0.1251780298E-04  -0.1251780298E-04   0.0000000000E+00  -0.1861124274E-02  -0.1861124274E-02   0.6452815840E+00  -0.7049980057E-01  -0.7049980057E-01   0.2706378313E-02   0.2706378313E-02   0.1833276662E-07   0.1990915571E-02   0.7158736243E+00
   0.2013400000E+01   0.1351649704E-02   0.1351649704E-02   0.1000000000E-03   0.1071190103E-04   0.1071190103E-04   0.1330000000E-01   0.1340937803E-02   0.1340937803E-02   0.1041818798E+01   0.1298643273E-02   0.1298643273E-02  -0.5617066632E-03  -0.5617066632E-03   0.9322925980E-08   0.1335978785E-02   0.1040522887E+01
   0.2013400000E+01   0.9986483503E+00   0.1351649704E-02   0.1000000000E-03  -0.1071190103E-04   0.1071190103E-04   0.1330000000E-01  -0.1340937803E-02   0.1340937803E-02   0.1041818798E+01   0.1298643273E-02   0.1298643273E-02   0.5617066624E-03  -0.5617066631E-03  -0.9322850366E-08   0.1335978785E-02   0.1040522887E+01
   0.2013400000E+01   0.1351649704E-02   0.9986483503E+00   0.1000000000E-03   0.1071190103E-04  -0.1071190103E-04   0.1330000000E-01   0.1340937803E-02  -0.1340937803E-02   0.1041818798E+01   0.1298643273E-02   0.1298643273E-02  -0.5617066631E-03   0.5617066624E-03  -0.9322850381E-08   0.1335978785E-02   0.1040522887E+01
   0.2013400000E+01   0.9986483503E+00   0.9986483503E+00   0.1000000000E-03  -0.1071190103E-04  -0.1071190103E-04   0.1330000000E-01  -0.1340937803E-02  -0.1340937803E-02   0.1041818798E+01   0.1298643273E-02   0.1298643273E-02   0.5617066623E-03   0.5617066623E-03   0.9322775117E-08   0.1335978785E-02   0.1040522887E+01
     1     2     3     4     5     6     7     8
     2     9    10     3     6    11    12     7
 VARIABLES = X,Y,Z,DU1,DU2,DU3,U1,U2,U3,S11,S22,S33,S12,S13,S23,Vf,SMISES
 ZONE, T="0.1350D+01" F=FEPOINT, I=   12 J=    2 ET=BRICK
   0.0000000000E+00   0.1885478286E-02   0.1885478286E-02   0.0000000000E+00   0.1183620835E-04   0.1183620835E-04   0.0000000000E+00   0.1873642077E-02   0.1873642077E-02   0.6165435185E+00  -0.7196864643E-01  -0.7196864643E-01  -0.2829698585E-02  -0.2829698585E-02   0.1935865116E-07   0.2043363710E-02   0.6886169830E+00
   0.1007340976E+01   0.1531788379E-02   0.1531788379E-02   0.7127404084E-04   0.7814160836E-05   0.7814160836E-05   0.7269702394E-02   0.1523974218E-02   0.1523974218E-02   0.8946758382E+00  -0.8880455400E-02  -0.8880455400E-02  -0.1624099667E-02  -0.1624099667E-02   0.1516620109E-07   0.1638863577E-02   0.9036093704E+00
   0.1007340976E+01   0.9984682116E+00   0.1531788379E-02   0.7127404084E-04  -0.7814160835E-05   0.7814160836E-05   0.7269702394E-02  -0.1523974218E-02   0.1523974218E-02   0.8946758382E+00  -0.8880455399E-02  -0.8880455399E-02   0.1624099665E-02  -0.1624099667E-02  -0.1516618822E-07   0.1638863577E-02   0.9036093704E+00
   0.0000000000E+00   0.9981145217E+00   0.1885478286E-02   0.0000000000E+00  -0.1183620834E-04   0.1183620835E-04   0.0000000000E+00  -0.1873642077E-02   0.1873642077E-02   0.6165435185E+00  -0.7196864643E-01  -0.7196864643E-01   0.2829698584E-02  -0.2829698585E-02  -0.1935880260E-07   0.2043363710E-02   0.6886169829E+00
   0.0000000000E+00   0.1885478286E-02   0.9981145217E+00   0.0000000000E+00   0.1183620835E-04  -0.1183620834E-04   0.0000000000E+00   0.1873642077E-02  -0.1873642077E-02   0.6165435185E+00  -0.7196864643E-01  -0.7196864643E-01  -0.2829698585E-02   0.2829698584E-02  -0.1935880259E-07   0.2043363710E-02   0.6886169829E+00
   0.1007340976E+01   0.1531788379E-02   0.9984682116E+00   0.7127404084E-04   0.7814160836E-05  -0.7814160835E-05   0.7269702394E-02   0.1523974218E-02  -0.1523974218E-02   0.8946758382E+00  -0.8880455399E-02  -0.8880455399E-02  -0.1624099667E-02   0.1624099665E-02  -0.1516618824E-07   0.1638863577E-02   0.9036093704E+00
   0.1007340976E+01   0.9984682116E+00   0.9984682116E+00   0.7127404084E-04  -0.7814160835E-05  -0.7814160835E-05   0.7269702394E-02  -0.1523974218E-02  -0.1523974218E-02   0.8946758382E+00  -0.8880455398E-02  -0.8880455398E-02   0.1624099665E-02   0.1624099665E-02   0.1516617526E-07   0.1638863577E-02   0.9036093703E+00
   0.0000000000E+00   0.9981145217E+00   0.9981145217E+00   0.0000000000E+00  -0.1183620834E-04  -0.1183620834E-04   0.0000000000E+00  -0.1873642077E-02  -0.1873642077E-02   0.6165435185E+00  -0.7196864643E-01  -0.7196864643E-01   0.2829698584E-02   0.2829698584E-02   0.1935895378E-07   0.2043363710E-02   0.6886169829E+00
   0.2013500000E+01   0.1362245424E-02   0.1362245424E-02   0.1000000000E-03   0.1059572070E-04   0.1059572070E-04   0.1340000000E-01   0.1351649704E-02   0.1351649704E-02   0.1032826331E+01  -0.3485740478E-02  -0.3485740478E-02  -0.2640488515E-03  -0.2640488515E-03   0.8538158490E-08   0.1346686105E-02   0.1036312679E+01
   0.2013500000E+01   0.9986377546E+00   0.1362245424E-02   0.1000000000E-03  -0.1059572070E-04   0.1059572070E-04   0.1340000000E-01  -0.1351649704E-02   0.1351649704E-02   0.1032826331E+01  -0.3485740478E-02  -0.3485740478E-02   0.2640488507E-03  -0.2640488515E-03  -0.8538077828E-08   0.1346686105E-02   0.1036312679E+01
   0.2013500000E+01   0.1362245424E-02   0.9986377546E+00   0.1000000000E-03   0.1059572070E-04  -0.1059572070E-04   0.1340000000E-01   0.1351649704E-02  -0.1351649704E-02   0.1032826331E+01  -0.3485740478E-02  -0.3485740478E-02  -0.2640488515E-03   0.2640488507E-03  -0.8538077842E-08   0.1346686105E-02   0.1036312679E+01
   0.2013500000E+01   0.9986377546E+00   0.9986377546E+00   0.1000000000E-03  -0.1059572070E-04  -0.1059572070E-04   0.1340000000E-01  -0.1351649704E-02  -0.1351649704E-02   0.1032826331E+01  -0.3485740478E-02  -0.3485740478E-02   0.2640488507E-03   0.2640488507E-03   0.8537997755E-08   0.1346686105E-02   0.1036312679E+01
     1     2     3     4     5     6     7     8
     2     9    10     3     6    11    12     7
 VARIABLES = X,Y,Z,DU1,DU2,DU3,U1,U2,U3,S11,S22,S33,S12,S13,S23,Vf,SMISES
 ZONE, T="0.1360D+01" F=FEPOINT, I=   12 J=    2 ET=BRICK
   0.0000000000E+00   0.1896554275E-02   0.1896554275E-02   0.0000000000E+00   0.1107598966E-04   0.1107598966E-04   0.0000000000E+00   0.1885478286E-02   0.1885478286E-02   0.5920320473E+00  -0.7169717052E-01  -0.7169717052E-01  -0.2919153054E-02  -0.2919153054E-02   0.2026536523E-07   0.2098640853E-02   0.6638449084E+00
   0.1007416015E+01   0.1538953029E-02   0.1538953029E-02   0.7503843823E-04   0.7164649954E-05   0.7164649954E-05   0.7340976435E-02   0.1531788379E-02   0.1531788379E-02   0.8675640931E+00  -0.1340642699E-01  -0.1340642699E-01  -0.1480385116E-02  -0.1480385116E-02   0.1522401191E-07   0.1677568637E-02   0.8810283149E+00
   0.1007416015E+01   0.9984610470E+00   0.1538953029E-02   0.7503843823E-04  -0.7164649953E-05   0.7164649954E-05   0.7340976435E-02  -0.1531788379E-02   0.1531788379E-02   0.8675640931E+00  -0.1340642699E-01  -0.1340642699E-01   0.1480385114E-02  -0.1480385116E-02  -0.1522398549E-07   0.1677568637E-02   0.8810283148E+00
   0.0000000000E+00   0.9981034457E+00   0.1896554275E-02   0.0000000000E+00  -0.1107598966E-04   0.1107598966E-04   0.0000000000E+00  -0.1885478286E-02   0.1885478286E-02   0.5920320473E+00  -0.7169717052E-01  -0.7169717052E-01   0.2919153053E-02  -0.2919153054E-02  -0.2026550667E-07   0.2098640853E-02   0.6638449083E+00
   0.0000000000E+00   0.1896554275E-02   0.9981034457E+00   0.0000000000E+00   0.1107598966E-04  -0.1107598966E-04   0.0000000000E+00   0.1885478286E-02  -0.1885478286E-02   0.5920320473E+00  -0.7169717052E-01  -0.7169717052E-01  -0.2919153054E-02   0.2919153053E-02  -0.2026550666E-07   0.2098640853E-02   0.6638449083E+00
   0.1007416015E+01   0.1538953029E-02   0.9984610470E+00   0.7503843823E-04   0.7164649954E-05  -0.7164649953E-05   0.7340976435E-02   0.1531788379E-02  -0.1531788379E-02   0.8675640931E+00  -0.1340642699E-01  -0.1340642699E-01  -0.1480385116E-02   0.1480385114E-02  -0.1522398550E-07   0.1677568637E-02   0.8810283148E+00
   0.1007416015E+01   0.9984610470E+00   0.9984610470E+00   0.7503843823E-04  -0.7164649954E-05  -0.7164649954E-05   0.7340976435E-02  -0.1531788379E-02  -0.1531788379E-02   0.8675640931E+00  -0.1340642699E-01  -0.1340642699E-01   0.1480385114E-02   0.1480385114E-02   0.1522395895E-07   0.1677568637E-02   0.8810283148E+00
   0.0000000000E+00   0.9981034457E+00   0.9981034457E+00   0.0000000000E+00  -0.1107598966E-04  -0.1107598966E-04   0.0000000000E+00  -0.1885478286E-02  -0.1885478286E-02   0.5920320473E+00  -0.7169717052E-01  -0.7169717052E-01   0.2919153053E-02   0.2919153053E-02   0.2026564768E-07   0.2098640853E-02   0.6638449083E+00
   0.2013600000E+01   0.1372565786E-02   0.1372565786E-02   0.1000000000E-03   0.1032036127E-04   0.1032036127E-04   0.1350000000E-01   0.1362245424E-02   0.1362245424E-02   0.1021337282E+01  -0.1012865301E-01  -0.1012865301E-01   0.7931749670E-04   0.7931749670E-04   0.7978726997E-08   0.1356749227E-02   0.1031465992E+01
   0.2013600000E+01   0.9986274342E+00   0.1372565786E-02   0.1000000000E-03  -0.1032036127E-04   0.1032036127E-04   0.1350000000E-01  -0.1362245424E-02   0.1362245424E-02   0.1021337282E+01  -0.1012865301E-01  -0.1012865301E-01  -0.7931749761E-04   0.7931749669E-04  -0.7978640169E-08   0.1356749227E-02   0.1031465992E+01
   0.2013600000E+01   0.1372565786E-02   0.9986274342E+00   0.1000000000E-03   0.1032036127E-04  -0.1032036127E-04   0.1350000000E-01   0.1362245424E-02  -0.1362245424E-02   0.1021337282E+01  -0.1012865301E-01  -0.1012865301E-01   0.7931749669E-04  -0.7931749761E-04  -0.7978640182E-08   0.1356749227E-02   0.1031465992E+01
   0.2013600000E+01   0.9986274342E+00   0.9986274342E+00   0.1000000000E-03  -0.1032036127E-04  -0.1032036127E-04   0.1350000000E-01  -0.1362245424E-02  -0.1362245424E-02   0.1021337282E+01  -0.1012865301E-01  -0.1012865301E-01  -0.7931749761E-04  -0.7931749761E-04   0.7978554232E-08   0.1356749227E-02   0.1031465992E+01
     1     2     3     4     5     6     7     8
     2     9    10     3     6    11    12     7
 VARIABLES = X,Y,Z,DU1,DU2,DU3,U1,U2,U3,S11,S22,S33,S12,S13,S23,Vf,SMISES
 ZONE, T="0.1370D+01" F=FEPOINT, I=   12 J=    2 ET=BRICK
   0.0000000000E+00   0.1906784884E-02   0.1906784884E-02   0.0000000000E+00   0.1023060880E-04   0.1023060880E-04   0.0000000000E+00   0.1896554275E-02   0.1896554275E-02   0.5721293725E+00  -0.6997838882E-01  -0.6997838882E-01  -0.2979208732E-02  -0.2979208732E-02   0.2102128947E-07   0.2157237879E-02   0.6422322856E+00
   0.1007494969E+01   0.1545401757E-02   0.1545401757E-02   0.7895368329E-04   0.6448728539E-05   0.6448728539E-05   0.7416014873E-02   0.1538953029E-02   0.1538953029E-02   0.8390532129E+00  -0.1948005351E-01  -0.1948005351E-01  -0.1298206407E-02  -0.1298206407E-02   0.1530508224E-07   0.1719358431E-02   0.8585956986E+00
   0.1007494969E+01   0.9984545982E+00   0.1545401757E-02   0.7895368329E-04  -0.6448728539E-05   0.6448728539E-05   0.7416014873E-02  -0.1538953029E-02   0.1538953029E-02   0.8390532128E+00  -0.1948005351E-01  -0.1948005351E-01   0.1298206405E-02  -0.1298206407E-02  -0.1530503939E-07   0.1719358431E-02   0.8585956985E+00
   0.0000000000E+00   0.9980932151E+00   0.1906784884E-02   0.0000000000E+00  -0.1023060880E-04   0.1023060880E-04   0.0000000000E+00  -0.1896554275E-02   0.1896554275E-02   0.5721293724E+00  -0.6997838882E-01  -0.6997838882E-01   0.2979208731E-02  -0.2979208732E-02  -0.2102141650E-07   0.2157237879E-02   0.6422322856E+00
   0.0000000000E+00   0.1906784884E-02   0.9980932151E+00   0.0000000000E+00   0.1023060880E-04  -0.1023060880E-04   0.0000000000E+00   0.1896554275E-02  -0.1896554275E-02   0.5721293724E+00  -0.6997838882E-01  -0.6997838882E-01  -0.2979208732E-02   0.2979208731E-02  -0.2102141649E-07   0.2157237879E-02   0.6422322856E+00
   0.1007494969E+01   0.1545401757E-02   0.9984545982E+00   0.7895368329E-04   0.6448728539E-05  -0.6448728539E-05   0.7416014873E-02   0.1538953029E-02  -0.1538953029E-02   0.8390532128E+00  -0.1948005351E-01  -0.1948005351E-01  -0.1298206407E-02   0.1298206405E-02  -0.1530503940E-07   0.1719358431E-02   0.8585956985E+00
   0.1007494969E+01   0.9984545982E+00   0.9984545982E+00   0.7895368329E-04  -0.6448728539E-05  -0.6448728539E-05   0.7416014873E-02  -0.1538953029E-02  -0.1538953029E-02   0.8390532128E+00  -0.1948005351E-01  -0.1948005351E-01   0.1298206405E-02   0.1298206405E-02   0.1530499639E-07   0.1719358431E-02   0.8585956985E+00
   0.0000000000E+00   0.9980932151E+00   0.9980932151E+00   0.0000000000E+00  -0.1023060880E-04  -0.1023060880E-04   0.0000000000E+00  -0.1896554275E-02  -0.1896554275E-02   0.5721293724E+00  -0.6997838882E-01  -0.6997838882E-01   0.2979208731E-02   0.2979208731E-02   0.2102154289E-07   0.2157237879E-02   0.6422322855E+00
   0.2013700000E+01   0.1382421426E-02   0.1382421426E-02   0.1000000000E-03   0.9855640173E-05   0.9855640173E-05   0.1360000000E-01   0.1372565786E-02   0.1372565786E-02   0.1007517967E+01  -0.1837639626E-01  -0.1837639626E-01   0.4555426016E-03   0.4555426016E-03   0.7772101629E-08   0.1366104958E-02   0.1025896187E+01
   0.2013700000E+01   0.9986175786E+00   0.1382421426E-02   0.1000000000E-03  -0.9855640172E-05   0.9855640173E-05   0.1360000000E-01  -0.1372565786E-02   0.1372565786E-02   0.1007517967E+01  -0.1837639626E-01  -0.1837639626E-01  -0.4555426026E-03   0.4555426016E-03  -0.7772006418E-08   0.1366104958E-02   0.1025896187E+01
   0.2013700000E+01   0.1382421426E-02   0.9986175786E+00   0.1000000000E-03   0.9855640173E-05  -0.9855640172E-05   0.1360000000E-01   0.1372565786E-02  -0.1372565786E-02   0.1007517967E+01  -0.1837639626E-01  -0.1837639626E-01   0.4555426016E-03  -0.4555426026E-03  -0.7772006432E-08   0.1366104958E-02   0.1025896187E+01
   0.2013700000E+01   0.9986175786E+00   0.9986175786E+00   0.1000000000E-03  -0.9855640172E-05  -0.9855640172E-05   0.1360000000E-01  -0.1372565786E-02  -0.1372565786E-02   0.1007517967E+01  -0.1837639626E-01  -0.1837639626E-01  -0.4555426026E-03  -0.4555426026E-03   0.7771912494E-08   0.1366104958E-02   0.1025896187E+01
     1     2     3     4     5     6     7     8
     2     9    10     3     6    11    12     7
 VARIABLES = X,Y,Z,DU1,DU2,DU3,U1,U2,U3,S11,S22,S33,S12,S13,S23,Vf,SMISES
 ZONE, T="0.1380D+01" F=FEPOINT, I=   12 J=    2 ET=BRICK
   0.0000000000E+00   0.1916095945E-02   0.1916095945E-02   0.0000000000E+00   0.9311060488E-05   0.9311060488E-05   0.0000000000E+00   0.1906784884E-02   0.1906784884E-02   0.5576270071E+00  -0.6693803350E-01  -0.6693803350E-01  -0.3017076860E-02  -0.3017076860E-02   0.2163159096E-07   0.2219371169E-02   0.6246963017E+00
   0.1007577919E+01   0.1551062247E-02   0.1551062247E-02   0.8295018465E-04   0.5660489317E-05   0.5660489317E-05   0.7494968556E-02   0.1545401757E-02   0.1545401757E-02   0.8109475911E+00  -0.2650688321E-01  -0.2650688321E-01  -0.1091082406E-02  -0.1091082406E-02   0.1547660122E-07   0.1763403244E-02   0.8375217640E+00
   0.1007577919E+01   0.9984489378E+00   0.1551062247E-02   0.8295018465E-04  -0.5660489317E-05   0.5660489317E-05   0.7494968556E-02  -0.1545401757E-02   0.1545401757E-02   0.8109475910E+00  -0.2650688321E-01  -0.2650688321E-01   0.1091082404E-02  -0.1091082406E-02  -0.1547653846E-07   0.1763403244E-02   0.8375217639E+00
   0.0000000000E+00   0.9980839041E+00   0.1916095945E-02   0.0000000000E+00  -0.9311060488E-05   0.9311060488E-05   0.0000000000E+00  -0.1906784884E-02   0.1906784884E-02   0.5576270071E+00  -0.6693803350E-01  -0.6693803350E-01   0.3017076858E-02  -0.3017076859E-02  -0.2163169894E-07   0.2219371169E-02   0.6246963017E+00
   0.0000000000E+00   0.1916095945E-02   0.9980839041E+00   0.0000000000E+00   0.9311060488E-05  -0.9311060488E-05   0.0000000000E+00   0.1906784884E-02  -0.1906784884E-02   0.5576270071E+00  -0.6693803350E-01  -0.6693803350E-01  -0.3017076859E-02   0.3017076858E-02  -0.2163169893E-07   0.2219371169E-02   0.6246963017E+00
   0.1007577919E+01   0.1551062247E-02   0.9984489378E+00   0.8295018465E-04   0.5660489317E-05  -0.5660489317E-05   0.7494968556E-02   0.1545401757E-02  -0.1545401757E-02   0.8109475910E+00  -0.2650688321E-01  -0.2650688321E-01  -0.1091082406E-02   0.1091082404E-02  -0.1547653847E-07   0.1763403244E-02   0.8375217639E+00
   0.1007577919E+01   0.9984489378E+00   0.9984489378E+00   0.8295018465E-04  -0.5660489317E-05  -0.5660489317E-05   0.7494968556E-02  -0.1545401757E-02  -0.1545401757E-02   0.8109475910E+00  -0.2650688320E-01  -0.2650688320E-01   0.1091082404E-02   0.1091082404E-02   0.1547647551E-07   0.1763403244E-02   0.8375217639E+00
   0.0000000000E+00   0.9980839041E+00   0.9980839041E+00   0.0000000000E+00  -0.9311060488E-05  -0.9311060488E-05   0.0000000000E+00  -0.1906784884E-02  -0.1906784884E-02   0.5576270071E+00  -0.6693803350E-01  -0.6693803350E-01   0.3017076858E-02   0.3017076858E-02   0.2163180600E-07   0.2219371169E-02   0.6246963016E+00
   0.2013800000E+01   0.1391602206E-02   0.1391602206E-02   0.1000000000E-03   0.9180780293E-05   0.9180780293E-05   0.1370000000E-01   0.1382421426E-02   0.1382421426E-02   0.9916633699E+00  -0.2784136113E-01  -0.2784136113E-01   0.8506536229E-03   0.8506536229E-03   0.8008750340E-08   0.1374692786E-02   0.1019511122E+01
   0.2013800000E+01   0.9986083978E+00   0.1391602206E-02   0.1000000000E-03  -0.9180780292E-05   0.9180780293E-05   0.1370000000E-01  -0.1382421426E-02   0.1382421426E-02   0.9916633699E+00  -0.2784136113E-01  -0.2784136113E-01  -0.8506536240E-03   0.8506536229E-03  -0.8008643221E-08   0.1374692786E-02   0.1019511122E+01
   0.2013800000E+01   0.1391602206E-02   0.9986083978E+00   0.1000000000E-03   0.9180780293E-05  -0.9180780292E-05   0.1370000000E-01   0.1382421426E-02  -0.1382421426E-02   0.9916633699E+00  -0.2784136113E-01  -0.2784136113E-01   0.8506536229E-03  -0.8506536240E-03  -0.8008643234E-08   0.1374692786E-02   0.1019511122E+01
   0.2013800000E+01   0.9986083978E+00   0.9986083978E+00   0.1000000000E-03  -0.9180780292E-05  -0.9180780292E-05   0.1370000000E-01  -0.1382421426E-02  -0.1382421426E-02   0.9916633698E+00  -0.2784136113E-01  -0.2784136113E-01  -0.8506536240E-03  -0.8506536240E-03   0.8008537898E-08   0.1374692785E-02   0.1019511122E+01
     1     2     3     4     5     6     7     8
     2     9    10     3     6    11    12     7
 VARIABLES = X,Y,Z,DU1,DU2,DU3,U1,U2,U3,S11,S22,S33,S12,S13,S23,Vf,SMISES
 ZONE, T="0.1390D+01" F=FEPOINT, I=   12 J=    2 ET=BRICK
   0.0000000000E+00   0.1924447610E-02   0.1924447610E-02   0.0000000000E+00   0.8351665539E-05   0.8351665539E-05   0.0000000000E+00   0.1916095945E-02   0.1916095945E-02   0.5496586500E+00  -0.6255323463E-01  -0.6255323463E-01  -0.3043380360E-02  -0.3043380360E-02   0.2214608275E-07   0.2284969854E-02   0.6123481057E+00
   0.1007664852E+01   0.1555867750E-02   0.1555867750E-02   0.8693361719E-04   0.4805503626E-05   0.4805503626E-05   0.7577918741E-02   0.1551062247E-02   0.1551062247E-02   0.7855662544E+00  -0.3354733769E-01  -0.3354733769E-01  -0.8757951154E-03  -0.8757951154E-03   0.1581444333E-07   0.1808537123E-02   0.8191863290E+00
   0.1007664852E+01   0.9984441322E+00   0.1555867750E-02   0.8693361719E-04  -0.4805503626E-05   0.4805503626E-05   0.7577918741E-02  -0.1551062247E-02   0.1551062247E-02   0.7855662544E+00  -0.3354733769E-01  -0.3354733769E-01   0.8757951130E-03  -0.8757951153E-03  -0.1581435639E-07   0.1808537122E-02   0.8191863289E+00
   0.0000000000E+00   0.9980755524E+00   0.1924447610E-02   0.0000000000E+00  -0.8351665539E-05   0.8351665539E-05   0.0000000000E+00  -0.1916095944E-02   0.1916095945E-02   0.5496586500E+00  -0.6255323462E-01  -0.6255323462E-01   0.3043380359E-02  -0.3043380360E-02  -0.2214616681E-07   0.2284969854E-02   0.6123481057E+00
   0.0000000000E+00   0.1924447610E-02   0.9980755524E+00   0.0000000000E+00   0.8351665539E-05  -0.8351665539E-05   0.0000000000E+00   0.1916095945E-02  -0.1916095944E-02   0.5496586500E+00  -0.6255323462E-01  -0.6255323462E-01  -0.3043380360E-02   0.3043380359E-02  -0.2214616680E-07   0.2284969854E-02   0.6123481057E+00
   0.1007664852E+01   0.1555867750E-02   0.9984441322E+00   0.8693361719E-04   0.4805503626E-05  -0.4805503626E-05   0.7577918741E-02   0.1551062247E-02  -0.1551062247E-02   0.7855662544E+00  -0.3354733769E-01  -0.3354733769E-01  -0.8757951153E-03   0.8757951130E-03  -0.1581435640E-07   0.1808537122E-02   0.8191863289E+00
   0.1007664852E+01   0.9984441322E+00   0.9984441322E+00   0.8693361719E-04  -0.4805503626E-05  -0.4805503626E-05   0.7577918741E-02  -0.1551062247E-02  -0.1551062247E-02   0.7855662543E+00  -0.3354733769E-01  -0.3354733769E-01   0.8757951130E-03   0.8757951130E-03   0.1581426923E-07   0.1808537122E-02   0.8191863289E+00
   0.0000000000E+00   0.9980755524E+00   0.9980755524E+00   0.0000000000E+00  -0.8351665539E-05  -0.8351665539E-05   0.0000000000E+00  -0.1916095944E-02  -0.1916095944E-02   0.5496586500E+00  -0.6255323462E-01  -0.6255323462E-01   0.3043380359E-02   0.3043380359E-02   0.2214624961E-07   0.2284969854E-02   0.6123481057E+00
   0.2013900000E+01   0.1399888831E-02   0.1399888831E-02   0.1000000000E-03   0.8286624674E-05   0.8286624674E-05   0.1380000000E-01   0.1391602206E-02   0.1391602206E-02   0.9741936369E+00  -0.3801833696E-01  -0.3801833696E-01   0.1249714706E-02   0.1249714706E-02   0.8723328536E-08   0.1382459427E-02   0.1012225864E+01
   0.2013900000E+01   0.9986001112E+00   0.1399888831E-02   0.1000000000E-03  -0.8286624674E-05   0.8286624674E-05   0.1380000000E-01  -0.1391602206E-02   0.1391602206E-02   0.9741936368E+00  -0.3801833696E-01  -0.3801833696E-01  -0.1249714707E-02   0.1249714706E-02  -0.8723204561E-08   0.1382459427E-02   0.1012225864E+01
   0.2013900000E+01   0.1399888831E-02   0.9986001112E+00   0.1000000000E-03   0.8286624674E-05  -0.8286624674E-05   0.1380000000E-01   0.1391602206E-02  -0.1391602206E-02   0.9741936368E+00  -0.3801833696E-01  -0.3801833696E-01   0.1249714706E-02  -0.1249714707E-02  -0.8723204573E-08   0.1382459427E-02   0.1012225864E+01
   0.2013900000E+01   0.9986001112E+00   0.9986001112E+00   0.1000000000E-03  -0.8286624674E-05  -0.8286624674E-05   0.1380000000E-01  -0.1391602206E-02  -0.1391602206E-02   0.9741936368E+00  -0.3801833696E-01  -0.3801833696E-01  -0.1249714707E-02  -0.1249714707E-02   0.8723083015E-08   0.1382459426E-02   0.1012225864E+01
     1     2     3     4     5     6     7     8
     2     9    10     3     6    11    12     7
 VARIABLES = X,Y,Z,DU1,DU2,DU3,U1,U2,U3,S11,S22,S33,S12,S13,S23,Vf,SMISES
 ZONE, T="0.1400D+01" F=FEPOINT, I=   12 J=    2 ET=BRICK
   0.0000000000E+00   0.1931852285E-02   0.1931852285E-02   0.0000000000E+00   0.7404674444E-05   0.7404674444E-05   0.0000000000E+00   0.1924447610E-02   0.1924447610E-02   0.5494282573E+00  -0.5676806362E-01  -0.5676806362E-01  -0.3072145647E-02  -0.3072145647E-02   0.2266086257E-07   0.2353773001E-02   0.6063364790E+00
   0.1007755643E+01   0.1559768562E-02   0.1559768562E-02   0.9079091053E-04   0.3900811363E-05   0.3900811363E-05   0.7664852358E-02   0.1555867750E-02   0.1555867750E-02   0.7651286337E+00  -0.3962812117E-01  -0.3962812117E-01  -0.6711878404E-03  -0.6711878404E-03   0.1638525677E-07   0.1853663134E-02   0.8048359021E+00
   0.1007755643E+01   0.9984402314E+00   0.1559768562E-02   0.9079091052E-04  -0.3900811363E-05   0.3900811363E-05   0.7664852358E-02  -0.1555867750E-02   0.1555867750E-02   0.7651286336E+00  -0.3962812116E-01  -0.3962812116E-01   0.6711878377E-03  -0.6711878403E-03  -0.1638514055E-07   0.1853663134E-02   0.8048359020E+00
   0.0000000000E+00   0.9980681477E+00   0.1931852285E-02   0.0000000000E+00  -0.7404674444E-05   0.7404674444E-05   0.0000000000E+00  -0.1924447610E-02   0.1924447610E-02   0.5494282573E+00  -0.5676806361E-01  -0.5676806361E-01   0.3072145645E-02  -0.3072145646E-02  -0.2266091769E-07   0.2353773001E-02   0.6063364790E+00
   0.0000000000E+00   0.1931852285E-02   0.9980681477E+00   0.0000000000E+00   0.7404674444E-05  -0.7404674444E-05   0.0000000000E+00   0.1924447610E-02  -0.1924447610E-02   0.5494282573E+00  -0.5676806361E-01  -0.5676806361E-01  -0.3072145646E-02   0.3072145645E-02  -0.2266091769E-07   0.2353773001E-02   0.6063364790E+00
   0.1007755643E+01   0.1559768562E-02   0.9984402314E+00   0.9079091052E-04   0.3900811363E-05  -0.3900811363E-05   0.7664852358E-02   0.1555867750E-02  -0.1555867750E-02   0.7651286336E+00  -0.3962812116E-01  -0.3962812116E-01  -0.6711878403E-03   0.6711878377E-03  -0.1638514056E-07   0.1853663134E-02   0.8048359020E+00
   0.1007755643E+01   0.9984402314E+00   0.9984402314E+00   0.9079091052E-04  -0.3900811363E-05  -0.3900811363E-05   0.7664852358E-02  -0.1555867750E-02  -0.1555867750E-02   0.7651286336E+00  -0.3962812116E-01  -0.3962812116E-01   0.6711878377E-03   0.6711878377E-03   0.1638502407E-07   0.1853663134E-02   0.8048359020E+00
   0.0000000000E+00   0.9980681477E+00   0.9980681477E+00   0.0000000000E+00  -0.7404674444E-05  -0.7404674444E-05   0.0000000000E+00  -0.1924447610E-02  -0.1924447610E-02   0.5494282573E+00  -0.5676806361E-01  -0.5676806361E-01   0.3072145645E-02   0.3072145645E-02   0.2266097113E-07   0.2353773001E-02   0.6063364790E+00
   0.2014000000E+01   0.1407066068E-02   0.1407066068E-02   0.1000000000E-03   0.7177237253E-05   0.7177237253E-05   0.1390000000E-01   0.1399888831E-02   0.1399888831E-02   0.9556421397E+00  -0.4831057253E-01  -0.4831057253E-01   0.1636666210E-02   0.1636666210E-02   0.9880440122E-08   0.1389364641E-02   0.1003976730E+01
   0.2014000000E+01   0.9985929339E+00   0.1407066068E-02   0.1000000000E-03  -0.7177237252E-05   0.7177237253E-05   0.1390000000E-01  -0.1399888831E-02   0.1399888831E-02   0.9556421396E+00  -0.4831057253E-01  -0.4831057253E-01  -0.1636666212E-02   0.1636666210E-02  -0.9880292930E-08   0.1389364641E-02   0.1003976730E+01
   0.2014000000E+01   0.1407066068E-02   0.9985929339E+00   0.1000000000E-03   0.7177237253E-05  -0.7177237252E-05   0.1390000000E-01   0.1399888831E-02  -0.1399888831E-02   0.9556421396E+00  -0.4831057253E-01  -0.4831057253E-01   0.1636666210E-02  -0.1636666212E-02  -0.9880292941E-08   0.1389364641E-02   0.1003976730E+01
   0.2014000000E+01   0.9985929339E+00   0.9985929339E+00   0.1000000000E-03  -0.7177237253E-05  -0.7177237253E-05   0.1390000000E-01  -0.1399888831E-02  -0.1399888831E-02   0.9556421396E+00  -0.4831057253E-01  -0.4831057253E-01  -0.1636666212E-02  -0.1636666212E-02   0.9880148938E-08   0.1389364641E-02   0.1003976730E+01
     1     2     3     4     5     6     7     8
     2     9    10     3     6    11    12     7
 VARIABLES = X,Y,Z,DU1,DU2,DU3,U1,U2,U3,S11,S22,S33,S12,S13,S23,Vf,SMISES
 ZONE, T="0.1410D+01" F=FEPOINT, I=   12 J=    2 ET=BRICK
   0.0000000000E+00   0.1938380860E-02   0.1938380860E-02   0.0000000000E+00   0.6528575748E-05   0.6528575748E-05   0.0000000000E+00   0.1931852285E-02   0.1931852285E-02   0.5578975460E+00  -0.4958059500E-01  -0.4958059500E-01  -0.3119695329E-02  -0.3119695329E-02   0.2331017066E-07   0.2425425797E-02   0.6076223455E+00
   0.1007850046E+01   0.1562741014E-02   0.1562741014E-02   0.9440279264E-04   0.2972452481E-05   0.2972452481E-05   0.7755643269E-02   0.1559768562E-02   0.1559768562E-02   0.7511920066E+00  -0.4400793751E-01  -0.4400793751E-01  -0.4963916891E-03  -0.4963916891E-03   0.1722486104E-07   0.1898078681E-02   0.7952867308E+00
   0.1007850046E+01   0.9984372590E+00   0.1562741014E-02   0.9440279264E-04  -0.2972452481E-05   0.2972452481E-05   0.7755643269E-02  -0.1559768562E-02   0.1559768562E-02   0.7511920066E+00  -0.4400793750E-01  -0.4400793750E-01   0.4963916861E-03  -0.4963916891E-03  -0.1722470965E-07   0.1898078681E-02   0.7952867308E+00
   0.0000000000E+00   0.9980616191E+00   0.1938380860E-02   0.0000000000E+00  -0.6528575748E-05   0.6528575748E-05   0.0000000000E+00  -0.1931852284E-02   0.1931852285E-02   0.5578975460E+00  -0.4958059500E-01  -0.4958059500E-01   0.3119695328E-02  -0.3119695329E-02  -0.2331019184E-07   0.2425425797E-02   0.6076223455E+00
   0.0000000000E+00   0.1938380860E-02   0.9980616191E+00   0.0000000000E+00   0.6528575748E-05  -0.6528575748E-05   0.0000000000E+00   0.1931852285E-02  -0.1931852284E-02   0.5578975460E+00  -0.4958059500E-01  -0.4958059500E-01  -0.3119695329E-02   0.3119695328E-02  -0.2331019184E-07   0.2425425797E-02   0.6076223455E+00
   0.1007850046E+01   0.1562741014E-02   0.9984372590E+00   0.9440279264E-04   0.2972452481E-05  -0.2972452481E-05   0.7755643269E-02   0.1559768562E-02  -0.1559768562E-02   0.7511920066E+00  -0.4400793750E-01  -0.4400793750E-01  -0.4963916891E-03   0.4963916861E-03  -0.1722470966E-07   0.1898078681E-02   0.7952867308E+00
   0.1007850046E+01   0.9984372590E+00   0.9984372590E+00   0.9440279264E-04  -0.2972452481E-05  -0.2972452481E-05   0.7755643269E-02  -0.1559768562E-02  -0.1559768562E-02   0.7511920065E+00  -0.4400793750E-01  -0.4400793750E-01   0.4963916861E-03   0.4963916861E-03   0.1722455797E-07   0.1898078681E-02   0.7952867308E+00
   0.0000000000E+00   0.9980616191E+00   0.9980616191E+00   0.0000000000E+00  -0.6528575748E-05  -0.6528575748E-05   0.0000000000E+00  -0.1931852284E-02  -0.1931852284E-02   0.5578975460E+00  -0.4958059500E-01  -0.4958059500E-01   0.3119695328E-02   0.3119695328E-02   0.2331021080E-07   0.2425425797E-02   0.6076223454E+00
   0.2014100000E+01   0.1412936816E-02   0.1412936816E-02   0.1000000000E-03   0.5870747646E-05   0.5870747646E-05   0.1400000000E-01   0.1407066068E-02   0.1407066068E-02   0.9366321676E+00  -0.5806357755E-01  -0.5806357755E-01   0.1994277403E-02   0.1994277403E-02   0.1136655806E-07   0.1395386950E-02   0.9947317354E+00
   0.2014100000E+01   0.9985870632E+00   0.1412936816E-02   0.1000000000E-03  -0.5870747646E-05   0.5870747646E-05   0.1400000000E-01  -0.1407066068E-02   0.1407066068E-02   0.9366321676E+00  -0.5806357755E-01  -0.5806357755E-01  -0.1994277404E-02   0.1994277403E-02  -0.1136638003E-07   0.1395386950E-02   0.9947317354E+00
   0.2014100000E+01   0.1412936816E-02   0.9985870632E+00   0.1000000000E-03   0.5870747646E-05  -0.5870747646E-05   0.1400000000E-01   0.1407066068E-02  -0.1407066068E-02   0.9366321676E+00  -0.5806357755E-01  -0.5806357755E-01   0.1994277403E-02  -0.1994277404E-02  -0.1136638004E-07   0.1395386950E-02   0.9947317354E+00
   0.2014100000E+01   0.9985870632E+00   0.9985870632E+00   0.1000000000E-03  -0.5870747646E-05  -0.5870747646E-05   0.1400000000E-01  -0.1407066068E-02  -0.1407066068E-02   0.9366321676E+00  -0.5806357755E-01  -0.5806357755E-01  -0.1994277404E-02  -0.1994277404E-02   0.1136620611E-07   0.1395386950E-02   0.9947317353E+00
     1     2     3     4     5     6     7     8
     2     9    10     3     6    11    12     7
 VARIABLES = X,Y,Z,DU1,DU2,DU3,U1,U2,U3,S11,S22,S33,S12,S13,S23,Vf,SMISES
 ZONE, T="0.1420D+01" F=FEPOINT, I=   12 J=    2 ET=BRICK
   0.0000000000E+00   0.1944158865E-02   0.1944158865E-02   0.0000000000E+00   0.5778004253E-05   0.5778004253E-05   0.0000000000E+00   0.1938380860E-02   0.1938380860E-02   0.5755584703E+00  -0.4105146143E-01  -0.4105146143E-01  -0.3202764473E-02  -0.3202764473E-02   0.2425267747E-07   0.2499525281E-02   0.6167596521E+00
   0.1007947703E+01   0.1564794065E-02   0.1564794065E-02   0.9765702737E-04   0.2053050231E-05   0.2053050231E-05   0.7850046061E-02   0.1562741014E-02   0.1562741014E-02   0.7444366190E+00  -0.4624814041E-01  -0.4624814041E-01  -0.3692877381E-03  -0.3692877381E-03   0.1832556408E-07   0.1941535416E-02   0.7907804762E+00
   0.1007947703E+01   0.9984352059E+00   0.1564794065E-02   0.9765702737E-04  -0.2053050230E-05   0.2053050231E-05   0.7850046061E-02  -0.1562741014E-02   0.1562741014E-02   0.7444366190E+00  -0.4624814041E-01  -0.4624814041E-01   0.3692877348E-03  -0.3692877381E-03  -0.1832537111E-07   0.1941535416E-02   0.7907804762E+00
   0.0000000000E+00   0.9980558411E+00   0.1944158865E-02   0.0000000000E+00  -0.5778004253E-05   0.5778004253E-05   0.0000000000E+00  -0.1938380860E-02   0.1938380860E-02   0.5755584703E+00  -0.4105146143E-01  -0.4105146143E-01   0.3202764472E-02  -0.3202764473E-02  -0.2425265986E-07   0.2499525281E-02   0.6167596521E+00
   0.0000000000E+00   0.1944158865E-02   0.9980558411E+00   0.0000000000E+00   0.5778004253E-05  -0.5778004253E-05   0.0000000000E+00   0.1938380860E-02  -0.1938380860E-02   0.5755584703E+00  -0.4105146143E-01  -0.4105146143E-01  -0.3202764473E-02   0.3202764472E-02  -0.2425265986E-07   0.2499525281E-02   0.6167596521E+00
   0.1007947703E+01   0.1564794065E-02   0.9984352059E+00   0.9765702737E-04   0.2053050231E-05  -0.2053050230E-05   0.7850046061E-02   0.1562741014E-02  -0.1562741014E-02   0.7444366190E+00  -0.4624814041E-01  -0.4624814041E-01  -0.3692877381E-03   0.3692877348E-03  -0.1832537112E-07   0.1941535416E-02   0.7907804762E+00
   0.1007947703E+01   0.9984352059E+00   0.9984352059E+00   0.9765702737E-04  -0.2053050231E-05  -0.2053050231E-05   0.7850046061E-02  -0.1562741014E-02  -0.1562741014E-02   0.7444366190E+00  -0.4624814041E-01  -0.4624814041E-01   0.3692877347E-03   0.3692877347E-03   0.1832517780E-07   0.1941535415E-02   0.7907804761E+00
   0.0000000000E+00   0.9980558411E+00   0.9980558411E+00   0.0000000000E+00  -0.5778004253E-05  -0.5778004253E-05   0.0000000000E+00  -0.1938380860E-02  -0.1938380860E-02   0.5755584703E+00  -0.4105146143E-01  -0.4105146143E-01   0.3202764471E-02   0.3202764471E-02   0.2425263938E-07   0.2499525280E-02   0.6167596521E+00
   0.2014200000E+01   0.1417336108E-02   0.1417336108E-02   0.1000000000E-03   0.4399291952E-05   0.4399291952E-05   0.1410000000E-01   0.1412936816E-02   0.1412936816E-02   0.9178409756E+00  -0.6660611454E-01  -0.6660611454E-01   0.2304437660E-02   0.2304437660E-02   0.1299223470E-07   0.1400527874E-02   0.9844956451E+00
   0.2014200000E+01   0.9985826639E+00   0.1417336108E-02   0.1000000000E-03  -0.4399291951E-05   0.4399291952E-05   0.1410000000E-01  -0.1412936816E-02   0.1412936816E-02   0.9178409756E+00  -0.6660611453E-01  -0.6660611453E-01  -0.2304437662E-02   0.2304437660E-02  -0.1299201720E-07   0.1400527873E-02   0.9844956450E+00
   0.2014200000E+01   0.1417336108E-02   0.9985826639E+00   0.1000000000E-03   0.4399291952E-05  -0.4399291951E-05   0.1410000000E-01   0.1412936816E-02  -0.1412936816E-02   0.9178409756E+00  -0.6660611453E-01  -0.6660611453E-01   0.2304437660E-02  -0.2304437662E-02  -0.1299201721E-07   0.1400527873E-02   0.9844956450E+00
   0.2014200000E+01   0.9985826639E+00   0.9985826639E+00   0.1000000000E-03  -0.4399291951E-05  -0.4399291951E-05   0.1410000000E-01  -0.1412936816E-02  -0.1412936816E-02   0.9178409756E+00  -0.6660611453E-01  -0.6660611453E-01  -0.2304437662E-02  -0.2304437662E-02   0.1299180490E-07   0.1400527873E-02   0.9844956450E+00
     1     2     3     4     5     6     7     8
     2     9    10     3     6    11    12     7
 VARIABLES = X,Y,Z,DU1,DU2,DU3,U1,U2,U3,S11,S22,S33,S12,S13,S23,Vf,SMISES
 ZONE, T="0.1430D+01" F=FEPOINT, I=    8 J=    1 ET=BRICK
   0.1008048184E+01   0.1565965806E-02   0.1565965806E-02   0.1004812505E-03   0.1171741245E-05   0.1171741245E-05   0.7947703089E-02   0.1564794065E-02   0.1564794065E-02   0.4485582368E+00  -0.3602012082E-01  -0.3602012082E-01   0.1290421425E-02   0.1290421425E-02   0.7047001495E-08   0.7132133121E-03   0.4846092882E+00
   0.2014300000E+01   0.1420144019E-02   0.1420144019E-02   0.1000000000E-03   0.2807911761E-05   0.2807911761E-05   0.1420000000E-01   0.1417336108E-02   0.1417336108E-02   0.8999534413E+00  -0.7329800897E-01  -0.7329800897E-01   0.2548708792E-02   0.2548708792E-02   0.1450816683E-07   0.1404813852E-02   0.9733115270E+00
   0.2014300000E+01   0.9985798560E+00   0.1420144019E-02   0.1000000000E-03  -0.2807911761E-05   0.2807911762E-05   0.1420000000E-01  -0.1417336108E-02   0.1417336108E-02   0.8999534412E+00  -0.7329800897E-01  -0.7329800897E-01  -0.2548708794E-02   0.2548708792E-02  -0.1450790066E-07   0.1404813851E-02   0.9733115269E+00
   0.1008048184E+01   0.9984340342E+00   0.1565965806E-02   0.1004812505E-03  -0.1171741245E-05   0.1171741245E-05   0.7947703089E-02  -0.1564794064E-02   0.1564794065E-02   0.4485582368E+00  -0.3602012082E-01  -0.3602012082E-01  -0.1290421427E-02   0.1290421425E-02  -0.7046837993E-08   0.7132133121E-03   0.4846092882E+00
   0.1008048184E+01   0.1565965806E-02   0.9984340342E+00   0.1004812505E-03   0.1171741245E-05  -0.1171741245E-05   0.7947703089E-02   0.1564794065E-02  -0.1564794064E-02   0.4485582368E+00  -0.3602012082E-01  -0.3602012082E-01   0.1290421425E-02  -0.1290421427E-02  -0.7046838001E-08   0.7132133121E-03   0.4846092882E+00
   0.2014300000E+01   0.1420144019E-02   0.9985798560E+00   0.1000000000E-03   0.2807911762E-05  -0.2807911761E-05   0.1420000000E-01   0.1417336108E-02  -0.1417336108E-02   0.8999534412E+00  -0.7329800897E-01  -0.7329800897E-01   0.2548708792E-02  -0.2548708794E-02  -0.1450790067E-07   0.1404813851E-02   0.9733115269E+00
   0.2014300000E+01   0.9985798560E+00   0.9985798560E+00   0.1000000000E-03  -0.2807911761E-05  -0.2807911761E-05   0.1420000000E-01  -0.1417336108E-02  -0.1417336108E-02   0.8999534412E+00  -0.7329800897E-01  -0.7329800897E-01  -0.2548708794E-02  -0.2548708794E-02   0.1450764090E-07   0.1404813851E-02   0.9733115269E+00
   0.1008048184E+01   0.9984340342E+00   0.9984340342E+00   0.1004812505E-03  -0.1171741245E-05  -0.1171741245E-05   0.7947703089E-02  -0.1564794064E-02  -0.1564794064E-02   0.4485582368E+00  -0.3602012082E-01  -0.3602012082E-01  -0.1290421427E-02  -0.1290421427E-02   0.7046675409E-08   0.7132133120E-03   0.4846092881E+00
     1     2     3     4     5     6     7     8
 VARIABLES = X,Y,Z,DU1,DU2,DU3,U1,U2,U3,S11,S22,S33,S12,S13,S23,Vf,SMISES
 ZONE, T="0.1440D+01" F=FEPOINT, I=    8 J=    1 ET=BRICK
   0.1008160308E+01   0.1566476103E-02   0.1566476103E-02   0.1121235358E-03   0.5102969169E-06   0.5102969169E-06   0.8048184339E-02   0.1565965806E-02   0.1565965806E-02   0.4404291463E+00  -0.3818701182E-01  -0.3818701182E-01   0.1372122266E-02   0.1372122266E-02   0.7633316298E-08   0.7148375389E-03   0.4786515647E+00
   0.2014400000E+01   0.1421296343E-02   0.1421296343E-02   0.1000000000E-03   0.1152323909E-05   0.1152323909E-05   0.1430000000E-01   0.1420144019E-02   0.1420144019E-02   0.8835939581E+00  -0.7758208691E-01  -0.7758208691E-01   0.2710017829E-02   0.2710017829E-02   0.1564279180E-07   0.1408294592E-02   0.9612448198E+00
   0.2014400000E+01   0.9985787037E+00   0.1421296343E-02   0.1000000000E-03  -0.1152323908E-05   0.1152323909E-05   0.1430000000E-01  -0.1420144019E-02   0.1420144019E-02   0.8835939581E+00  -0.7758208691E-01  -0.7758208691E-01  -0.2710017830E-02   0.2710017829E-02  -0.1564246759E-07   0.1408294592E-02   0.9612448198E+00
   0.1008160308E+01   0.9984335239E+00   0.1566476103E-02   0.1121235358E-03  -0.5102969170E-06   0.5102969172E-06   0.8048184339E-02  -0.1565965806E-02   0.1565965806E-02   0.4404291463E+00  -0.3818701181E-01  -0.3818701181E-01  -0.1372122269E-02   0.1372122266E-02  -0.7633121533E-08   0.7148375389E-03   0.4786515647E+00
   0.1008160308E+01   0.1566476103E-02   0.9984335239E+00   0.1121235358E-03   0.5102969172E-06  -0.5102969170E-06   0.8048184339E-02   0.1565965806E-02  -0.1565965806E-02   0.4404291463E+00  -0.3818701181E-01  -0.3818701181E-01   0.1372122266E-02  -0.1372122269E-02  -0.7633121540E-08   0.7148375389E-03   0.4786515647E+00
   0.2014400000E+01   0.1421296343E-02   0.9985787037E+00   0.1000000000E-03   0.1152323909E-05  -0.1152323908E-05   0.1430000000E-01   0.1420144019E-02  -0.1420144019E-02   0.8835939581E+00  -0.7758208691E-01  -0.7758208691E-01   0.2710017829E-02  -0.2710017830E-02  -0.1564246760E-07   0.1408294592E-02   0.9612448198E+00
   0.2014400000E+01   0.9985787037E+00   0.9985787037E+00   0.1000000000E-03  -0.1152323909E-05  -0.1152323909E-05   0.1430000000E-01  -0.1420144019E-02  -0.1420144019E-02   0.8835939581E+00  -0.7758208691E-01  -0.7758208691E-01  -0.2710017830E-02  -0.2710017830E-02   0.1564215117E-07   0.1408294592E-02   0.9612448198E+00
   0.1008160308E+01   0.9984335239E+00   0.9984335239E+00   0.1121235358E-03  -0.5102969173E-06  -0.5102969173E-06   0.8048184339E-02  -0.1565965806E-02  -0.1565965806E-02   0.4404291462E+00  -0.3818701181E-01  -0.3818701181E-01  -0.1372122268E-02  -0.1372122268E-02   0.7632927895E-08   0.7148375388E-03   0.4786515646E+00
     1     2     3     4     5     6     7     8
 VARIABLES = X,Y,Z,DU1,DU2,DU3,U1,U2,U3,S11,S22,S33,S12,S13,S23,Vf,SMISES
 ZONE, T="0.1450D+01" F=FEPOINT, I=    8 J=    1 ET=BRICK
   0.1008280792E+01   0.1566112456E-02   0.1566112456E-02   0.1204838336E-03  -0.3636466797E-06  -0.3636466797E-06   0.8160307875E-02   0.1566476103E-02   0.1566476103E-02   0.4268341315E+00  -0.4270760348E-01  -0.4270760348E-01   0.1396998146E-02   0.1396998146E-02   0.7840025199E-08   0.7159839143E-03   0.4695791462E+00
   0.2014500000E+01   0.1420567966E-02   0.1420567966E-02   0.1000000000E-03  -0.7283769876E-06  -0.7283769876E-06   0.1440000000E-01   0.1421296343E-02   0.1421296343E-02   0.8561473553E+00  -0.8649564999E-01  -0.8649564999E-01   0.2758195014E-02   0.2758195014E-02   0.1603367330E-07   0.1410752050E-02   0.9427156476E+00
   0.2014500000E+01   0.9985794320E+00   0.1420567966E-02   0.1000000000E-03   0.7283769881E-06  -0.7283769872E-06   0.1440000000E-01  -0.1421296343E-02   0.1421296343E-02   0.8561473553E+00  -0.8649564999E-01  -0.8649564999E-01  -0.2758195016E-02   0.2758195014E-02  -0.1603328215E-07   0.1410752050E-02   0.9427156476E+00
   0.1008280792E+01   0.9984338875E+00   0.1566112456E-02   0.1204838336E-03   0.3636466796E-06  -0.3636466794E-06   0.8160307875E-02  -0.1566476103E-02   0.1566476103E-02   0.4268341315E+00  -0.4270760348E-01  -0.4270760348E-01  -0.1396998148E-02   0.1396998146E-02  -0.7839795935E-08   0.7159839143E-03   0.4695791462E+00
   0.1008280792E+01   0.1566112456E-02   0.9984338875E+00   0.1204838336E-03  -0.3636466794E-06   0.3636466796E-06   0.8160307875E-02   0.1566476103E-02  -0.1566476103E-02   0.4268341315E+00  -0.4270760348E-01  -0.4270760348E-01   0.1396998146E-02  -0.1396998148E-02  -0.7839795942E-08   0.7159839143E-03   0.4695791462E+00
   0.2014500000E+01   0.1420567966E-02   0.9985794320E+00   0.1000000000E-03  -0.7283769872E-06   0.7283769881E-06   0.1440000000E-01   0.1421296343E-02  -0.1421296343E-02   0.8561473553E+00  -0.8649564999E-01  -0.8649564999E-01   0.2758195014E-02  -0.2758195016E-02  -0.1603328215E-07   0.1410752050E-02   0.9427156476E+00
   0.2014500000E+01   0.9985794320E+00   0.9985794320E+00   0.1000000000E-03   0.7283769878E-06   0.7283769878E-06   0.1440000000E-01  -0.1421296343E-02  -0.1421296343E-02   0.8561473552E+00  -0.8649564999E-01  -0.8649564999E-01  -0.2758195016E-02  -0.2758195016E-02   0.1603290020E-07   0.1410752049E-02   0.9427156475E+00
   0.1008280792E+01   0.9984338875E+00   0.9984338875E+00   0.1204838336E-03   0.3636466793E-06   0.3636466793E-06   0.8160307875E-02  -0.1566476103E-02  -0.1566476103E-02   0.4268341315E+00  -0.4270760347E-01  -0.4270760347E-01  -0.1396998148E-02  -0.1396998148E-02   0.7839567927E-08   0.7159839142E-03   0.4695791462E+00
     1     2     3     4     5     6     7     8
 VARIABLES = X,Y,Z,DU1,DU2,DU3,U1,U2,U3,S11,S22,S33,S12,S13,S23,Vf,SMISES
 ZONE, T="0.1460D+01" F=FEPOINT, I=    8 J=    1 ET=BRICK
   0.1008409280E+01   0.1564763423E-02   0.1564763423E-02   0.1284885907E-03  -0.1349032546E-05  -0.1349032546E-05   0.8280791709E-02   0.1566112456E-02   0.1566112456E-02   0.4104523404E+00  -0.4787828468E-01  -0.4787828468E-01   0.1364767111E-02   0.1364767111E-02   0.7618249065E-08   0.7166855087E-03   0.4583672034E+00
   0.2014600000E+01   0.1417745668E-02   0.1417745668E-02   0.1000000000E-03  -0.2822297937E-05  -0.2822297937E-05   0.1450000000E-01   0.1420567966E-02   0.1420567966E-02   0.8229742740E+00  -0.9663264712E-01  -0.9663264712E-01   0.2692792281E-02   0.2692792281E-02   0.1558509982E-07   0.1412252430E-02   0.9196778938E+00
   0.2014600000E+01   0.9985822543E+00   0.1417745668E-02   0.1000000000E-03   0.2822297937E-05  -0.2822297936E-05   0.1450000000E-01  -0.1420567966E-02   0.1420567966E-02   0.8229742740E+00  -0.9663264711E-01  -0.9663264712E-01  -0.2692792284E-02   0.2692792281E-02  -0.1558463120E-07   0.1412252430E-02   0.9196778937E+00
   0.1008409280E+01   0.9984352366E+00   0.1564763423E-02   0.1284885907E-03   0.1349032546E-05  -0.1349032546E-05   0.8280791709E-02  -0.1566112456E-02   0.1566112456E-02   0.4104523404E+00  -0.4787828468E-01  -0.4787828468E-01  -0.1364767114E-02   0.1364767111E-02  -0.7617981189E-08   0.7166855087E-03   0.4583672034E+00
   0.1008409280E+01   0.1564763423E-02   0.9984352366E+00   0.1284885907E-03  -0.1349032546E-05   0.1349032546E-05   0.8280791709E-02   0.1566112456E-02  -0.1566112456E-02   0.4104523404E+00  -0.4787828468E-01  -0.4787828468E-01   0.1364767111E-02  -0.1364767114E-02  -0.7617981194E-08   0.7166855087E-03   0.4583672034E+00
   0.2014600000E+01   0.1417745668E-02   0.9985822543E+00   0.1000000000E-03  -0.2822297936E-05   0.2822297937E-05   0.1450000000E-01   0.1420567966E-02  -0.1420567966E-02   0.8229742740E+00  -0.9663264712E-01  -0.9663264711E-01   0.2692792281E-02  -0.2692792284E-02  -0.1558463120E-07   0.1412252430E-02   0.9196778937E+00
   0.2014600000E+01   0.9985822543E+00   0.9985822543E+00   0.1000000000E-03   0.2822297937E-05   0.2822297937E-05   0.1450000000E-01  -0.1420567966E-02  -0.1420567966E-02   0.8229742739E+00  -0.9663264711E-01  -0.9663264711E-01  -0.2692792284E-02  -0.2692792284E-02   0.1558417329E-07   0.1412252430E-02   0.9196778937E+00
   0.1008409280E+01   0.9984352366E+00   0.9984352366E+00   0.1284885907E-03   0.1349032546E-05   0.1349032546E-05   0.8280791709E-02  -0.1566112456E-02  -0.1566112456E-02   0.4104523404E+00  -0.4787828467E-01  -0.4787828467E-01  -0.1364767114E-02  -0.1364767114E-02   0.7617714635E-08   0.7166855086E-03   0.4583672034E+00
     1     2     3     4     5     6     7     8
 VARIABLES = X,Y,Z,DU1,DU2,DU3,U1,U2,U3,S11,S22,S33,S12,S13,S23,Vf,SMISES
 ZONE, T="0.1470D+01" F=FEPOINT, I=    8 J=    1 ET=BRICK
   0.1008545371E+01   0.1562320752E-02   0.1562320752E-02   0.1360904503E-03  -0.2442671136E-05  -0.2442671136E-05   0.8409280299E-02   0.1564763423E-02   0.1564763423E-02   0.3915914572E+00  -0.5311520800E-01  -0.5311520800E-01   0.1268408942E-02   0.1268408942E-02   0.6927654692E-08   0.7170250272E-03   0.4447392289E+00
   0.2014700000E+01   0.1412630355E-02   0.1412630355E-02   0.1000000000E-03  -0.5115312842E-05  -0.5115312842E-05   0.1460000000E-01   0.1417745668E-02   0.1417745668E-02   0.7846339179E+00  -0.1067973506E+00  -0.1067973506E+00   0.2499720900E-02   0.2499720900E-02   0.1421779687E-07   0.1412971980E-02   0.8914943622E+00
   0.2014700000E+01   0.9985873696E+00   0.1412630355E-02   0.1000000000E-03   0.5115312843E-05  -0.5115312842E-05   0.1460000000E-01  -0.1417745668E-02   0.1417745668E-02   0.7846339178E+00  -0.1067973506E+00  -0.1067973506E+00  -0.2499720902E-02   0.2499720899E-02  -0.1421723946E-07   0.1412971980E-02   0.8914943621E+00
   0.1008545371E+01   0.9984376792E+00   0.1562320752E-02   0.1360904503E-03   0.2442671136E-05  -0.2442671136E-05   0.8409280299E-02  -0.1564763423E-02   0.1564763423E-02   0.3915914572E+00  -0.5311520800E-01  -0.5311520800E-01  -0.1268408945E-02   0.1268408942E-02  -0.6927343748E-08   0.7170250272E-03   0.4447392288E+00
   0.1008545371E+01   0.1562320752E-02   0.9984376792E+00   0.1360904503E-03  -0.2442671136E-05   0.2442671136E-05   0.8409280299E-02   0.1564763423E-02  -0.1564763423E-02   0.3915914572E+00  -0.5311520800E-01  -0.5311520800E-01   0.1268408942E-02  -0.1268408945E-02  -0.6927343753E-08   0.7170250272E-03   0.4447392288E+00
   0.2014700000E+01   0.1412630355E-02   0.9985873696E+00   0.1000000000E-03  -0.5115312842E-05   0.5115312843E-05   0.1460000000E-01   0.1417745668E-02  -0.1417745668E-02   0.7846339178E+00  -0.1067973506E+00  -0.1067973506E+00   0.2499720899E-02  -0.2499720902E-02  -0.1421723946E-07   0.1412971980E-02   0.8914943621E+00
   0.2014700000E+01   0.9985873696E+00   0.9985873696E+00   0.1000000000E-03   0.5115312843E-05   0.5115312843E-05   0.1460000000E-01  -0.1417745668E-02  -0.1417745668E-02   0.7846339178E+00  -0.1067973506E+00  -0.1067973506E+00  -0.2499720902E-02  -0.2499720902E-02   0.1421669432E-07   0.1412971980E-02   0.8914943621E+00
   0.1008545371E+01   0.9984376792E+00   0.9984376792E+00   0.1360904503E-03   0.2442671136E-05   0.2442671136E-05   0.8409280299E-02  -0.1564763423E-02  -0.1564763423E-02   0.3915914572E+00  -0.5311520800E-01  -0.5311520800E-01  -0.1268408945E-02  -0.1268408945E-02   0.6927034129E-08   0.7170250271E-03   0.4447392288E+00
     1     2     3     4     5     6     7     8
 VARIABLES = X,Y,Z,DU1,DU2,DU3,U1,U2,U3,S11,S22,S33,S12,S13,S23,Vf,SMISES
 ZONE, T="0.1480D+01" F=FEPOINT, I=    8 J=    1 ET=BRICK
   0.1008688615E+01   0.1558692889E-02   0.1558692889E-02   0.1432443187E-03  -0.3627863161E-05  -0.3627863161E-05   0.8545370750E-02   0.1562320752E-02   0.1562320752E-02   0.3704471456E+00  -0.5776978492E-01  -0.5776978492E-01   0.1100580518E-02   0.1100580518E-02   0.5798483866E-08   0.7171258505E-03   0.4282423916E+00
   0.2014800000E+01   0.1405065697E-02   0.1405065697E-02   0.1000000000E-03  -0.7564658594E-05  -0.7564658594E-05   0.1470000000E-01   0.1412630355E-02   0.1412630355E-02   0.7414314629E+00  -0.1156496020E+00  -0.1156496020E+00   0.2164070862E-02   0.2164070862E-02   0.1199168486E-07   0.1413179151E-02   0.8571302485E+00
   0.2014800000E+01   0.9985949343E+00   0.1405065697E-02   0.1000000000E-03   0.7564658595E-05  -0.7564658594E-05   0.1470000000E-01  -0.1412630355E-02   0.1412630355E-02   0.7414314629E+00  -0.1156496020E+00  -0.1156496020E+00  -0.2164070865E-02   0.2164070862E-02  -0.1199102724E-07   0.1413179151E-02   0.8571302485E+00
   0.1008688615E+01   0.9984413071E+00   0.1558692889E-02   0.1432443187E-03   0.3627863161E-05  -0.3627863161E-05   0.8545370750E-02  -0.1562320752E-02   0.1562320752E-02   0.3704471456E+00  -0.5776978492E-01  -0.5776978492E-01  -0.1100580522E-02   0.1100580518E-02  -0.5798125380E-08   0.7171258505E-03   0.4282423915E+00
   0.1008688615E+01   0.1558692889E-02   0.9984413071E+00   0.1432443187E-03  -0.3627863161E-05   0.3627863161E-05   0.8545370750E-02   0.1562320752E-02  -0.1562320752E-02   0.3704471456E+00  -0.5776978492E-01  -0.5776978492E-01   0.1100580518E-02  -0.1100580522E-02  -0.5798125384E-08   0.7171258505E-03   0.4282423915E+00
   0.2014800000E+01   0.1405065697E-02   0.9985949343E+00   0.1000000000E-03  -0.7564658594E-05   0.7564658595E-05   0.1470000000E-01   0.1412630355E-02  -0.1412630355E-02   0.7414314629E+00  -0.1156496020E+00  -0.1156496020E+00   0.2164070862E-02  -0.2164070865E-02  -0.1199102724E-07   0.1413179151E-02   0.8571302485E+00
   0.2014800000E+01   0.9985949343E+00   0.9985949343E+00   0.1000000000E-03   0.7564658594E-05   0.7564658594E-05   0.1470000000E-01  -0.1412630355E-02  -0.1412630355E-02   0.7414314628E+00  -0.1156496020E+00  -0.1156496020E+00  -0.2164070865E-02  -0.2164070865E-02   0.1199038350E-07   0.1413179151E-02   0.8571302485E+00
   0.1008688615E+01   0.9984413071E+00   0.9984413071E+00   0.1432443187E-03   0.3627863161E-05   0.3627863161E-05   0.8545370750E-02  -0.1562320752E-02  -0.1562320752E-02   0.3704471455E+00  -0.5776978492E-01  -0.5776978492E-01  -0.1100580522E-02  -0.1100580522E-02   0.5797768145E-08   0.7171258504E-03   0.4282423915E+00
     1     2     3     4     5     6     7     8
 VARIABLES = X,Y,Z,DU1,DU2,DU3,U1,U2,U3,S11,S22,S33,S12,S13,S23,Vf,SMISES
 ZONE, T="0.1490D+01" F=FEPOINT, I=    8 J=    1 ET=BRICK
   0.1008838520E+01   0.1553817788E-02   0.1553817788E-02   0.1499053198E-03  -0.4875100651E-05  -0.4875100651E-05   0.8688615068E-02   0.1558692889E-02   0.1558692889E-02   0.3471113189E+00  -0.6119646031E-01  -0.6119646031E-01   0.8551788521E-03   0.8551788521E-03   0.4363544055E-08   0.7171308262E-03   0.4083239023E+00
   0.2014900000E+01   0.1394965315E-02   0.1394965315E-02   0.1000000000E-03  -0.1010038218E-04  -0.1010038218E-04   0.1480000000E-01   0.1405065697E-02   0.1405065697E-02   0.6934468799E+00  -0.1218464787E+00  -0.1218464787E+00   0.1673337368E-02   0.1673337368E-02   0.9170527616E-08   0.1413187326E-02   0.8153242743E+00
   0.2014900000E+01   0.9986050347E+00   0.1394965315E-02   0.1000000000E-03   0.1010038218E-04  -0.1010038218E-04   0.1480000000E-01  -0.1405065697E-02   0.1405065697E-02   0.6934468799E+00  -0.1218464787E+00  -0.1218464787E+00  -0.1673337371E-02   0.1673337368E-02  -0.9169759500E-08   0.1413187326E-02   0.8153242743E+00
   0.1008838520E+01   0.9984461822E+00   0.1553817788E-02   0.1499053198E-03   0.4875100651E-05  -0.4875100651E-05   0.8688615068E-02  -0.1558692889E-02   0.1558692889E-02   0.3471113189E+00  -0.6119646031E-01  -0.6119646031E-01  -0.8551788565E-03   0.8551788521E-03  -0.4363134042E-08   0.7171308262E-03   0.4083239022E+00
   0.1008838520E+01   0.1553817788E-02   0.9984461822E+00   0.1499053198E-03  -0.4875100651E-05   0.4875100651E-05   0.8688615068E-02   0.1558692889E-02  -0.1558692889E-02   0.3471113189E+00  -0.6119646031E-01  -0.6119646031E-01   0.8551788521E-03  -0.8551788565E-03  -0.4363134046E-08   0.7171308262E-03   0.4083239022E+00
   0.2014900000E+01   0.1394965315E-02   0.9986050347E+00   0.1000000000E-03  -0.1010038218E-04   0.1010038218E-04   0.1480000000E-01   0.1405065697E-02  -0.1405065697E-02   0.6934468799E+00  -0.1218464787E+00  -0.1218464787E+00   0.1673337368E-02  -0.1673337371E-02  -0.9169759494E-08   0.1413187326E-02   0.8153242743E+00
   0.2014900000E+01   0.9986050347E+00   0.9986050347E+00   0.1000000000E-03   0.1010038218E-04   0.1010038218E-04   0.1480000000E-01  -0.1405065697E-02  -0.1405065697E-02   0.6934468799E+00  -0.1218464787E+00  -0.1218464787E+00  -0.1673337371E-02  -0.1673337371E-02   0.9169006851E-08   0.1413187326E-02   0.8153242742E+00
   0.1008838520E+01   0.9984461822E+00   0.9984461822E+00   0.1499053198E-03   0.4875100650E-05   0.4875100650E-05   0.8688615068E-02  -0.1558692889E-02  -0.1558692889E-02   0.3471113189E+00  -0.6119646030E-01  -0.6119646030E-01  -0.8551788565E-03  -0.8551788565E-03   0.4362725123E-08   0.7171308262E-03   0.4083239022E+00
     1     2     3     4     5     6     7     8
 VARIABLES = X,Y,Z,DU1,DU2,DU3,U1,U2,U3,S11,S22,S33,S12,S13,S23,Vf,SMISES
 ZONE, T="0.1500D+01" F=FEPOINT, I=    8 J=    1 ET=BRICK
   0.1008994553E+01   0.1547671112E-02   0.1547671112E-02   0.1560329529E-03  -0.6146676065E-05  -0.6146676065E-05   0.8838520388E-02   0.1553817788E-02   0.1553817788E-02   0.3217629586E+00  -0.6290690768E-01  -0.6290690768E-01   0.5295367639E-03   0.5295367639E-03   0.2883984677E-08   0.7171308262E-03   0.3846764298E+00
   0.2015000000E+01   0.1382329316E-02   0.1382329316E-02   0.1000000000E-03  -0.1263599847E-04  -0.1263599847E-04   0.1490000000E-01   0.1394965315E-02   0.1394965315E-02   0.6409996423E+00  -0.1243921150E+00  -0.1243921150E+00   0.1022122371E-02   0.1022122371E-02   0.6275784192E-08   0.1413187326E-02   0.7654040477E+00
   0.2015000000E+01   0.9986176707E+00   0.1382329316E-02   0.1000000000E-03   0.1263599847E-04  -0.1263599847E-04   0.1490000000E-01  -0.1394965315E-02   0.1394965315E-02   0.6409996423E+00  -0.1243921150E+00  -0.1243921150E+00  -0.1022122375E-02   0.1022122371E-02  -0.6274897357E-08   0.1413187326E-02   0.7654040477E+00
   0.1008994553E+01   0.9984523289E+00   0.1547671112E-02   0.1560329529E-03   0.6146676064E-05  -0.6146676064E-05   0.8838520388E-02  -0.1553817788E-02   0.1553817788E-02   0.3217629586E+00  -0.6290690768E-01  -0.6290690768E-01  -0.5295367688E-03   0.5295367639E-03  -0.2883520016E-08   0.7171308262E-03   0.3846764297E+00
   0.1008994553E+01   0.1547671112E-02   0.9984523289E+00   0.1560329529E-03  -0.6146676064E-05   0.6146676064E-05   0.8838520388E-02   0.1553817788E-02  -0.1553817788E-02   0.3217629586E+00  -0.6290690768E-01  -0.6290690768E-01   0.5295367639E-03  -0.5295367688E-03  -0.2883520018E-08   0.7171308262E-03   0.3846764297E+00
   0.2015000000E+01   0.1382329316E-02   0.9986176707E+00   0.1000000000E-03  -0.1263599847E-04   0.1263599847E-04   0.1490000000E-01   0.1394965315E-02  -0.1394965315E-02   0.6409996423E+00  -0.1243921150E+00  -0.1243921150E+00   0.1022122371E-02  -0.1022122375E-02  -0.6274897348E-08   0.1413187326E-02   0.7654040477E+00
   0.2015000000E+01   0.9986176707E+00   0.9986176707E+00   0.1000000000E-03   0.1263599847E-04   0.1263599847E-04   0.1490000000E-01  -0.1394965315E-02  -0.1394965315E-02   0.6409996423E+00  -0.1243921150E+00  -0.1243921150E+00  -0.1022122375E-02  -0.1022122375E-02   0.6274027557E-08   0.1413187326E-02   0.7654040477E+00
   0.1008994553E+01   0.9984523289E+00   0.9984523289E+00   0.1560329529E-03   0.6146676063E-05   0.6146676063E-05   0.8838520388E-02  -0.1553817788E-02  -0.1553817788E-02   0.3217629586E+00  -0.6290690767E-01  -0.6290690767E-01  -0.5295367688E-03  -0.5295367688E-03   0.2883056197E-08   0.7171308262E-03   0.3846764297E+00
     1     2     3     4     5     6     7     8
 VARIABLES = X,Y,Z,DU1,DU2,DU3,U1,U2,U3,S11,S22,S33,S12,S13,S23,Vf,SMISES
 ZONE, T="0.1510D+01" F=FEPOINT, I=    8 J=    1 ET=BRICK
   0.1009156150E+01   0.1540268300E-02   0.1540268300E-02   0.1615967687E-03  -0.7402812030E-05  -0.7402812030E-05   0.8994553341E-02   0.1547671112E-02   0.1547671112E-02   0.2947927019E+00  -0.6267185930E-01  -0.6267185930E-01   0.1251310288E-03   0.1251310288E-03   0.1746382520E-08   0.7171308262E-03   0.3574649592E+00
   0.2015100000E+01   0.1367247744E-02   0.1367247744E-02   0.1000000000E-03  -0.1508157232E-04  -0.1508157232E-04   0.1500000000E-01   0.1382329316E-02   0.1382329316E-02   0.5848852302E+00  -0.1228350688E+00  -0.1228350688E+00   0.2134028005E-03   0.2134028005E-03   0.4080240390E-08   0.1413187326E-02   0.7077208858E+00
   0.2015100000E+01   0.9986327523E+00   0.1367247744E-02   0.1000000000E-03   0.1508157232E-04  -0.1508157232E-04   0.1500000000E-01  -0.1382329316E-02   0.1382329316E-02   0.5848852302E+00  -0.1228350688E+00  -0.1228350688E+00  -0.2134028043E-03   0.2134028004E-03  -0.4079228816E-08   0.1413187326E-02   0.7077208858E+00
   0.1009156150E+01   0.9984597317E+00   0.1540268300E-02   0.1615967687E-03   0.7402812029E-05  -0.7402812030E-05   0.8994553341E-02  -0.1547671112E-02   0.1547671112E-02   0.2947927019E+00  -0.6267185929E-01  -0.6267185930E-01  -0.1251310342E-03   0.1251310288E-03  -0.1745860913E-08   0.7171308262E-03   0.3574649592E+00
   0.1009156150E+01   0.1540268300E-02   0.9984597317E+00   0.1615967687E-03  -0.7402812030E-05   0.7402812029E-05   0.8994553341E-02   0.1547671112E-02  -0.1547671112E-02   0.2947927019E+00  -0.6267185930E-01  -0.6267185929E-01   0.1251310288E-03  -0.1251310342E-03  -0.1745860914E-08   0.7171308262E-03   0.3574649592E+00
   0.2015100000E+01   0.1367247744E-02   0.9986327523E+00   0.1000000000E-03  -0.1508157232E-04   0.1508157232E-04   0.1500000000E-01   0.1382329316E-02  -0.1382329316E-02   0.5848852302E+00  -0.1228350688E+00  -0.1228350688E+00   0.2134028004E-03  -0.2134028043E-03  -0.4079228804E-08   0.1413187326E-02   0.7077208858E+00
   0.2015100000E+01   0.9986327523E+00   0.9986327523E+00   0.1000000000E-03   0.1508157232E-04   0.1508157232E-04   0.1500000000E-01  -0.1382329316E-02  -0.1382329316E-02   0.5848852302E+00  -0.1228350688E+00  -0.1228350688E+00  -0.2134028043E-03  -0.2134028043E-03   0.4078235788E-08   0.1413187326E-02   0.7077208857E+00
   0.1009156150E+01   0.9984597317E+00   0.9984597317E+00   0.1615967687E-03   0.7402812029E-05   0.7402812029E-05   0.8994553341E-02  -0.1547671112E-02  -0.1547671112E-02   0.2947927019E+00  -0.6267185929E-01  -0.6267185929E-01  -0.1251310342E-03  -0.1251310342E-03   0.1745339798E-08   0.7171308262E-03   0.3574649592E+00
     1     2     3     4     5     6     7     8
 VARIABLES = X,Y,Z,DU1,DU2,DU3,U1,U2,U3,S11,S22,S33,S12,S13,S23,Vf,SMISES
 ZONE, T="0.1520D+01" F=FEPOINT, I=    8 J=    1 ET=BRICK
   0.1009322723E+01   0.1531665101E-02   0.1531665101E-02   0.1665724348E-03  -0.8603199422E-05  -0.8603199422E-05   0.9156150110E-02   0.1540268300E-02   0.1540268300E-02   0.2665313970E+00  -0.6040125011E-01  -0.6040125011E-01  -0.3533807899E-03  -0.3533807899E-03   0.1428774848E-08   0.7171308262E-03   0.3269360931E+00
   0.2015200000E+01   0.1349900836E-02   0.1349900836E-02   0.1000000000E-03  -0.1734690760E-04  -0.1734690760E-04   0.1510000000E-01   0.1367247744E-02   0.1367247744E-02   0.5257903852E+00  -0.1170077329E+00  -0.1170077329E+00  -0.7435034205E-03  -0.7435034205E-03   0.3538828320E-08   0.1413187326E-02   0.6428058749E+00
   0.2015200000E+01   0.9986500992E+00   0.1349900836E-02   0.1000000000E-03   0.1734690760E-04  -0.1734690760E-04   0.1510000000E-01  -0.1367247744E-02   0.1367247744E-02   0.5257903852E+00  -0.1170077329E+00  -0.1170077329E+00   0.7435034164E-03  -0.7435034205E-03  -0.3537688917E-08   0.1413187326E-02   0.6428058749E+00
   0.1009322723E+01   0.9984683349E+00   0.1531665101E-02   0.1665724348E-03   0.8603199421E-05  -0.8603199422E-05   0.9156150110E-02  -0.1540268300E-02   0.1540268300E-02   0.2665313970E+00  -0.6040125011E-01  -0.6040125011E-01   0.3533807840E-03  -0.3533807899E-03  -0.1428195091E-08   0.7171308262E-03   0.3269360931E+00
   0.1009322723E+01   0.1531665101E-02   0.9984683349E+00   0.1665724348E-03  -0.8603199422E-05   0.8603199421E-05   0.9156150110E-02   0.1540268300E-02  -0.1540268300E-02   0.2665313970E+00  -0.6040125011E-01  -0.6040125011E-01  -0.3533807899E-03   0.3533807840E-03  -0.1428195090E-08   0.7171308262E-03   0.3269360931E+00
   0.2015200000E+01   0.1349900836E-02   0.9986500992E+00   0.1000000000E-03  -0.1734690760E-04   0.1734690760E-04   0.1510000000E-01   0.1367247744E-02  -0.1367247744E-02   0.5257903852E+00  -0.1170077329E+00  -0.1170077329E+00  -0.7435034205E-03   0.7435034164E-03  -0.3537688900E-08   0.1413187326E-02   0.6428058749E+00
   0.2015200000E+01   0.9986500992E+00   0.9986500992E+00   0.1000000000E-03   0.1734690760E-04   0.1734690760E-04   0.1510000000E-01  -0.1367247744E-02  -0.1367247744E-02   0.5257903852E+00  -0.1170077329E+00  -0.1170077329E+00   0.7435034164E-03   0.7435034164E-03   0.3536569493E-08   0.1413187326E-02   0.6428058748E+00
   0.1009322723E+01   0.9984683349E+00   0.9984683349E+00   0.1665724348E-03   0.8603199421E-05   0.8603199421E-05   0.9156150110E-02  -0.1540268300E-02  -0.1540268300E-02   0.2665313970E+00  -0.6040125011E-01  -0.6040125011E-01   0.3533807840E-03   0.3533807840E-03   0.1427615377E-08   0.7171308262E-03   0.3269360931E+00
     1     2     3     4     5     6     7     8
 VARIABLES = X,Y,Z,DU1,DU2,DU3,U1,U2,U3,S11,S22,S33,S12,S13,S23,Vf,SMISES
 ZONE, T="0.1530D+01" F=FEPOINT, I=    8 J=    1 ET=BRICK
   0.1009493663E+01   0.1521955533E-02   0.1521955533E-02   0.1709399903E-03  -0.9709567494E-05  -0.9709567494E-05   0.9322722545E-02   0.1531665101E-02   0.1531665101E-02   0.2372281218E+00  -0.5613883993E-01  -0.5613883993E-01  -0.8982312087E-03  -0.8982312087E-03   0.2452936357E-08   0.7171308262E-03   0.2933917403E+00
   0.2015300000E+01   0.1330553707E-02   0.1330553707E-02   0.1000000000E-03  -0.1934712970E-04  -0.1934712970E-04   0.1520000000E-01   0.1349900836E-02   0.1349900836E-02   0.4642550254E+00  -0.1070185078E+00  -0.1070185078E+00  -0.1833058998E-02  -0.1833058998E-02   0.5693290663E-08   0.1413187326E-02   0.5713265238E+00
   0.2015300000E+01   0.9986694463E+00   0.1330553707E-02   0.1000000000E-03   0.1934712970E-04  -0.1934712970E-04   0.1520000000E-01  -0.1349900836E-02   0.1349900836E-02   0.4642550254E+00  -0.1070185078E+00  -0.1070185078E+00   0.1833058993E-02  -0.1833058998E-02  -0.5692024015E-08   0.1413187326E-02   0.5713265238E+00
   0.1009493663E+01   0.9984780445E+00   0.1521955533E-02   0.1709399903E-03   0.9709567493E-05  -0.9709567494E-05   0.9322722545E-02  -0.1531665101E-02   0.1531665101E-02   0.2372281218E+00  -0.5613883993E-01  -0.5613883993E-01   0.8982312023E-03  -0.8982312087E-03  -0.2452298629E-08   0.7171308262E-03   0.2933917403E+00
   0.1009493663E+01   0.1521955533E-02   0.9984780445E+00   0.1709399903E-03  -0.9709567494E-05   0.9709567493E-05   0.9322722545E-02   0.1531665101E-02  -0.1531665101E-02   0.2372281218E+00  -0.5613883993E-01  -0.5613883993E-01  -0.8982312087E-03   0.8982312023E-03  -0.2452298627E-08   0.7171308262E-03   0.2933917403E+00
   0.2015300000E+01   0.1330553707E-02   0.9986694463E+00   0.1000000000E-03  -0.1934712970E-04   0.1934712970E-04   0.1520000000E-01   0.1349900836E-02  -0.1349900836E-02   0.4642550254E+00  -0.1070185078E+00  -0.1070185078E+00  -0.1833058998E-02   0.1833058993E-02  -0.5692023995E-08   0.1413187326E-02   0.5713265238E+00
   0.2015300000E+01   0.9986694463E+00   0.9986694463E+00   0.1000000000E-03   0.1934712970E-04   0.1934712970E-04   0.1520000000E-01  -0.1349900836E-02  -0.1349900836E-02   0.4642550254E+00  -0.1070185078E+00  -0.1070185078E+00   0.1833058993E-02   0.1833058993E-02   0.5690778685E-08   0.1413187326E-02   0.5713265238E+00
   0.1009493663E+01   0.9984780445E+00   0.9984780445E+00   0.1709399903E-03   0.9709567493E-05   0.9709567493E-05   0.9322722545E-02  -0.1531665101E-02  -0.1531665101E-02   0.2372281218E+00  -0.5613883993E-01  -0.5613883993E-01   0.8982312023E-03   0.8982312023E-03   0.2451660392E-08   0.7171308262E-03   0.2933917403E+00
     1     2     3     4     5     6     7     8
 VARIABLES = X,Y,Z,DU1,DU2,DU3,U1,U2,U3,S11,S22,S33,S12,S13,S23,Vf,SMISES
 ZONE, T="0.1540D+01" F=FEPOINT, I=    8 J=    1 ET=BRICK
   0.1009668345E+01   0.1511267415E-02   0.1511267415E-02   0.1746823712E-03  -0.1068811808E-04  -0.1068811808E-04   0.9493662535E-02   0.1521955533E-02   0.1521955533E-02   0.2070526714E+00  -0.5005573803E-01  -0.5005573803E-01  -0.1498748333E-02  -0.1498748333E-02   0.5321123968E-08   0.7171308262E-03   0.2571871357E+00
   0.2015400000E+01   0.1309545778E-02   0.1309545778E-02   0.1000000000E-03  -0.2100792815E-04  -0.2100792815E-04   0.1530000000E-01   0.1330553707E-02   0.1330553707E-02   0.4006761140E+00  -0.9323829867E-01  -0.9323829867E-01  -0.3033918757E-02  -0.3033918757E-02   0.1154573141E-07   0.1413187326E-02   0.4940823367E+00
   0.2015400000E+01   0.9986904542E+00   0.1309545778E-02   0.1000000000E-03   0.2100792815E-04  -0.2100792815E-04   0.1530000000E-01  -0.1330553707E-02   0.1330553707E-02   0.4006761139E+00  -0.9323829867E-01  -0.9323829867E-01   0.3033918753E-02  -0.3033918757E-02  -0.1154434244E-07   0.1413187326E-02   0.4940823367E+00
   0.1009668345E+01   0.9984887326E+00   0.1511267415E-02   0.1746823712E-03   0.1068811808E-04  -0.1068811808E-04   0.9493662535E-02  -0.1521955533E-02   0.1521955533E-02   0.2070526714E+00  -0.5005573803E-01  -0.5005573803E-01   0.1498748327E-02  -0.1498748333E-02  -0.5320430085E-08   0.7171308262E-03   0.2571871357E+00
   0.1009668345E+01   0.1511267415E-02   0.9984887326E+00   0.1746823712E-03  -0.1068811808E-04   0.1068811808E-04   0.9493662535E-02   0.1521955533E-02  -0.1521955533E-02   0.2070526714E+00  -0.5005573803E-01  -0.5005573803E-01  -0.1498748333E-02   0.1498748327E-02  -0.5320430082E-08   0.7171308262E-03   0.2571871357E+00
   0.2015400000E+01   0.1309545778E-02   0.9986904542E+00   0.1000000000E-03  -0.2100792815E-04   0.2100792815E-04   0.1530000000E-01   0.1330553707E-02  -0.1330553707E-02   0.4006761139E+00  -0.9323829867E-01  -0.9323829867E-01  -0.3033918757E-02   0.3033918753E-02  -0.1154434241E-07   0.1413187326E-02   0.4940823367E+00
   0.2015400000E+01   0.9986904542E+00   0.9986904542E+00   0.1000000000E-03   0.2100792815E-04   0.2100792815E-04   0.1530000000E-01  -0.1330553707E-02  -0.1330553707E-02   0.4006761139E+00  -0.9323829867E-01  -0.9323829867E-01   0.3033918753E-02   0.3033918753E-02   0.1154297600E-07   0.1413187326E-02   0.4940823367E+00
   0.1009668345E+01   0.9984887326E+00   0.9984887326E+00   0.1746823712E-03   0.1068811808E-04   0.1068811808E-04   0.9493662535E-02  -0.1521955533E-02  -0.1521955533E-02   0.2070526714E+00  -0.5005573803E-01  -0.5005573803E-01   0.1498748326E-02   0.1498748326E-02   0.5319735040E-08   0.7171308262E-03   0.2571871357E+00
     1     2     3     4     5     6     7     8
 VARIABLES = X,Y,Z,DU1,DU2,DU3,U1,U2,U3,S11,S22,S33,S12,S13,S23,Vf,SMISES
 ZONE, T="0.1550D+01" F=FEPOINT, I=    8 J=    1 ET=BRICK
   0.1009846129E+01   0.1499755846E-02   0.1499755846E-02   0.1777841790E-03  -0.1151156977E-04  -0.1151156977E-04   0.9668344906E-02   0.1511267415E-02   0.1511267415E-02   0.1761049855E+00  -0.4243499438E-01  -0.4243499438E-01  -0.2141736530E-02  -0.2141736530E-02   0.1044518402E-07   0.7171308262E-03   0.2187292502E+00
   0.2015500000E+01   0.1287275822E-02   0.1287275822E-02   0.1000000000E-03  -0.2226995659E-04  -0.2226995659E-04   0.1540000000E-01   0.1309545778E-02   0.1309545778E-02   0.3353244670E+00  -0.7626867380E-01  -0.7626867380E-01  -0.4319691470E-02  -0.4319691470E-02   0.2191693976E-07   0.1413187326E-02   0.4120019059E+00
   0.2015500000E+01   0.9987127242E+00   0.1287275822E-02   0.1000000000E-03   0.2226995659E-04  -0.2226995659E-04   0.1540000000E-01  -0.1309545778E-02   0.1309545778E-02   0.3353244670E+00  -0.7626867380E-01  -0.7626867380E-01   0.4319691465E-02  -0.4319691469E-02  -0.2191543821E-07   0.1413187326E-02   0.4120019059E+00
   0.1009846129E+01   0.9985002442E+00   0.1499755846E-02   0.1777841790E-03   0.1151156977E-04  -0.1151156977E-04   0.9668344906E-02  -0.1511267415E-02   0.1511267415E-02   0.1761049855E+00  -0.4243499438E-01  -0.4243499438E-01   0.2141736522E-02  -0.2141736529E-02  -0.1044443764E-07   0.7171308262E-03   0.2187292501E+00
   0.1009846129E+01   0.1499755846E-02   0.9985002442E+00   0.1777841790E-03  -0.1151156977E-04   0.1151156977E-04   0.9668344906E-02   0.1511267415E-02  -0.1511267415E-02   0.1761049855E+00  -0.4243499438E-01  -0.4243499438E-01  -0.2141736529E-02   0.2141736522E-02  -0.1044443764E-07   0.7171308262E-03   0.2187292501E+00
   0.2015500000E+01   0.1287275822E-02   0.9987127242E+00   0.1000000000E-03  -0.2226995659E-04   0.2226995659E-04   0.1540000000E-01   0.1309545778E-02  -0.1309545778E-02   0.3353244670E+00  -0.7626867380E-01  -0.7626867380E-01  -0.4319691469E-02   0.4319691465E-02  -0.2191543818E-07   0.1413187326E-02   0.4120019059E+00
   0.2015500000E+01   0.9987127242E+00   0.9987127242E+00   0.1000000000E-03   0.2226995659E-04   0.2226995659E-04   0.1540000000E-01  -0.1309545778E-02  -0.1309545778E-02   0.3353244670E+00  -0.7626867380E-01  -0.7626867380E-01   0.4319691465E-02   0.4319691465E-02   0.2191396030E-07   0.1413187326E-02   0.4120019059E+00
   0.1009846129E+01   0.9985002442E+00   0.9985002442E+00   0.1777841790E-03   0.1151156976E-04   0.1151156976E-04   0.9668344906E-02  -0.1511267415E-02  -0.1511267415E-02   0.1761049855E+00  -0.4243499438E-01  -0.4243499438E-01   0.2141736522E-02   0.2141736522E-02   0.1044368934E-07   0.7171308262E-03   0.2187292501E+00
     1     2     3     4     5     6     7     8
 VARIABLES = X,Y,Z,DU1,DU2,DU3,U1,U2,U3,S11,S22,S33,S12,S13,S23,Vf,SMISES
 ZONE, T="0.1560D+01" F=FEPOINT, I=    8 J=    1 ET=BRICK
   0.1010026360E+01   0.1487595167E-02   0.1487595167E-02   0.1802307941E-03  -0.1216067876E-04  -0.1216067876E-04   0.9846129085E-02   0.1499755846E-02   0.1499755846E-02   0.1444303942E+00  -0.3364869792E-01  -0.3364869792E-01  -0.2812003905E-02  -0.2812003905E-02   0.1807853570E-07   0.7171308262E-03   0.1784801697E+00
   0.2015600000E+01   0.1264183716E-02   0.1264183716E-02   0.1000000000E-03  -0.2309210600E-04  -0.2309210600E-04   0.1550000000E-01   0.1287275822E-02   0.1287275822E-02   0.2683724093E+00  -0.5689464331E-01  -0.5689464331E-01  -0.5659995220E-02  -0.5659995220E-02   0.3731050718E-07   0.1413187326E-02   0.3261563991E+00
   0.2015600000E+01   0.9987358163E+00   0.1264183716E-02   0.1000000000E-03   0.2309210600E-04  -0.2309210600E-04   0.1550000000E-01  -0.1287275822E-02   0.1287275822E-02   0.2683724093E+00  -0.5689464331E-01  -0.5689464331E-01   0.5659995216E-02  -0.5659995220E-02  -0.3730890799E-07   0.1413187326E-02   0.3261563991E+00
   0.1010026360E+01   0.9985124048E+00   0.1487595167E-02   0.1802307941E-03   0.1216067876E-04  -0.1216067876E-04   0.9846129085E-02  -0.1499755846E-02   0.1499755846E-02   0.1444303942E+00  -0.3364869792E-01  -0.3364869792E-01   0.2812003897E-02  -0.2812003905E-02  -0.1807774244E-07   0.7171308262E-03   0.1784801697E+00
   0.1010026360E+01   0.1487595167E-02   0.9985124048E+00   0.1802307941E-03  -0.1216067876E-04   0.1216067876E-04   0.9846129085E-02   0.1499755846E-02  -0.1499755846E-02   0.1444303942E+00  -0.3364869792E-01  -0.3364869792E-01  -0.2812003905E-02   0.2812003897E-02  -0.1807774243E-07   0.7171308262E-03   0.1784801697E+00
   0.2015600000E+01   0.1264183716E-02   0.9987358163E+00   0.1000000000E-03  -0.2309210600E-04   0.2309210600E-04   0.1550000000E-01   0.1287275822E-02  -0.1287275822E-02   0.2683724093E+00  -0.5689464331E-01  -0.5689464331E-01  -0.5659995220E-02   0.5659995216E-02  -0.3730890795E-07   0.1413187326E-02   0.3261563991E+00
   0.2015600000E+01   0.9987358163E+00   0.9987358163E+00   0.1000000000E-03   0.2309210600E-04   0.2309210600E-04   0.1550000000E-01  -0.1287275822E-02  -0.1287275822E-02   0.2683724093E+00  -0.5689464331E-01  -0.5689464331E-01   0.5659995216E-02   0.5659995216E-02   0.3730733338E-07   0.1413187326E-02   0.3261563991E+00
   0.1010026360E+01   0.9985124048E+00   0.9985124048E+00   0.1802307941E-03   0.1216067876E-04   0.1216067876E-04   0.9846129085E-02  -0.1499755846E-02  -0.1499755846E-02   0.1444303942E+00  -0.3364869792E-01  -0.3364869792E-01   0.2812003897E-02   0.2812003897E-02   0.1807694641E-07   0.7171308262E-03   0.1784801697E+00
     1     2     3     4     5     6     7     8
 VARIABLES = X,Y,Z,DU1,DU2,DU3,U1,U2,U3,S11,S22,S33,S12,S13,S23,Vf,SMISES
 ZONE, T="0.1570D+01" F=FEPOINT, I=    8 J=    1 ET=BRICK
   0.1010208368E+01   0.1474970021E-02   0.1474970021E-02   0.1820079027E-03  -0.1262514631E-04  -0.1262514631E-04   0.1002635988E-01   0.1487595167E-02   0.1487595167E-02   0.1120391669E+00  -0.2412951524E-01  -0.2412951524E-01  -0.3492998834E-02  -0.3492998834E-02   0.2826192000E-07   0.7171308262E-03   0.1369815982E+00
   0.2015700000E+01   0.1240730257E-02   0.1240730257E-02   0.1000000000E-03  -0.2345345856E-04  -0.2345345856E-04   0.1560000000E-01   0.1264183716E-02   0.1264183716E-02   0.1999294498E+00  -0.3602602548E-01  -0.3602602548E-01  -0.7021730727E-02  -0.7021730727E-02   0.5780450328E-07   0.1413187326E-02   0.2378490888E+00
   0.2015700000E+01   0.9987592697E+00   0.1240730257E-02   0.1000000000E-03   0.2345345856E-04  -0.2345345856E-04   0.1560000000E-01  -0.1264183716E-02   0.1264183716E-02   0.1999294498E+00  -0.3602602548E-01  -0.3602602548E-01   0.7021730723E-02  -0.7021730726E-02  -0.5780282667E-07   0.1413187326E-02   0.2378490888E+00
   0.1010208368E+01   0.9985250300E+00   0.1474970021E-02   0.1820079027E-03   0.1262514631E-04  -0.1262514631E-04   0.1002635988E-01  -0.1487595167E-02   0.1487595167E-02   0.1120391669E+00  -0.2412951524E-01  -0.2412951524E-01   0.3492998826E-02  -0.3492998834E-02  -0.2826108751E-07   0.7171308262E-03   0.1369815982E+00
   0.1010208368E+01   0.1474970021E-02   0.9985250300E+00   0.1820079027E-03  -0.1262514631E-04   0.1262514631E-04   0.1002635988E-01   0.1487595167E-02  -0.1487595167E-02   0.1120391669E+00  -0.2412951524E-01  -0.2412951524E-01  -0.3492998834E-02   0.3492998826E-02  -0.2826108750E-07   0.7171308262E-03   0.1369815982E+00
   0.2015700000E+01   0.1240730257E-02   0.9987592697E+00   0.1000000000E-03  -0.2345345856E-04   0.2345345856E-04   0.1560000000E-01   0.1264183716E-02  -0.1264183716E-02   0.1999294498E+00  -0.3602602548E-01  -0.3602602548E-01  -0.7021730726E-02   0.7021730723E-02  -0.5780282663E-07   0.1413187326E-02   0.2378490888E+00
   0.2015700000E+01   0.9987592697E+00   0.9987592697E+00   0.1000000000E-03   0.2345345856E-04   0.2345345856E-04   0.1560000000E-01  -0.1264183716E-02  -0.1264183716E-02   0.1999294498E+00  -0.3602602548E-01  -0.3602602548E-01   0.7021730722E-02   0.7021730722E-02   0.5780117544E-07   0.1413187326E-02   0.2378490888E+00
   0.1010208368E+01   0.9985250300E+00   0.9985250300E+00   0.1820079027E-03   0.1262514631E-04   0.1262514631E-04   0.1002635988E-01  -0.1487595167E-02  -0.1487595167E-02   0.1120391669E+00  -0.2412951524E-01  -0.2412951524E-01   0.3492998826E-02   0.3492998826E-02   0.2826025131E-07   0.7171308262E-03   0.1369815982E+00
     1     2     3     4     5     6     7     8
 VARIABLES = X,Y,Z,DU1,DU2,DU3,U1,U2,U3,S11,S22,S33,S12,S13,S23,Vf,SMISES
 ZONE, T="0.1580D+01" F=FEPOINT, I=    8 J=    1 ET=BRICK
   0.1010391469E+01   0.1462066150E-02   0.1462066150E-02   0.1831014671E-03  -0.1290387046E-04  -0.1290387046E-04   0.1020836778E-01   0.1474970021E-02   0.1474970021E-02   0.7892858370E-01  -0.1433893694E-01  -0.1433893694E-01  -0.4167511408E-02  -0.4167511408E-02   0.4079214562E-07   0.7171308262E-03   0.9498317021E-01
   0.2015800000E+01   0.1217376425E-02   0.1217376425E-02   0.1000000000E-03  -0.2335383216E-04  -0.2335383216E-04   0.1570000000E-01   0.1240730257E-02   0.1240730257E-02   0.1300826539E+00  -0.1463205416E-01  -0.1463205416E-01  -0.8370484290E-02  -0.8370484290E-02   0.8298915513E-07   0.1413187326E-02   0.1491472387E+00
   0.2015800000E+01   0.9987826236E+00   0.1217376425E-02   0.1000000000E-03   0.2335383217E-04  -0.2335383216E-04   0.1570000000E-01  -0.1240730257E-02   0.1240730257E-02   0.1300826539E+00  -0.1463205416E-01  -0.1463205416E-01   0.8370484286E-02  -0.8370484289E-02  -0.8298742652E-07   0.1413187326E-02   0.1491472387E+00
   0.1010391469E+01   0.9985379338E+00   0.1462066150E-02   0.1831014671E-03   0.1290387045E-04  -0.1290387046E-04   0.1020836778E-01  -0.1474970021E-02   0.1474970021E-02   0.7892858370E-01  -0.1433893694E-01  -0.1433893695E-01   0.4167511401E-02  -0.4167511408E-02  -0.4079128355E-07   0.7171308262E-03   0.9498317021E-01
   0.1010391469E+01   0.1462066150E-02   0.9985379338E+00   0.1831014671E-03  -0.1290387046E-04   0.1290387045E-04   0.1020836778E-01   0.1474970021E-02  -0.1474970021E-02   0.7892858370E-01  -0.1433893695E-01  -0.1433893694E-01  -0.4167511408E-02   0.4167511401E-02  -0.4079128354E-07   0.7171308262E-03   0.9498317021E-01
   0.2015800000E+01   0.1217376425E-02   0.9987826236E+00   0.1000000000E-03  -0.2335383216E-04   0.2335383217E-04   0.1570000000E-01   0.1240730257E-02  -0.1240730257E-02   0.1300826539E+00  -0.1463205416E-01  -0.1463205416E-01  -0.8370484289E-02   0.8370484286E-02  -0.8298742648E-07   0.1413187326E-02   0.1491472387E+00
   0.2015800000E+01   0.9987826236E+00   0.9987826236E+00   0.1000000000E-03   0.2335383217E-04   0.2335383217E-04   0.1570000000E-01  -0.1240730257E-02  -0.1240730257E-02   0.1300826539E+00  -0.1463205417E-01  -0.1463205417E-01   0.8370484286E-02   0.8370484286E-02   0.8298572392E-07   0.1413187326E-02   0.1491472387E+00
   0.1010391469E+01   0.9985379338E+00   0.9985379338E+00   0.1831014671E-03   0.1290387045E-04   0.1290387045E-04   0.1020836778E-01  -0.1474970021E-02  -0.1474970021E-02   0.7892858370E-01  -0.1433893695E-01  -0.1433893695E-01   0.4167511400E-02   0.4167511400E-02   0.4079041672E-07   0.7171308262E-03   0.9498317021E-01
     1     2     3     4     5     6     7     8
 VARIABLES = X,Y,Z,DU1,DU2,DU3,U1,U2,U3,S11,S22,S33,S12,S13,S23,Vf,SMISES
 ZONE, T="0.1590D+01" F=FEPOINT, I=    8 J=    1 ET=BRICK
   0.1010574967E+01   0.1449061601E-02   0.1449061601E-02   0.1834981354E-03  -0.1300454907E-04  -0.1300454907E-04   0.1039146925E-01   0.1462066150E-02   0.1462066150E-02   0.4510562536E-01  -0.4734653827E-02  -0.4734653827E-02  -0.4818392746E-02  -0.4818392746E-02   0.5521965387E-07   0.7171308262E-03   0.5456187233E-01
   0.2015900000E+01   0.1194563495E-02   0.1194563495E-02   0.1000000000E-03  -0.2281293017E-04  -0.2281293017E-04   0.1580000000E-01   0.1217376425E-02   0.1217376425E-02   0.5893815740E-01   0.6325801961E-02   0.6325801961E-02  -0.9671966225E-02  -0.9671966225E-02   0.1119621545E-06   0.1413187326E-02   0.6893522473E-01
   0.2015900000E+01   0.9988054365E+00   0.1194563495E-02   0.1000000000E-03   0.2281293017E-04  -0.2281293017E-04   0.1580000000E-01  -0.1217376425E-02   0.1217376425E-02   0.5893815741E-01   0.6325801958E-02   0.6325801955E-02   0.9671966222E-02  -0.9671966225E-02  -0.1119604042E-06   0.1413187326E-02   0.6893522474E-01
   0.1010574967E+01   0.9985509384E+00   0.1449061601E-02   0.1834981353E-03   0.1300454907E-04  -0.1300454907E-04   0.1039146925E-01  -0.1462066150E-02   0.1462066150E-02   0.4510562536E-01  -0.4734653827E-02  -0.4734653829E-02   0.4818392738E-02  -0.4818392746E-02  -0.5521877373E-07   0.7171308262E-03   0.5456187233E-01
   0.1010574967E+01   0.1449061601E-02   0.9985509384E+00   0.1834981353E-03  -0.1300454907E-04   0.1300454907E-04   0.1039146925E-01   0.1462066150E-02  -0.1462066150E-02   0.4510562536E-01  -0.4734653829E-02  -0.4734653827E-02  -0.4818392746E-02   0.4818392738E-02  -0.5521877371E-07   0.7171308262E-03   0.5456187233E-01
   0.2015900000E+01   0.1194563495E-02   0.9988054365E+00   0.1000000000E-03  -0.2281293017E-04   0.2281293017E-04   0.1580000000E-01   0.1217376425E-02  -0.1217376425E-02   0.5893815741E-01   0.6325801955E-02   0.6325801958E-02  -0.9671966225E-02   0.9671966222E-02  -0.1119604042E-06   0.1413187326E-02   0.6893522474E-01
   0.2015900000E+01   0.9988054365E+00   0.9988054365E+00   0.1000000000E-03   0.2281293017E-04   0.2281293017E-04   0.1580000000E-01  -0.1217376425E-02  -0.1217376425E-02   0.5893815741E-01   0.6325801952E-02   0.6325801952E-02   0.9671966222E-02   0.9671966222E-02   0.1119586804E-06   0.1413187326E-02   0.6893522474E-01
   0.1010574967E+01   0.9985509384E+00   0.9985509384E+00   0.1834981353E-03   0.1300454907E-04   0.1300454907E-04   0.1039146925E-01  -0.1462066150E-02  -0.1462066150E-02   0.4510562536E-01  -0.4734653830E-02  -0.4734653830E-02   0.4818392738E-02   0.4818392738E-02   0.5521788770E-07   0.7171308262E-03   0.5456187234E-01
     1     2     3     4     5     6     7     8
 VARIABLES = X,Y,Z,DU1,DU2,DU3,U1,U2,U3,S11,S22,S33,S12,S13,S23,Vf,SMISES
 ZONE, T="0.1600D+01" F=FEPOINT, I=    8 J=    1 ET=BRICK
   0.1010758153E+01   0.1436118913E-02   0.1436118913E-02   0.1831860460E-03  -0.1294268817E-04  -0.1294268817E-04   0.1057496738E-01   0.1449061601E-02   0.1449061601E-02   0.1060840062E-01   0.4260542543E-02   0.4260542543E-02  -0.5429245639E-02  -0.5429245639E-02   0.7087622117E-07   0.7171308262E-03   0.2990714716E-01
   0.2016000000E+01   0.1172695284E-02   0.1172695284E-02   0.1000000000E-03  -0.2186821116E-04  -0.2186821116E-04   0.1590000000E-01   0.1194563495E-02   0.1194563495E-02  -0.1333969068E-01   0.2595789400E-01   0.2595789400E-01  -0.1089339174E-01  -0.1089339174E-01   0.1433842117E-06   0.1413187326E-02   0.7053037271E-01
   0.2016000000E+01   0.9988273047E+00   0.1172695284E-02   0.1000000000E-03   0.2186821116E-04  -0.2186821116E-04   0.1590000000E-01  -0.1194563495E-02   0.1194563495E-02  -0.1333969067E-01   0.2595789400E-01   0.2595789400E-01   0.1089339174E-01  -0.1089339174E-01  -0.1433824742E-06   0.1413187326E-02   0.7053037270E-01
   0.1010758153E+01   0.9985638811E+00   0.1436118913E-02   0.1831860460E-03   0.1294268817E-04  -0.1294268817E-04   0.1057496738E-01  -0.1449061601E-02   0.1449061601E-02   0.1060840062E-01   0.4260542542E-02   0.4260542540E-02   0.5429245631E-02  -0.5429245639E-02  -0.7087533613E-07   0.7171308262E-03   0.2990714715E-01
   0.1010758153E+01   0.1436118913E-02   0.9985638811E+00   0.1831860460E-03  -0.1294268817E-04   0.1294268817E-04   0.1057496738E-01   0.1449061601E-02  -0.1449061601E-02   0.1060840062E-01   0.4260542540E-02   0.4260542542E-02  -0.5429245639E-02   0.5429245631E-02  -0.7087533611E-07   0.7171308262E-03   0.2990714715E-01
   0.2016000000E+01   0.1172695284E-02   0.9988273047E+00   0.1000000000E-03  -0.2186821116E-04   0.2186821116E-04   0.1590000000E-01   0.1194563495E-02  -0.1194563495E-02  -0.1333969067E-01   0.2595789400E-01   0.2595789400E-01  -0.1089339174E-01   0.1089339174E-01  -0.1433824742E-06   0.1413187326E-02   0.7053037270E-01
   0.2016000000E+01   0.9988273047E+00   0.9988273047E+00   0.1000000000E-03   0.2186821117E-04   0.2186821117E-04   0.1590000000E-01  -0.1194563495E-02  -0.1194563495E-02  -0.1333969067E-01   0.2595789399E-01   0.2595789399E-01   0.1089339174E-01   0.1089339174E-01   0.1433807635E-06   0.1413187326E-02   0.7053037269E-01
   0.1010758153E+01   0.9985638811E+00   0.9985638811E+00   0.1831860460E-03   0.1294268817E-04   0.1294268817E-04   0.1057496738E-01  -0.1449061601E-02  -0.1449061601E-02   0.1060840063E-01   0.4260542539E-02   0.4260542539E-02   0.5429245631E-02   0.5429245631E-02   0.7087444403E-07   0.7171308262E-03   0.2990714715E-01
     1     2     3     4     5     6     7     8
 VARIABLES = X,Y,Z,DU1,DU2,DU3,U1,U2,U3,S11,S22,S33,S12,S13,S23,Vf,SMISES
 ZONE, T="0.1610D+01" F=FEPOINT, I=    8 J=    1 ET=BRICK
   0.1010940309E+01   0.1423378802E-02   0.1423378802E-02   0.1821559553E-03  -0.1274011044E-04  -0.1274011044E-04   0.1075815343E-01   0.1436118913E-02   0.1436118913E-02  -0.2447541110E-01   0.1228614125E-01   0.1228614125E-01  -0.5985043874E-02  -0.5985043874E-02   0.8692939660E-07   0.7171308262E-03   0.4569584290E-01
   0.2016100000E+01   0.1152123603E-02   0.1152123603E-02   0.1000000000E-03  -0.2057168105E-04  -0.2057168105E-04   0.1600000000E-01   0.1172695284E-02   0.1172695284E-02  -0.8649477093E-01   0.4350281982E-01   0.4350281982E-01  -0.1200471896E-01  -0.1200471896E-01   0.1755880353E-06   0.1413187326E-02   0.1409294572E+00
   0.2016100000E+01   0.9988478764E+00   0.1152123603E-02   0.1000000000E-03   0.2057168105E-04  -0.2057168105E-04   0.1600000000E-01  -0.1172695284E-02   0.1172695284E-02  -0.8649477092E-01   0.4350281982E-01   0.4350281981E-01   0.1200471896E-01  -0.1200471896E-01  -0.1755863490E-06   0.1413187326E-02   0.1409294571E+00
   0.1010940309E+01   0.9985766212E+00   0.1423378802E-02   0.1821559553E-03   0.1274011044E-04  -0.1274011044E-04   0.1075815343E-01  -0.1436118913E-02   0.1436118913E-02  -0.2447541109E-01   0.1228614125E-01   0.1228614124E-01   0.5985043867E-02  -0.5985043874E-02  -0.8692852126E-07   0.7171308262E-03   0.4569584289E-01
   0.1010940309E+01   0.1423378802E-02   0.9985766212E+00   0.1821559553E-03  -0.1274011044E-04   0.1274011044E-04   0.1075815343E-01   0.1436118913E-02  -0.1436118913E-02  -0.2447541109E-01   0.1228614124E-01   0.1228614125E-01  -0.5985043874E-02   0.5985043867E-02  -0.8692852125E-07   0.7171308262E-03   0.4569584289E-01
   0.2016100000E+01   0.1152123603E-02   0.9988478764E+00   0.1000000000E-03  -0.2057168105E-04   0.2057168105E-04   0.1600000000E-01   0.1172695284E-02  -0.1172695284E-02  -0.8649477092E-01   0.4350281981E-01   0.4350281982E-01  -0.1200471896E-01   0.1200471896E-01  -0.1755863489E-06   0.1413187326E-02   0.1409294571E+00
   0.2016100000E+01   0.9988478764E+00   0.9988478764E+00   0.1000000000E-03   0.2057168105E-04   0.2057168105E-04   0.1600000000E-01  -0.1172695284E-02  -0.1172695284E-02  -0.8649477091E-01   0.4350281981E-01   0.4350281981E-01   0.1200471896E-01   0.1200471896E-01   0.1755846895E-06   0.1413187326E-02   0.1409294571E+00
   0.1010940309E+01   0.9985766212E+00   0.9985766212E+00   0.1821559553E-03   0.1274011044E-04   0.1274011044E-04   0.1075815343E-01  -0.1436118913E-02  -0.1436118913E-02  -0.2447541108E-01   0.1228614124E-01   0.1228614124E-01   0.5985043867E-02   0.5985043867E-02   0.8692763762E-07   0.7171308262E-03   0.4569584288E-01
     1     2     3     4     5     6     7     8
 VARIABLES = X,Y,Z,DU1,DU2,DU3,U1,U2,U3,S11,S22,S33,S12,S13,S23,Vf,SMISES
 ZONE, T="0.1620D+01" F=FEPOINT, I=    8 J=    1 ET=BRICK
   0.1011120712E+01   0.1410955711E-02   0.1410955711E-02   0.1804025879E-03  -0.1242309154E-04  -0.1242309154E-04   0.1094030939E-01   0.1423378802E-02   0.1423378802E-02  -0.5999454031E-01   0.1906573546E-01   0.1906573546E-01  -0.6472644304E-02  -0.6472644304E-02   0.1024562329E-06   0.7171308262E-03   0.8391870139E-01
   0.2016200000E+01   0.1133137723E-02   0.1133137723E-02   0.1000000000E-03  -0.1898587943E-04  -0.1898587943E-04   0.1610000000E-01   0.1152123603E-02   0.1152123603E-02  -0.1601539061E+00   0.5837244660E-01   0.5837244660E-01  -0.1297967234E-01  -0.1297967234E-01   0.2067258499E-06   0.1413187326E-02   0.2256924831E+00
   0.2016200000E+01   0.9988668623E+00   0.1133137723E-02   0.1000000000E-03   0.1898587943E-04  -0.1898587943E-04   0.1610000000E-01  -0.1152123603E-02   0.1152123603E-02  -0.1601539061E+00   0.5837244659E-01   0.5837244659E-01   0.1297967234E-01  -0.1297967234E-01  -0.2067242556E-06   0.1413187326E-02   0.2256924830E+00
   0.1011120712E+01   0.9985890443E+00   0.1410955711E-02   0.1804025879E-03   0.1242309154E-04  -0.1242309154E-04   0.1094030939E-01  -0.1423378802E-02   0.1423378802E-02  -0.5999454030E-01   0.1906573546E-01   0.1906573545E-01   0.6472644297E-02  -0.6472644304E-02  -0.1024553829E-06   0.7171308262E-03   0.8391870137E-01
   0.1011120712E+01   0.1410955711E-02   0.9985890443E+00   0.1804025879E-03  -0.1242309154E-04   0.1242309154E-04   0.1094030939E-01   0.1423378802E-02  -0.1423378802E-02  -0.5999454030E-01   0.1906573545E-01   0.1906573546E-01  -0.6472644304E-02   0.6472644297E-02  -0.1024553829E-06   0.7171308262E-03   0.8391870137E-01
   0.2016200000E+01   0.1133137723E-02   0.9988668623E+00   0.1000000000E-03  -0.1898587943E-04   0.1898587943E-04   0.1610000000E-01   0.1152123603E-02  -0.1152123603E-02  -0.1601539061E+00   0.5837244659E-01   0.5837244659E-01  -0.1297967234E-01   0.1297967234E-01  -0.2067242555E-06   0.1413187326E-02   0.2256924830E+00
   0.2016200000E+01   0.9988668623E+00   0.9988668623E+00   0.1000000000E-03   0.1898587943E-04   0.1898587943E-04   0.1610000000E-01  -0.1152123603E-02  -0.1152123603E-02  -0.1601539060E+00   0.5837244659E-01   0.5837244659E-01   0.1297967234E-01   0.1297967234E-01   0.2067226880E-06   0.1413187326E-02   0.2256924830E+00
   0.1011120712E+01   0.9985890443E+00   0.9985890443E+00   0.1804025879E-03   0.1242309154E-04   0.1242309154E-04   0.1094030939E-01  -0.1423378802E-02  -0.1423378802E-02  -0.5999454030E-01   0.1906573545E-01   0.1906573545E-01   0.6472644297E-02   0.6472644297E-02   0.1024545234E-06   0.7171308262E-03   0.8391870136E-01
     1     2     3     4     5     6     7     8
 VARIABLES = X,Y,Z,DU1,DU2,DU3,U1,U2,U3,S11,S22,S33,S12,S13,S23,Vf,SMISES
 ZONE, T="0.1630D+01" F=FEPOINT, I=    8 J=    1 ET=BRICK
   0.1011298638E+01   0.1398935437E-02   0.1398935437E-02   0.1779260945E-03  -0.1202027402E-04  -0.1202027402E-04   0.1112071197E-01   0.1410955711E-02   0.1410955711E-02  -0.9572559300E-01   0.2442192159E-01   0.2442192159E-01  -0.6881164773E-02  -0.6881164773E-02   0.1165262384E-06   0.7171308262E-03   0.1237355573E+00
   0.2016300000E+01   0.1115958344E-02   0.1115958344E-02   0.1000000000E-03  -0.1717937947E-04  -0.1717937947E-04   0.1620000000E-01   0.1133137723E-02   0.1133137723E-02  -0.2338118224E+00   0.7018272436E-01   0.7018272436E-01  -0.1379649772E-01  -0.1379649772E-01   0.2349353040E-06   0.1413187326E-02   0.3097255001E+00
   0.2016300000E+01   0.9988840417E+00   0.1115958344E-02   0.1000000000E-03   0.1717937948E-04  -0.1717937947E-04   0.1620000000E-01  -0.1133137723E-02   0.1133137723E-02  -0.2338118224E+00   0.7018272435E-01   0.7018272435E-01   0.1379649773E-01  -0.1379649772E-01  -0.2349338443E-06   0.1413187326E-02   0.3097255001E+00
   0.1011298638E+01   0.9986010646E+00   0.1398935437E-02   0.1779260945E-03   0.1202027402E-04  -0.1202027402E-04   0.1112071197E-01  -0.1410955711E-02   0.1410955711E-02  -0.9572559299E-01   0.2442192159E-01   0.2442192159E-01   0.6881164766E-02  -0.6881164773E-02  -0.1165254302E-06   0.7171308262E-03   0.1237355573E+00
   0.1011298638E+01   0.1398935437E-02   0.9986010646E+00   0.1779260945E-03  -0.1202027402E-04   0.1202027402E-04   0.1112071197E-01   0.1410955711E-02  -0.1410955711E-02  -0.9572559299E-01   0.2442192159E-01   0.2442192159E-01  -0.6881164773E-02   0.6881164766E-02  -0.1165254302E-06   0.7171308262E-03   0.1237355573E+00
   0.2016300000E+01   0.1115958344E-02   0.9988840417E+00   0.1000000000E-03  -0.1717937947E-04   0.1717937948E-04   0.1620000000E-01   0.1133137723E-02  -0.1133137723E-02  -0.2338118224E+00   0.7018272435E-01   0.7018272435E-01  -0.1379649772E-01   0.1379649773E-01  -0.2349338442E-06   0.1413187326E-02   0.3097255001E+00
   0.2016300000E+01   0.9988840417E+00   0.9988840417E+00   0.1000000000E-03   0.1717937948E-04   0.1717937948E-04   0.1620000000E-01  -0.1133137723E-02  -0.1133137723E-02  -0.2338118224E+00   0.7018272434E-01   0.7018272434E-01   0.1379649773E-01   0.1379649773E-01   0.2349324111E-06   0.1413187326E-02   0.3097255001E+00
   0.1011298638E+01   0.9986010646E+00   0.9986010646E+00   0.1779260945E-03   0.1202027402E-04   0.1202027402E-04   0.1112071197E-01  -0.1410955711E-02  -0.1410955711E-02  -0.9572559298E-01   0.2442192158E-01   0.2442192158E-01   0.6881164766E-02   0.6881164766E-02   0.1165246110E-06   0.7171308262E-03   0.1237355573E+00
     1     2     3     4     5     6     7     8
 VARIABLES = X,Y,Z,DU1,DU2,DU3,U1,U2,U3,S11,S22,S33,S12,S13,S23,Vf,SMISES
 ZONE, T="0.1640D+01" F=FEPOINT, I=    8 J=    1 ET=BRICK
   0.1011473372E+01   0.1387374918E-02   0.1387374918E-02   0.1747334945E-03  -0.1156051871E-04  -0.1156051871E-04   0.1129863807E-01   0.1398935437E-02   0.1398935437E-02  -0.1313706194E+00   0.2828346310E-01   0.2828346310E-01  -0.7202211598E-02  -0.7202211598E-02   0.1282826641E-06   0.7171308262E-03   0.1626013202E+00
   0.2016400000E+01   0.1100736201E-02   0.1100736201E-02   0.1000000000E-03  -0.1522214251E-04  -0.1522214251E-04   0.1630000000E-01   0.1115958344E-02   0.1115958344E-02  -0.3068275094E+00   0.7876862446E-01   0.7876862446E-01  -0.1443841665E-01  -0.1443841665E-01   0.2585020069E-06   0.1413187326E-02   0.3905138666E+00
   0.2016400000E+01   0.9988992638E+00   0.1100736201E-02   0.1000000000E-03   0.1522214252E-04  -0.1522214251E-04   0.1630000000E-01  -0.1115958344E-02   0.1115958344E-02  -0.3068275093E+00   0.7876862446E-01   0.7876862445E-01   0.1443841665E-01  -0.1443841665E-01  -0.2585007251E-06   0.1413187326E-02   0.3905138666E+00
   0.1011473372E+01   0.9986126251E+00   0.1387374918E-02   0.1747334945E-03   0.1156051871E-04  -0.1156051871E-04   0.1129863807E-01  -0.1398935437E-02   0.1398935437E-02  -0.1313706194E+00   0.2828346309E-01   0.2828346309E-01   0.7202211592E-02  -0.7202211598E-02  -0.1282819142E-06   0.7171308262E-03   0.1626013202E+00
   0.1011473372E+01   0.1387374918E-02   0.9986126251E+00   0.1747334945E-03  -0.1156051871E-04   0.1156051871E-04   0.1129863807E-01   0.1398935437E-02  -0.1398935437E-02  -0.1313706194E+00   0.2828346309E-01   0.2828346309E-01  -0.7202211598E-02   0.7202211592E-02  -0.1282819142E-06   0.7171308262E-03   0.1626013202E+00
   0.2016400000E+01   0.1100736201E-02   0.9988992638E+00   0.1000000000E-03  -0.1522214251E-04   0.1522214252E-04   0.1630000000E-01   0.1115958344E-02  -0.1115958344E-02  -0.3068275093E+00   0.7876862445E-01   0.7876862446E-01  -0.1443841665E-01   0.1443841665E-01  -0.2585007251E-06   0.1413187326E-02   0.3905138666E+00
   0.2016400000E+01   0.9988992638E+00   0.9988992638E+00   0.1000000000E-03   0.1522214252E-04   0.1522214252E-04   0.1630000000E-01  -0.1115958344E-02  -0.1115958344E-02  -0.3068275093E+00   0.7876862445E-01   0.7876862445E-01   0.1443841665E-01   0.1443841665E-01   0.2584994696E-06   0.1413187326E-02   0.3905138665E+00
   0.1011473372E+01   0.9986126251E+00   0.9986126251E+00   0.1747334945E-03   0.1156051871E-04   0.1156051871E-04   0.1129863807E-01  -0.1398935437E-02  -0.1398935437E-02  -0.1313706194E+00   0.2828346309E-01   0.2828346309E-01   0.7202211592E-02   0.7202211592E-02   0.1282811521E-06   0.7171308262E-03   0.1626013202E+00
     1     2     3     4     5     6     7     8
 VARIABLES = X,Y,Z,DU1,DU2,DU3,U1,U2,U3,S11,S22,S33,S12,S13,S23,Vf,SMISES
 ZONE, T="0.1650D+01" F=FEPOINT, I=    8 J=    1 ET=BRICK
   0.1011644212E+01   0.1376304066E-02   0.1376304066E-02   0.1708399798E-03  -0.1107085217E-04  -0.1107085217E-04   0.1147337156E-01   0.1387374918E-02   0.1387374918E-02  -0.1665609312E+00   0.3068450089E-01   0.3068450089E-01  -0.7429951562E-02  -0.7429951562E-02   0.1370122672E-06   0.7171308262E-03   0.1997789355E+00
   0.2016500000E+01   0.1087555136E-02   0.1087555136E-02   0.1000000000E-03  -0.1318106550E-04  -0.1318106550E-04   0.1640000000E-01   0.1100736201E-02   0.1100736201E-02  -0.3784322403E+00   0.8418275364E-01   0.8418275364E-01  -0.1489376972E-01  -0.1489376972E-01   0.2759989898E-06   0.1413187326E-02   0.4669627616E+00
   0.2016500000E+01   0.9989124449E+00   0.1087555136E-02   0.1000000000E-03   0.1318106550E-04  -0.1318106550E-04   0.1640000000E-01  -0.1100736201E-02   0.1100736201E-02  -0.3784322403E+00   0.8418275364E-01   0.8418275363E-01   0.1489376972E-01  -0.1489376972E-01  -0.2759979288E-06   0.1413187326E-02   0.4669627616E+00
   0.1011644212E+01   0.9986236959E+00   0.1376304066E-02   0.1708399798E-03   0.1107085216E-04  -0.1107085217E-04   0.1147337156E-01  -0.1387374918E-02   0.1387374918E-02  -0.1665609312E+00   0.3068450089E-01   0.3068450088E-01   0.7429951556E-02  -0.7429951561E-02  -0.1370115923E-06   0.7171308262E-03   0.1997789355E+00
   0.1011644212E+01   0.1376304066E-02   0.9986236959E+00   0.1708399798E-03  -0.1107085217E-04   0.1107085216E-04   0.1147337156E-01   0.1387374918E-02  -0.1387374918E-02  -0.1665609312E+00   0.3068450088E-01   0.3068450089E-01  -0.7429951561E-02   0.7429951556E-02  -0.1370115923E-06   0.7171308262E-03   0.1997789355E+00
   0.2016500000E+01   0.1087555136E-02   0.9989124449E+00   0.1000000000E-03  -0.1318106550E-04   0.1318106550E-04   0.1640000000E-01   0.1100736201E-02  -0.1100736201E-02  -0.3784322403E+00   0.8418275363E-01   0.8418275364E-01  -0.1489376972E-01   0.1489376972E-01  -0.2759979287E-06   0.1413187326E-02   0.4669627616E+00
   0.2016500000E+01   0.9989124449E+00   0.9989124449E+00   0.1000000000E-03   0.1318106550E-04   0.1318106550E-04   0.1640000000E-01  -0.1100736201E-02  -0.1100736201E-02  -0.3784322403E+00   0.8418275363E-01   0.8418275363E-01   0.1489376972E-01   0.1489376972E-01   0.2759968935E-06   0.1413187326E-02   0.4669627616E+00
   0.1011644212E+01   0.9986236959E+00   0.9986236959E+00   0.1708399798E-03   0.1107085216E-04   0.1107085216E-04   0.1147337156E-01  -0.1387374918E-02  -0.1387374918E-02  -0.1665609312E+00   0.3068450088E-01   0.3068450088E-01   0.7429951556E-02   0.7429951556E-02   0.1370109038E-06   0.7171308262E-03   0.1997789355E+00
     1     2     3     4     5     6     7     8
 VARIABLES = X,Y,Z,DU1,DU2,DU3,U1,U2,U3,S11,S22,S33,S12,S13,S23,Vf,SMISES
 ZONE, T="0.1660D+01" F=FEPOINT, I=    8 J=    1 ET=BRICK
   0.1011810482E+01   0.1365729411E-02   0.1365729411E-02   0.1662699716E-03  -0.1057465527E-04  -0.1057465527E-04   0.1164421154E-01   0.1376304066E-02   0.1376304066E-02  -0.2008668456E+00   0.3175617891E-01   0.3175617891E-01  -0.7561034560E-02  -0.7561034560E-02   0.1421962338E-06   0.7171308262E-03   0.2348447525E+00
   0.2016600000E+01   0.1076439104E-02   0.1076439104E-02   0.1000000000E-03  -0.1111603138E-04  -0.1111603138E-04   0.1650000000E-01   0.1087555136E-02   0.1087555136E-02  -0.4477486437E+00   0.8667839702E-01   0.8667839702E-01  -0.1515586155E-01  -0.1515586155E-01   0.2863884659E-06   0.1413187326E-02   0.5383168434E+00
   0.2016600000E+01   0.9989235609E+00   0.1076439104E-02   0.1000000000E-03   0.1111603138E-04  -0.1111603138E-04   0.1650000000E-01  -0.1087555136E-02   0.1087555136E-02  -0.4477486437E+00   0.8667839702E-01   0.8667839702E-01   0.1515586156E-01  -0.1515586155E-01  -0.2863876671E-06   0.1413187326E-02   0.5383168433E+00
   0.1011810482E+01   0.9986342706E+00   0.1365729411E-02   0.1662699716E-03   0.1057465527E-04  -0.1057465527E-04   0.1164421154E-01  -0.1376304066E-02   0.1376304066E-02  -0.2008668456E+00   0.3175617891E-01   0.3175617890E-01   0.7561034555E-02  -0.7561034560E-02  -0.1421956499E-06   0.7171308262E-03   0.2348447525E+00
   0.1011810482E+01   0.1365729411E-02   0.9986342706E+00   0.1662699716E-03  -0.1057465527E-04   0.1057465527E-04   0.1164421154E-01   0.1376304066E-02  -0.1376304066E-02  -0.2008668456E+00   0.3175617890E-01   0.3175617891E-01  -0.7561034560E-02   0.7561034555E-02  -0.1421956499E-06   0.7171308262E-03   0.2348447525E+00
   0.2016600000E+01   0.1076439104E-02   0.9989235609E+00   0.1000000000E-03  -0.1111603138E-04   0.1111603138E-04   0.1650000000E-01   0.1087555136E-02  -0.1087555136E-02  -0.4477486437E+00   0.8667839702E-01   0.8667839702E-01  -0.1515586155E-01   0.1515586156E-01  -0.2863876670E-06   0.1413187326E-02   0.5383168433E+00
   0.2016600000E+01   0.9989235609E+00   0.9989235609E+00   0.1000000000E-03   0.1111603138E-04   0.1111603138E-04   0.1650000000E-01  -0.1087555136E-02  -0.1087555136E-02  -0.4477486437E+00   0.8667839701E-01   0.8667839701E-01   0.1515586156E-01   0.1515586156E-01   0.2863868933E-06   0.1413187326E-02   0.5383168433E+00
   0.1011810482E+01   0.9986342706E+00   0.9986342706E+00   0.1662699716E-03   0.1057465527E-04   0.1057465527E-04   0.1164421154E-01  -0.1376304066E-02  -0.1376304066E-02  -0.2008668456E+00   0.3175617890E-01   0.3175617890E-01   0.7561034555E-02   0.7561034555E-02   0.1421950511E-06   0.7171308262E-03   0.2348447525E+00
     1     2     3     4     5     6     7     8
 VARIABLES = X,Y,Z,DU1,DU2,DU3,U1,U2,U3,S11,S22,S33,S12,S13,S23,Vf,SMISES
 ZONE, T="0.1670D+01" F=FEPOINT, I=    8 J=    1 ET=BRICK
   0.1011971539E+01   0.1355639195E-02   0.1355639195E-02   0.1610578342E-03  -0.1009021532E-04  -0.1009021532E-04   0.1181048151E-01   0.1365729411E-02   0.1365729411E-02  -0.2338126032E+00   0.3171159101E-01   0.3171159101E-01  -0.7594383267E-02  -0.7594383267E-02   0.1435383982E-06   0.7171308262E-03   0.2674860471E+00
   0.2016700000E+01   0.1067362381E-02   0.1067362381E-02   0.1000000000E-03  -0.9076723501E-05  -0.9076723501E-05   0.1660000000E-01   0.1076439104E-02   0.1076439104E-02  -0.5138194096E+00   0.8667884656E-01   0.8667884656E-01  -0.1522253994E-01  -0.1522253994E-01   0.2890781845E-06   0.1413187326E-02   0.6039862532E+00
   0.2016700000E+01   0.9989326376E+00   0.1067362381E-02   0.1000000000E-03   0.9076723504E-05  -0.9076723503E-05   0.1660000000E-01  -0.1076439104E-02   0.1076439104E-02  -0.5138194095E+00   0.8667884655E-01   0.8667884655E-01   0.1522253995E-01  -0.1522253994E-01  -0.2890776867E-06   0.1413187326E-02   0.6039862531E+00
   0.1011971539E+01   0.9986443608E+00   0.1355639195E-02   0.1610578342E-03   0.1009021532E-04  -0.1009021533E-04   0.1181048151E-01  -0.1365729411E-02   0.1365729411E-02  -0.2338126032E+00   0.3171159101E-01   0.3171159101E-01   0.7594383263E-02  -0.7594383266E-02  -0.1435379206E-06   0.7171308262E-03   0.2674860471E+00
   0.1011971539E+01   0.1355639195E-02   0.9986443608E+00   0.1610578342E-03  -0.1009021533E-04   0.1009021532E-04   0.1181048151E-01   0.1365729411E-02  -0.1365729411E-02  -0.2338126032E+00   0.3171159101E-01   0.3171159101E-01  -0.7594383266E-02   0.7594383263E-02  -0.1435379206E-06   0.7171308262E-03   0.2674860471E+00
   0.2016700000E+01   0.1067362381E-02   0.9989326376E+00   0.1000000000E-03  -0.9076723503E-05   0.9076723504E-05   0.1660000000E-01   0.1076439104E-02  -0.1076439104E-02  -0.5138194095E+00   0.8667884655E-01   0.8667884655E-01  -0.1522253994E-01   0.1522253995E-01  -0.2890776866E-06   0.1413187326E-02   0.6039862531E+00
   0.2016700000E+01   0.9989326376E+00   0.9989326376E+00   0.1000000000E-03   0.9076723506E-05   0.9076723506E-05   0.1660000000E-01  -0.1076439104E-02  -0.1076439104E-02  -0.5138194095E+00   0.8667884654E-01   0.8667884654E-01   0.1522253995E-01   0.1522253995E-01   0.2890772133E-06   0.1413187326E-02   0.6039862531E+00
   0.1011971539E+01   0.9986443608E+00   0.9986443608E+00   0.1610578342E-03   0.1009021532E-04   0.1009021532E-04   0.1181048151E-01  -0.1365729411E-02  -0.1365729411E-02  -0.2338126032E+00   0.3171159101E-01   0.3171159101E-01   0.7594383263E-02   0.7594383263E-02   0.1435374267E-06   0.7171308262E-03   0.2674860471E+00
     1     2     3     4     5     6     7     8
 VARIABLES = X,Y,Z,DU1,DU2,DU3,U1,U2,U3,S11,S22,S33,S12,S13,S23,Vf,SMISES
 ZONE, T="0.1680D+01" F=FEPOINT, I=    8 J=    1 ET=BRICK
   0.1012126788E+01   0.1346009463E-02   0.1346009463E-02   0.1552481816E-03  -0.9629732416E-05  -0.9629732416E-05   0.1197153935E-01   0.1355639195E-02   0.1355639195E-02  -0.2648953511E+00   0.3082540714E-01   0.3082540714E-01  -0.7530874792E-02  -0.7530874792E-02   0.1409705807E-06   0.7171308262E-03   0.2974517900E+00
   0.2016800000E+01   0.1060261982E-02   0.1060261982E-02   0.1000000000E-03  -0.7100398716E-05  -0.7100398716E-05   0.1670000000E-01   0.1067362381E-02   0.1067362381E-02  -0.5756435435E+00   0.8473579785E-01   0.8473579785E-01  -0.1509555924E-01  -0.1509555924E-01   0.2839320252E-06   0.1413187326E-02   0.6634956138E+00
   0.2016800000E+01   0.9989397380E+00   0.1060261982E-02   0.1000000000E-03   0.7100398719E-05  -0.7100398718E-05   0.1670000000E-01  -0.1067362381E-02   0.1067362381E-02  -0.5756435434E+00   0.8473579784E-01   0.8473579784E-01   0.1509555925E-01  -0.1509555924E-01  -0.2839318642E-06   0.1413187326E-02   0.6634956138E+00
   0.1012126788E+01   0.9986539905E+00   0.1346009463E-02   0.1552481816E-03   0.9629732414E-05  -0.9629732416E-05   0.1197153935E-01  -0.1355639195E-02   0.1355639195E-02  -0.2648953511E+00   0.3082540714E-01   0.3082540713E-01   0.7530874789E-02  -0.7530874792E-02  -0.1409702234E-06   0.7171308262E-03   0.2974517900E+00
   0.1012126788E+01   0.1346009463E-02   0.9986539905E+00   0.1552481816E-03  -0.9629732416E-05   0.9629732414E-05   0.1197153935E-01   0.1355639195E-02  -0.1355639195E-02  -0.2648953511E+00   0.3082540713E-01   0.3082540714E-01  -0.7530874792E-02   0.7530874789E-02  -0.1409702234E-06   0.7171308262E-03   0.2974517900E+00
   0.2016800000E+01   0.1060261982E-02   0.9989397380E+00   0.1000000000E-03  -0.7100398718E-05   0.7100398719E-05   0.1670000000E-01   0.1067362381E-02  -0.1067362381E-02  -0.5756435434E+00   0.8473579784E-01   0.8473579784E-01  -0.1509555924E-01   0.1509555925E-01  -0.2839318642E-06   0.1413187326E-02   0.6634956138E+00
   0.2016800000E+01   0.9989397380E+00   0.9989397380E+00   0.1000000000E-03   0.7100398721E-05   0.7100398721E-05   0.1670000000E-01  -0.1067362381E-02  -0.1067362381E-02  -0.5756435434E+00   0.8473579783E-01   0.8473579783E-01   0.1509555925E-01   0.1509555925E-01   0.2839317268E-06   0.1413187326E-02   0.6634956137E+00
   0.1012126788E+01   0.9986539905E+00   0.9986539905E+00   0.1552481816E-03   0.9629732414E-05   0.9629732414E-05   0.1197153935E-01  -0.1355639195E-02  -0.1355639195E-02  -0.2648953511E+00   0.3082540713E-01   0.3082540713E-01   0.7530874789E-02   0.7530874789E-02   0.1409698486E-06   0.7171308262E-03   0.2974517900E+00
     1     2     3     4     5     6     7     8
 VARIABLES = X,Y,Z,DU1,DU2,DU3,U1,U2,U3,S11,S22,S33,S12,S13,S23,Vf,SMISES
 ZONE, T="0.1690D+01" F=FEPOINT, I=    8 J=    1 ET=BRICK
   0.1012275683E+01   0.1336810628E-02   0.1336810628E-02   0.1488957350E-03  -0.9198834568E-05  -0.9198834568E-05   0.1212678753E-01   0.1346009463E-02   0.1346009463E-02  -0.2936068110E+00   0.2940987303E-01   0.2940987303E-01  -0.7372945730E-02  -0.7372945730E-02   0.1346381061E-06   0.7171308262E-03   0.3245348898E+00
   0.2016900000E+01   0.1055051246E-02   0.1055051246E-02   0.1000000000E-03  -0.5210736137E-05  -0.5210736137E-05   0.1680000000E-01   0.1060261982E-02   0.1060261982E-02  -0.6322175806E+00   0.8148028830E-01   0.8148028830E-01  -0.1477979067E-01  -0.1477979067E-01   0.2712409668E-06   0.1413187326E-02   0.7164601387E+00
   0.2016900000E+01   0.9989449488E+00   0.1055051246E-02   0.1000000000E-03   0.5210736140E-05  -0.5210736139E-05   0.1680000000E-01  -0.1060261982E-02   0.1060261982E-02  -0.6322175805E+00   0.8148028829E-01   0.8148028829E-01   0.1477979068E-01  -0.1477979067E-01  -0.2712411741E-06   0.1413187326E-02   0.7164601387E+00
   0.1012275683E+01   0.9986631894E+00   0.1336810628E-02   0.1488957350E-03   0.9198834566E-05  -0.9198834569E-05   0.1212678753E-01  -0.1346009463E-02   0.1346009463E-02  -0.2936068110E+00   0.2940987303E-01   0.2940987303E-01   0.7372945728E-02  -0.7372945730E-02  -0.1346378817E-06   0.7171308262E-03   0.3245348898E+00
   0.1012275683E+01   0.1336810628E-02   0.9986631894E+00   0.1488957350E-03  -0.9198834569E-05   0.9198834566E-05   0.1212678753E-01   0.1346009463E-02  -0.1346009463E-02  -0.2936068110E+00   0.2940987303E-01   0.2940987303E-01  -0.7372945730E-02   0.7372945728E-02  -0.1346378817E-06   0.7171308262E-03   0.3245348898E+00
   0.2016900000E+01   0.1055051246E-02   0.9989449488E+00   0.1000000000E-03  -0.5210736139E-05   0.5210736140E-05   0.1680000000E-01   0.1060261982E-02  -0.1060261982E-02  -0.6322175805E+00   0.8148028829E-01   0.8148028829E-01  -0.1477979067E-01   0.1477979068E-01  -0.2712411740E-06   0.1413187326E-02   0.7164601387E+00
   0.2016900000E+01   0.9989449488E+00   0.9989449488E+00   0.1000000000E-03   0.5210736142E-05   0.5210736142E-05   0.1680000000E-01  -0.1060261982E-02  -0.1060261982E-02  -0.6322175805E+00   0.8148028829E-01   0.8148028829E-01   0.1477979068E-01   0.1477979068E-01   0.2712414040E-06   0.1413187326E-02   0.7164601387E+00
   0.1012275683E+01   0.9986631894E+00   0.9986631894E+00   0.1488957350E-03   0.9198834567E-05   0.9198834567E-05   0.1212678753E-01  -0.1346009463E-02  -0.1346009463E-02  -0.2936068110E+00   0.2940987302E-01   0.2940987302E-01   0.7372945728E-02   0.7372945728E-02   0.1346376387E-06   0.7171308262E-03   0.3245348898E+00
     1     2     3     4     5     6     7     8
 VARIABLES = X,Y,Z,DU1,DU2,DU3,U1,U2,U3,S11,S22,S33,S12,S13,S23,Vf,SMISES
 ZONE, T="0.1700D+01" F=FEPOINT, I=    8 J=    1 ET=BRICK
   0.1012417748E+01   0.1328014012E-02   0.1328014012E-02   0.1420647278E-03  -0.8796616765E-05  -0.8796616765E-05   0.1227568326E-01   0.1336810628E-02   0.1336810628E-02  -0.3194560957E+00   0.2778907845E-01   0.2778907845E-01  -0.7124155865E-02  -0.7124155865E-02   0.1248708797E-06   0.7171308262E-03   0.3485632074E+00
   0.2017000000E+01   0.1051633451E-02   0.1051633451E-02   0.1000000000E-03  -0.3417794959E-05  -0.3417794959E-05   0.1690000000E-01   0.1055051246E-02   0.1055051246E-02  -0.6825788739E+00   0.7757006117E-01   0.7757006117E-01  -0.1428235010E-01  -0.1428235010E-01   0.2516651824E-06   0.1413187326E-02   0.7625695236E+00
   0.2017000000E+01   0.9989483665E+00   0.1051633451E-02   0.1000000000E-03   0.3417794962E-05  -0.3417794961E-05   0.1690000000E-01  -0.1055051246E-02   0.1055051246E-02  -0.6825788739E+00   0.7757006116E-01   0.7757006116E-01   0.1428235011E-01  -0.1428235010E-01  -0.2516657850E-06   0.1413187326E-02   0.7625695235E+00
   0.1012417748E+01   0.9986719860E+00   0.1328014012E-02   0.1420647278E-03   0.8796616764E-05  -0.8796616766E-05   0.1227568326E-01  -0.1336810628E-02   0.1336810628E-02  -0.3194560956E+00   0.2778907845E-01   0.2778907845E-01   0.7124155864E-02  -0.7124155865E-02  -0.1248707992E-06   0.7171308262E-03   0.3485632073E+00
   0.1012417748E+01   0.1328014012E-02   0.9986719860E+00   0.1420647278E-03  -0.8796616766E-05   0.8796616764E-05   0.1227568326E-01   0.1336810628E-02  -0.1336810628E-02  -0.3194560956E+00   0.2778907845E-01   0.2778907845E-01  -0.7124155865E-02   0.7124155864E-02  -0.1248707991E-06   0.7171308262E-03   0.3485632073E+00
   0.2017000000E+01   0.1051633451E-02   0.9989483665E+00   0.1000000000E-03  -0.3417794961E-05   0.3417794962E-05   0.1690000000E-01   0.1055051246E-02  -0.1055051246E-02  -0.6825788739E+00   0.7757006116E-01   0.7757006116E-01  -0.1428235010E-01   0.1428235011E-01  -0.2516657849E-06   0.1413187326E-02   0.7625695235E+00
   0.2017000000E+01   0.9989483665E+00   0.9989483665E+00   0.1000000000E-03   0.3417794964E-05   0.3417794964E-05   0.1690000000E-01  -0.1055051246E-02  -0.1055051246E-02  -0.6825788739E+00   0.7757006115E-01   0.7757006115E-01   0.1428235011E-01   0.1428235011E-01   0.2516664093E-06   0.1413187326E-02   0.7625695235E+00
   0.1012417748E+01   0.9986719860E+00   0.9986719860E+00   0.1420647278E-03   0.8796616765E-05   0.8796616765E-05   0.1227568326E-01  -0.1336810628E-02  -0.1336810628E-02  -0.3194560956E+00   0.2778907845E-01   0.2778907845E-01   0.7124155864E-02   0.7124155864E-02   0.1248706989E-06   0.7171308262E-03   0.3485632073E+00
     1     2     3     4     5     6     7     8
 VARIABLES = X,Y,Z,DU1,DU2,DU3,U1,U2,U3,S11,S22,S33,S12,S13,S23,Vf,SMISES
 ZONE, T="0.1710D+01" F=FEPOINT, I=    8 J=    1 ET=BRICK
   0.1012552576E+01   0.1319597716E-02   0.1319597716E-02   0.1348284994E-03  -0.8416296050E-05  -0.8416296050E-05   0.1241774799E-01   0.1328014012E-02   0.1328014012E-02  -0.3419832967E+00   0.2626906193E-01   0.2626906193E-01  -0.6788528615E-02  -0.6788528615E-02   0.1121428957E-06   0.7171334118E-03   0.3693804771E+00
   0.2017100000E+01   0.1049913404E-02   0.1049913404E-02   0.1000000000E-03  -0.1720047382E-05  -0.1720047382E-05   0.1700000000E-01   0.1051633451E-02   0.1051633451E-02  -0.7257823278E+00   0.7360464298E-01   0.7360464298E-01  -0.1361008643E-01  -0.1361008643E-01   0.2261331529E-06   0.1413206625E-02   0.8014762888E+00
   0.2017100000E+01   0.9989500866E+00   0.1049913404E-02   0.1000000000E-03   0.1720047385E-05  -0.1720047384E-05   0.1700000000E-01  -0.1051633451E-02   0.1051633451E-02  -0.7257823278E+00   0.7360464297E-01   0.7360464298E-01   0.1361008645E-01  -0.1361008643E-01  -0.2261341726E-06   0.1413206625E-02   0.8014762888E+00
   0.1012552576E+01   0.9986804023E+00   0.1319597716E-02   0.1348284994E-03   0.8416296049E-05  -0.8416296051E-05   0.1241774799E-01  -0.1328014012E-02   0.1328014012E-02  -0.3419832967E+00   0.2626906193E-01   0.2626906193E-01   0.6788528615E-02  -0.6788528615E-02  -0.1121429683E-06   0.7171334118E-03   0.3693804771E+00
   0.1012552576E+01   0.1319597716E-02   0.9986804023E+00   0.1348284994E-03  -0.8416296051E-05   0.8416296049E-05   0.1241774799E-01   0.1328014012E-02  -0.1328014012E-02  -0.3419832967E+00   0.2626906193E-01   0.2626906193E-01  -0.6788528615E-02   0.6788528615E-02  -0.1121429682E-06   0.7171334118E-03   0.3693804771E+00
   0.2017100000E+01   0.1049913404E-02   0.9989500866E+00   0.1000000000E-03  -0.1720047384E-05   0.1720047385E-05   0.1700000000E-01   0.1051633451E-02  -0.1051633451E-02  -0.7257823278E+00   0.7360464298E-01   0.7360464297E-01  -0.1361008643E-01   0.1361008645E-01  -0.2261341725E-06   0.1413206625E-02   0.8014762888E+00
   0.2017100000E+01   0.9989500866E+00   0.9989500866E+00   0.1000000000E-03   0.1720047387E-05   0.1720047387E-05   0.1700000000E-01  -0.1051633451E-02  -0.1051633451E-02  -0.7257823278E+00   0.7360464297E-01   0.7360464297E-01   0.1361008645E-01   0.1361008645E-01   0.2261352129E-06   0.1413206625E-02   0.8014762887E+00
   0.1012552576E+01   0.9986804023E+00   0.9986804023E+00   0.1348284994E-03   0.8416296049E-05   0.8416296049E-05   0.1241774799E-01  -0.1328014012E-02  -0.1328014012E-02  -0.3419832967E+00   0.2626906193E-01   0.2626906193E-01   0.6788528615E-02   0.6788528615E-02   0.1121430200E-06   0.7171334118E-03   0.3693804771E+00
     1     2     3     4     5     6     7     8
 VARIABLES = X,Y,Z,DU1,DU2,DU3,U1,U2,U3,S11,S22,S33,S12,S13,S23,Vf,SMISES
 ZONE, T="0.1720D+01" F=FEPOINT, I=    8 J=    1 ET=BRICK
   0.1012679847E+01   0.1311551113E-02   0.1311551113E-02   0.1272704007E-03  -0.8046602100E-05  -0.8046602100E-05   0.1255257649E-01   0.1319597716E-02   0.1319597716E-02  -0.3607528122E+00   0.2510208558E-01   0.2510208558E-01  -0.6369679827E-02  -0.6369679827E-02   0.9702960638E-07   0.7171522376E-03   0.3868025203E+00
   0.2017200000E+01   0.1049803407E-02   0.1049803407E-02   0.1000000000E-03  -0.1099971968E-06  -0.1099971968E-06   0.1710000000E-01   0.1049913404E-02   0.1049913404E-02  -0.7607393885E+00   0.6998035476E-01   0.6998035476E-01  -0.1276502112E-01  -0.1276502112E-01   0.1957218274E-06   0.1413347143E-02   0.8324877315E+00
   0.2017200000E+01   0.9989501966E+00   0.1049803407E-02   0.1000000000E-03   0.1099971994E-06  -0.1099971990E-06   0.1710000000E-01  -0.1049913404E-02   0.1049913404E-02  -0.7607393885E+00   0.6998035476E-01   0.6998035476E-01   0.1276502114E-01  -0.1276502112E-01  -0.1957232793E-06   0.1413347143E-02   0.8324877314E+00
   0.1012679847E+01   0.9986884489E+00   0.1311551113E-02   0.1272704007E-03   0.8046602098E-05  -0.8046602101E-05   0.1255257649E-01  -0.1319597716E-02   0.1319597716E-02  -0.3607528121E+00   0.2510208558E-01   0.2510208558E-01   0.6369679828E-02  -0.6369679827E-02  -0.9702983898E-07   0.7171522376E-03   0.3868025203E+00
   0.1012679847E+01   0.1311551113E-02   0.9986884489E+00   0.1272704007E-03  -0.8046602101E-05   0.8046602098E-05   0.1255257649E-01   0.1319597716E-02  -0.1319597716E-02  -0.3607528121E+00   0.2510208558E-01   0.2510208558E-01  -0.6369679827E-02   0.6369679828E-02  -0.9702983895E-07   0.7171522376E-03   0.3868025203E+00
   0.2017200000E+01   0.1049803407E-02   0.9989501966E+00   0.1000000000E-03  -0.1099971990E-06   0.1099971994E-06   0.1710000000E-01   0.1049913404E-02  -0.1049913404E-02  -0.7607393885E+00   0.6998035476E-01   0.6998035476E-01  -0.1276502112E-01   0.1276502114E-01  -0.1957232792E-06   0.1413347143E-02   0.8324877314E+00
   0.2017200000E+01   0.9989501966E+00   0.9989501966E+00   0.1000000000E-03   0.1099972016E-06   0.1099972016E-06   0.1710000000E-01  -0.1049913404E-02  -0.1049913404E-02  -0.7607393885E+00   0.6998035475E-01   0.6998035475E-01   0.1276502114E-01   0.1276502114E-01   0.1957247507E-06   0.1413347142E-02   0.8324877314E+00
   0.1012679847E+01   0.9986884489E+00   0.9986884489E+00   0.1272704007E-03   0.8046602099E-05   0.8046602099E-05   0.1255257649E-01  -0.1319597716E-02  -0.1319597716E-02  -0.3607528121E+00   0.2510208558E-01   0.2510208558E-01   0.6369679828E-02   0.6369679828E-02   0.9703004993E-07   0.7171522375E-03   0.3868025203E+00
     1     2     3     4     5     6     7     8
 VARIABLES = X,Y,Z,DU1,DU2,DU3,U1,U2,U3,S11,S22,S33,S12,S13,S23,Vf,SMISES
 ZONE, T="0.1730D+01" F=FEPOINT, I=    8 J=    1 ET=BRICK
   0.1012799327E+01   0.1303878530E-02   0.1303878530E-02   0.1194800549E-03  -0.7672583626E-05  -0.7672583626E-05   0.1267984689E-01   0.1311551113E-02   0.1311551113E-02  -0.3754217326E+00   0.2449796099E-01   0.2449796099E-01  -0.5872118887E-02  -0.5872118887E-02   0.8020815362E-07   0.7171963185E-03   0.4006965383E+00
   0.2017300000E+01   0.1051230318E-02   0.1051230318E-02   0.1000000000E-03   0.1426911585E-05   0.1426911585E-05   0.1720000000E-01   0.1049803407E-02   0.1049803407E-02  -0.7866450148E+00   0.6705752615E-01   0.6705752615E-01  -0.1175456283E-01  -0.1175456283E-01   0.1618018736E-06   0.1413676167E-02   0.8551609285E+00
   0.2017300000E+01   0.9989487697E+00   0.1051230318E-02   0.1000000000E-03  -0.1426911582E-05   0.1426911582E-05   0.1720000000E-01  -0.1049803406E-02   0.1049803407E-02  -0.7866450147E+00   0.6705752614E-01   0.6705752615E-01   0.1175456285E-01  -0.1175456283E-01  -0.1618037656E-06   0.1413676167E-02   0.8551609285E+00
   0.1012799327E+01   0.9986961215E+00   0.1303878530E-02   0.1194800549E-03   0.7672583624E-05  -0.7672583626E-05   0.1267984689E-01  -0.1311551113E-02   0.1311551113E-02  -0.3754217326E+00   0.2449796098E-01   0.2449796098E-01   0.5872118890E-02  -0.5872118887E-02  -0.8020855112E-07   0.7171963185E-03   0.4006965383E+00
   0.1012799327E+01   0.1303878530E-02   0.9986961215E+00   0.1194800549E-03  -0.7672583626E-05   0.7672583624E-05   0.1267984689E-01   0.1311551113E-02  -0.1311551113E-02  -0.3754217326E+00   0.2449796098E-01   0.2449796098E-01  -0.5872118887E-02   0.5872118890E-02  -0.8020855110E-07   0.7171963185E-03   0.4006965383E+00
   0.2017300000E+01   0.1051230318E-02   0.9989487697E+00   0.1000000000E-03   0.1426911582E-05  -0.1426911582E-05   0.1720000000E-01   0.1049803407E-02  -0.1049803406E-02  -0.7866450147E+00   0.6705752615E-01   0.6705752614E-01  -0.1175456283E-01   0.1175456285E-01  -0.1618037655E-06   0.1413676167E-02   0.8551609285E+00
   0.2017300000E+01   0.9989487697E+00   0.9989487697E+00   0.1000000000E-03  -0.1426911580E-05  -0.1426911580E-05   0.1720000000E-01  -0.1049803406E-02  -0.1049803406E-02  -0.7866450147E+00   0.6705752614E-01   0.6705752614E-01   0.1175456285E-01   0.1175456285E-01   0.1618056760E-06   0.1413676167E-02   0.8551609284E+00
   0.1012799327E+01   0.9986961215E+00   0.9986961215E+00   0.1194800549E-03   0.7672583625E-05   0.7672583625E-05   0.1267984689E-01  -0.1311551113E-02  -0.1311551113E-02  -0.3754217326E+00   0.2449796098E-01   0.2449796098E-01   0.5872118890E-02   0.5872118890E-02   0.8020892620E-07   0.7171963184E-03   0.4006965383E+00
     1     2     3     4     5     6     7     8
 VARIABLES = X,Y,Z,DU1,DU2,DU3,U1,U2,U3,S11,S22,S33,S12,S13,S23,Vf,SMISES
 ZONE, T="0.1740D+01" F=FEPOINT, I=    8 J=    1 ET=BRICK
   0.1012910876E+01   0.1296601914E-02   0.1296601914E-02   0.1115491252E-03  -0.7276616290E-05  -0.7276616290E-05   0.1279932695E-01   0.1303878530E-02   0.1303878530E-02  -0.3857735036E+00   0.2462038295E-01   0.2462038295E-01  -0.5301244998E-02  -0.5301244998E-02   0.6242659160E-07   0.7172622985E-03   0.4110107395E+00
   0.2017400000E+01   0.1054143545E-02   0.1054143545E-02   0.1000000000E-03   0.2913227260E-05   0.2913227260E-05   0.1730000000E-01   0.1051230318E-02   0.1051230318E-02  -0.8031640873E+00   0.6521242201E-01   0.6521242201E-01  -0.1059275116E-01  -0.1059275116E-01   0.1259706711E-06   0.1414166877E-02   0.8695405625E+00
   0.2017400000E+01   0.9989458565E+00   0.1054143545E-02   0.1000000000E-03  -0.2913227258E-05   0.2913227257E-05   0.1730000000E-01  -0.1051230318E-02   0.1051230318E-02  -0.8031640872E+00   0.6521242201E-01   0.6521242201E-01   0.1059275118E-01  -0.1059275116E-01  -0.1259730048E-06   0.1414166877E-02   0.8695405625E+00
   0.1012910876E+01   0.9987033981E+00   0.1296601914E-02   0.1115491252E-03   0.7276616289E-05  -0.7276616291E-05   0.1279932695E-01  -0.1303878530E-02   0.1303878530E-02  -0.3857735035E+00   0.2462038294E-01   0.2462038295E-01   0.5301245002E-02  -0.5301244998E-02  -0.6242715670E-07   0.7172622984E-03   0.4110107394E+00
   0.1012910876E+01   0.1296601914E-02   0.9987033981E+00   0.1115491252E-03  -0.7276616291E-05   0.7276616289E-05   0.1279932695E-01   0.1303878530E-02  -0.1303878530E-02  -0.3857735035E+00   0.2462038295E-01   0.2462038294E-01  -0.5301244998E-02   0.5301245002E-02  -0.6242715667E-07   0.7172622984E-03   0.4110107394E+00
   0.2017400000E+01   0.1054143545E-02   0.9989458565E+00   0.1000000000E-03   0.2913227257E-05  -0.2913227258E-05   0.1730000000E-01   0.1051230318E-02  -0.1051230318E-02  -0.8031640872E+00   0.6521242201E-01   0.6521242201E-01  -0.1059275116E-01   0.1059275118E-01  -0.1259730047E-06   0.1414166877E-02   0.8695405625E+00
   0.2017400000E+01   0.9989458565E+00   0.9989458565E+00   0.1000000000E-03  -0.2913227255E-05  -0.2913227255E-05   0.1730000000E-01  -0.1051230318E-02  -0.1051230318E-02  -0.8031640872E+00   0.6521242200E-01   0.6521242200E-01   0.1059275118E-01   0.1059275118E-01   0.1259753557E-06   0.1414166877E-02   0.8695405624E+00
   0.1012910876E+01   0.9987033981E+00   0.9987033981E+00   0.1115491252E-03   0.7276616290E-05   0.7276616290E-05   0.1279932695E-01  -0.1303878530E-02  -0.1303878530E-02  -0.3857735035E+00   0.2462038294E-01   0.2462038294E-01   0.5301245002E-02   0.5301245002E-02   0.6242769874E-07   0.7172622984E-03   0.4110107394E+00
     1     2     3     4     5     6     7     8
 VARIABLES = X,Y,Z,DU1,DU2,DU3,U1,U2,U3,S11,S22,S33,S12,S13,S23,Vf,SMISES
 ZONE, T="0.1750D+01" F=FEPOINT, I=    8 J=    1 ET=BRICK
   0.1013014445E+01   0.1289761781E-02   0.1289761781E-02   0.1035685685E-03  -0.6840132772E-05  -0.6840132772E-05   0.1291087607E-01   0.1296601914E-02   0.1296601914E-02  -0.3916980629E+00   0.2555982241E-01   0.2555982241E-01  -0.4662188959E-02  -0.4662188959E-02   0.4445711388E-07   0.7173427876E-03   0.4177270521E+00
   0.2017500000E+01   0.1058521179E-02   0.1058521179E-02   0.1000000000E-03   0.4377633772E-05   0.4377633772E-05   0.1740000000E-01   0.1054143545E-02   0.1054143545E-02  -0.8103565949E+00   0.6476551168E-01   0.6476551168E-01  -0.9295548987E-02  -0.9295548987E-02   0.8988185685E-07   0.1414722808E-02   0.8760114315E+00
   0.2017500000E+01   0.9989414788E+00   0.1058521179E-02   0.1000000000E-03  -0.4377633770E-05   0.4377633770E-05   0.1740000000E-01  -0.1054143545E-02   0.1054143545E-02  -0.8103565949E+00   0.6476551167E-01   0.6476551168E-01   0.9295549010E-02  -0.9295548987E-02  -0.8988462882E-07   0.1414722808E-02   0.8760114314E+00
   0.1013014445E+01   0.9987102382E+00   0.1289761781E-02   0.1035685685E-03   0.6840132771E-05  -0.6840132773E-05   0.1291087607E-01  -0.1296601914E-02   0.1296601914E-02  -0.3916980628E+00   0.2555982241E-01   0.2555982241E-01   0.4662188965E-02  -0.4662188959E-02  -0.4445784736E-07   0.7173427876E-03   0.4177270520E+00
   0.1013014445E+01   0.1289761781E-02   0.9987102382E+00   0.1035685685E-03  -0.6840132773E-05   0.6840132771E-05   0.1291087607E-01   0.1296601914E-02  -0.1296601914E-02  -0.3916980628E+00   0.2555982241E-01   0.2555982241E-01  -0.4662188959E-02   0.4662188965E-02  -0.4445784733E-07   0.7173427876E-03   0.4177270520E+00
   0.2017500000E+01   0.1058521179E-02   0.9989414788E+00   0.1000000000E-03   0.4377633770E-05  -0.4377633770E-05   0.1740000000E-01   0.1054143545E-02  -0.1054143545E-02  -0.8103565949E+00   0.6476551168E-01   0.6476551167E-01  -0.9295548987E-02   0.9295549010E-02  -0.8988462875E-07   0.1414722808E-02   0.8760114314E+00
   0.2017500000E+01   0.9989414788E+00   0.9989414788E+00   0.1000000000E-03  -0.4377633768E-05  -0.4377633768E-05   0.1740000000E-01  -0.1054143545E-02  -0.1054143545E-02  -0.8103565949E+00   0.6476551167E-01   0.6476551167E-01   0.9295549011E-02   0.9295549011E-02   0.8988741697E-07   0.1414722808E-02   0.8760114314E+00
   0.1013014445E+01   0.9987102382E+00   0.9987102382E+00   0.1035685685E-03   0.6840132772E-05   0.6840132772E-05   0.1291087607E-01  -0.1296601914E-02  -0.1296601914E-02  -0.3916980628E+00   0.2555982241E-01   0.2555982241E-01   0.4662188965E-02   0.4662188965E-02   0.4445855730E-07   0.7173427876E-03   0.4177270520E+00
     1     2     3     4     5     6     7     8
 VARIABLES = X,Y,Z,DU1,DU2,DU3,U1,U2,U3,S11,S22,S33,S12,S13,S23,Vf,SMISES
 ZONE, T="0.1760D+01" F=FEPOINT, I=    8 J=    1 ET=BRICK
   0.1013110071E+01   0.1283416638E-02   0.1283416638E-02   0.9562639585E-04  -0.6345142398E-05  -0.6345142398E-05   0.1301444464E-01   0.1289761781E-02   0.1289761781E-02  -0.3932063488E+00   0.2733082420E-01   0.2733082420E-01  -0.3959601941E-02  -0.3959601941E-02   0.2707317341E-07   0.7174246815E-03   0.4208729040E+00
   0.2017600000E+01   0.1064372333E-02   0.1064372333E-02   0.1000000000E-03   0.5851153563E-05   0.5851153563E-05   0.1750000000E-01   0.1058521179E-02   0.1058521179E-02  -0.8085424644E+00   0.6589432289E-01   0.6589432289E-01  -0.7876501818E-02  -0.7876501818E-02   0.5512621713E-07   0.1415226929E-02   0.8750757130E+00
   0.2017600000E+01   0.9989356277E+00   0.1064372333E-02   0.1000000000E-03  -0.5851153562E-05   0.5851153561E-05   0.1750000000E-01  -0.1058521179E-02   0.1058521179E-02  -0.8085424644E+00   0.6589432289E-01   0.6589432289E-01   0.7876501843E-02  -0.7876501818E-02  -0.5512942048E-07   0.1415226929E-02   0.8750757130E+00
   0.1013110071E+01   0.9987165834E+00   0.1283416638E-02   0.9562639586E-04   0.6345142397E-05  -0.6345142399E-05   0.1301444464E-01  -0.1289761781E-02   0.1289761781E-02  -0.3932063488E+00   0.2733082419E-01   0.2733082419E-01   0.3959601947E-02  -0.3959601941E-02  -0.2707407438E-07   0.7174246815E-03   0.4208729039E+00
   0.1013110071E+01   0.1283416638E-02   0.9987165834E+00   0.9562639586E-04  -0.6345142399E-05   0.6345142397E-05   0.1301444464E-01   0.1289761781E-02  -0.1289761781E-02  -0.3932063488E+00   0.2733082419E-01   0.2733082419E-01  -0.3959601941E-02   0.3959601947E-02  -0.2707407436E-07   0.7174246815E-03   0.4208729039E+00
   0.2017600000E+01   0.1064372333E-02   0.9989356277E+00   0.1000000000E-03   0.5851153561E-05  -0.5851153562E-05   0.1750000000E-01   0.1058521179E-02  -0.1058521179E-02  -0.8085424644E+00   0.6589432289E-01   0.6589432289E-01  -0.7876501818E-02   0.7876501843E-02  -0.5512942041E-07   0.1415226929E-02   0.8750757130E+00
   0.2017600000E+01   0.9989356277E+00   0.9989356277E+00   0.1000000000E-03  -0.5851153560E-05  -0.5851153560E-05   0.1750000000E-01  -0.1058521179E-02  -0.1058521179E-02  -0.8085424643E+00   0.6589432289E-01   0.6589432289E-01   0.7876501843E-02   0.7876501843E-02   0.5513263895E-07   0.1415226929E-02   0.8750757129E+00
   0.1013110071E+01   0.9987165834E+00   0.9987165834E+00   0.9562639586E-04   0.6345142398E-05   0.6345142398E-05   0.1301444464E-01  -0.1289761781E-02  -0.1289761781E-02  -0.3932063488E+00   0.2733082419E-01   0.2733082419E-01   0.3959601948E-02   0.3959601948E-02   0.2707495148E-07   0.7174246815E-03   0.4208729039E+00
     1     2     3     4     5     6     7     8
 VARIABLES = X,Y,Z,DU1,DU2,DU3,U1,U2,U3,S11,S22,S33,S12,S13,S23,Vf,SMISES
 ZONE, T="0.1770D+01" F=FEPOINT, I=    8 J=    1 ET=BRICK
   0.1013197877E+01   0.1277640907E-02   0.1277640907E-02   0.8780616630E-04  -0.5775730920E-05  -0.5775730920E-05   0.1311007104E-01   0.1283416638E-02   0.1283416638E-02  -0.3904298475E+00   0.2987133670E-01   0.2987133670E-01  -0.3197286978E-02  -0.3197286978E-02   0.1103587987E-07   0.7174898297E-03   0.4205201879E+00
   0.2017700000E+01   0.1071734519E-02   0.1071734519E-02   0.1000000000E-03   0.7362185848E-05   0.7362185848E-05   0.1760000000E-01   0.1064372333E-02   0.1064372333E-02  -0.7981688693E+00   0.6856650816E-01   0.6856650816E-01  -0.6344282701E-02  -0.6344282701E-02   0.2319923559E-07   0.1415587985E-02   0.8671535356E+00
   0.2017700000E+01   0.9989282655E+00   0.1071734519E-02   0.1000000000E-03  -0.7362185847E-05   0.7362185846E-05   0.1760000000E-01  -0.1064372333E-02   0.1064372333E-02  -0.7981688692E+00   0.6856650815E-01   0.6856650816E-01   0.6344282728E-02  -0.6344282702E-02  -0.2320286050E-07   0.1415587985E-02   0.8671535356E+00
   0.1013197877E+01   0.9987223591E+00   0.1277640907E-02   0.8780616630E-04   0.5775730920E-05  -0.5775730921E-05   0.1311007104E-01  -0.1283416638E-02   0.1283416638E-02  -0.3904298475E+00   0.2987133670E-01   0.2987133670E-01   0.3197286986E-02  -0.3197286979E-02  -0.1103694597E-07   0.7174898297E-03   0.4205201878E+00
   0.1013197877E+01   0.1277640907E-02   0.9987223591E+00   0.8780616630E-04  -0.5775730921E-05   0.5775730920E-05   0.1311007104E-01   0.1283416638E-02  -0.1283416638E-02  -0.3904298475E+00   0.2987133670E-01   0.2987133670E-01  -0.3197286979E-02   0.3197286986E-02  -0.1103694595E-07   0.7174898297E-03   0.4205201878E+00
   0.2017700000E+01   0.1071734519E-02   0.9989282655E+00   0.1000000000E-03   0.7362185846E-05  -0.7362185847E-05   0.1760000000E-01   0.1064372333E-02  -0.1064372333E-02  -0.7981688692E+00   0.6856650816E-01   0.6856650815E-01  -0.6344282702E-02   0.6344282728E-02  -0.2320286044E-07   0.1415587985E-02   0.8671535356E+00
   0.2017700000E+01   0.9989282655E+00   0.9989282655E+00   0.1000000000E-03  -0.7362185845E-05  -0.7362185845E-05   0.1760000000E-01  -0.1064372333E-02  -0.1064372333E-02  -0.7981688692E+00   0.6856650815E-01   0.6856650815E-01   0.6344282728E-02   0.6344282728E-02   0.2320649956E-07   0.1415587985E-02   0.8671535356E+00
   0.1013197877E+01   0.9987223591E+00   0.9987223591E+00   0.8780616630E-04   0.5775730921E-05   0.5775730921E-05   0.1311007104E-01  -0.1283416638E-02  -0.1283416638E-02  -0.3904298475E+00   0.2987133670E-01   0.2987133670E-01   0.3197286986E-02   0.3197286986E-02   0.1103798807E-07   0.7174898297E-03   0.4205201878E+00
     1     2     3     4     5     6     7     8
 VARIABLES = X,Y,Z,DU1,DU2,DU3,U1,U2,U3,S11,S22,S33,S12,S13,S23,Vf,SMISES
 ZONE, T="0.1780D+01" F=FEPOINT, I=    8 J=    1 ET=BRICK
   0.1013278064E+01   0.1272521048E-02   0.1272521048E-02   0.8018660473E-04  -0.5119859704E-05  -0.5119859704E-05   0.1319787720E-01   0.1277640907E-02   0.1277640907E-02  -0.3835795670E+00   0.3303246820E-01   0.3303246820E-01  -0.2377682181E-02  -0.2377682181E-02  -0.2905140193E-08   0.7175257294E-03   0.4167342149E+00
   0.2017800000E+01   0.1080665652E-02   0.1080665652E-02   0.1000000000E-03   0.8931133554E-05   0.8931133554E-05   0.1770000000E-01   0.1071734519E-02   0.1071734519E-02  -0.7796973033E+00   0.7250398563E-01   0.7250398563E-01  -0.4702366141E-02  -0.4702366141E-02  -0.4457531295E-08   0.1415773709E-02   0.8524349162E+00
   0.2017800000E+01   0.9989193343E+00   0.1080665652E-02   0.1000000000E-03  -0.8931133553E-05   0.8931133552E-05   0.1770000000E-01  -0.1071734518E-02   0.1071734519E-02  -0.7796973033E+00   0.7250398563E-01   0.7250398563E-01   0.4702366169E-02  -0.4702366142E-02   0.4453497738E-08   0.1415773709E-02   0.8524349161E+00
   0.1013278064E+01   0.9987274790E+00   0.1272521048E-02   0.8018660473E-04   0.5119859704E-05  -0.5119859705E-05   0.1319787720E-01  -0.1277640907E-02   0.1277640907E-02  -0.3835795670E+00   0.3303246820E-01   0.3303246820E-01   0.2377682190E-02  -0.2377682181E-02   0.2903912601E-08   0.7175257293E-03   0.4167342148E+00
   0.1013278064E+01   0.1272521048E-02   0.9987274790E+00   0.8018660473E-04  -0.5119859705E-05   0.5119859704E-05   0.1319787720E-01   0.1277640907E-02  -0.1277640907E-02  -0.3835795670E+00   0.3303246820E-01   0.3303246820E-01  -0.2377682181E-02   0.2377682190E-02   0.2903912620E-08   0.7175257293E-03   0.4167342148E+00
   0.2017800000E+01   0.1080665652E-02   0.9989193343E+00   0.1000000000E-03   0.8931133552E-05  -0.8931133553E-05   0.1770000000E-01   0.1071734519E-02  -0.1071734518E-02  -0.7796973033E+00   0.7250398563E-01   0.7250398563E-01  -0.4702366142E-02   0.4702366169E-02   0.4453497799E-08   0.1415773709E-02   0.8524349161E+00
   0.2017800000E+01   0.9989193343E+00   0.9989193343E+00   0.1000000000E-03  -0.8931133551E-05  -0.8931133551E-05   0.1770000000E-01  -0.1071734518E-02  -0.1071734518E-02  -0.7796973033E+00   0.7250398563E-01   0.7250398563E-01   0.4702366170E-02   0.4702366170E-02  -0.4449450902E-08   0.1415773709E-02   0.8524349161E+00
   0.1013278064E+01   0.9987274790E+00   0.9987274790E+00   0.8018660474E-04   0.5119859705E-05   0.5119859705E-05   0.1319787720E-01  -0.1277640907E-02  -0.1277640907E-02  -0.3835795670E+00   0.3303246820E-01   0.3303246820E-01   0.2377682190E-02   0.2377682190E-02  -0.2902708986E-08   0.7175257293E-03   0.4167342148E+00
     1     2     3     4     5     6     7     8
 VARIABLES = X,Y,Z,DU1,DU2,DU3,U1,U2,U3,S11,S22,S33,S12,S13,S23,Vf,SMISES
 ZONE, T="0.1790D+01" F=FEPOINT, I=    8 J=    1 ET=BRICK
   0.1013350906E+01   0.1268149929E-02   0.1268149929E-02   0.7284192507E-04  -0.4371118636E-05  -0.4371118636E-05   0.1327806381E-01   0.1272521048E-02   0.1272521048E-02  -0.3729014010E+00   0.3657727940E-01   0.3657727940E-01  -0.1502040792E-02  -0.1502040792E-02  -0.1399243312E-07   0.7175349935E-03   0.4095282904E+00
   0.2017900000E+01   0.1091231295E-02   0.1091231295E-02   0.1000000000E-03   0.1056564270E-04   0.1056564270E-04   0.1780000000E-01   0.1080665652E-02   0.1080665652E-02  -0.7535334352E+00   0.7719003047E-01   0.7719003047E-01  -0.2950831894E-02  -0.2950831894E-02  -0.2637767593E-07   0.1415822436E-02   0.8308178454E+00
   0.2017900000E+01   0.9989087687E+00   0.1091231295E-02   0.1000000000E-03  -0.1056564270E-04   0.1056564269E-04   0.1780000000E-01  -0.1080665652E-02   0.1080665652E-02  -0.7535334352E+00   0.7719003046E-01   0.7719003047E-01   0.2950831923E-02  -0.2950831894E-02   0.2637325093E-07   0.1415822436E-02   0.8308178454E+00
   0.1013350906E+01   0.9987318501E+00   0.1268149929E-02   0.7284192507E-04   0.4371118636E-05  -0.4371118637E-05   0.1327806381E-01  -0.1272521048E-02   0.1272521048E-02  -0.3729014010E+00   0.3657727940E-01   0.3657727940E-01   0.1502040802E-02  -0.1502040792E-02   0.1399104911E-07   0.7175349935E-03   0.4095282904E+00
   0.1013350906E+01   0.1268149929E-02   0.9987318501E+00   0.7284192507E-04  -0.4371118637E-05   0.4371118636E-05   0.1327806381E-01   0.1272521048E-02  -0.1272521048E-02  -0.3729014010E+00   0.3657727940E-01   0.3657727940E-01  -0.1502040792E-02   0.1502040802E-02   0.1399104913E-07   0.7175349935E-03   0.4095282904E+00
   0.2017900000E+01   0.1091231295E-02   0.9989087687E+00   0.1000000000E-03   0.1056564269E-04  -0.1056564270E-04   0.1780000000E-01   0.1080665652E-02  -0.1080665652E-02  -0.7535334352E+00   0.7719003047E-01   0.7719003046E-01  -0.2950831894E-02   0.2950831923E-02   0.2637325099E-07   0.1415822436E-02   0.8308178454E+00
   0.2017900000E+01   0.9989087687E+00   0.9989087687E+00   0.1000000000E-03  -0.1056564269E-04  -0.1056564269E-04   0.1780000000E-01  -0.1080665652E-02  -0.1080665652E-02  -0.7535334351E+00   0.7719003046E-01   0.7719003046E-01   0.2950831923E-02   0.2950831923E-02  -0.2636881344E-07   0.1415822435E-02   0.8308178453E+00
   0.1013350906E+01   0.9987318501E+00   0.9987318501E+00   0.7284192507E-04   0.4371118637E-05   0.4371118637E-05   0.1327806381E-01  -0.1272521048E-02  -0.1272521048E-02  -0.3729014010E+00   0.3657727939E-01   0.3657727939E-01   0.1502040802E-02   0.1502040802E-02  -0.1398968888E-07   0.7175349934E-03   0.4095282904E+00
     1     2     3     4     5     6     7     8
 VARIABLES = X,Y,Z,DU1,DU2,DU3,U1,U2,U3,S11,S22,S33,S12,S13,S23,Vf,SMISES
 ZONE, T="0.1800D+01" F=FEPOINT, I=    8 J=    1 ET=BRICK
   0.1013416748E+01   0.1264620035E-02   0.1264620035E-02   0.6584197477E-04  -0.3529894024E-05  -0.3529894024E-05   0.1335090573E-01   0.1268149929E-02   0.1268149929E-02  -0.3586558004E+00   0.4020102449E-01   0.4020102449E-01  -0.5714075732E-03  -0.5714075732E-03  -0.2143975859E-07   0.7175350342E-03   0.3988642021E+00
   0.2018000000E+01   0.1103489135E-02   0.1103489135E-02   0.1000000000E-03   0.1225783979E-04   0.1225783979E-04   0.1790000000E-01   0.1091231295E-02   0.1091231295E-02  -0.7200386535E+00   0.8193573188E-01   0.8193573188E-01  -0.1089822382E-02  -0.1089822382E-02  -0.4100668119E-07   0.1415822739E-02   0.8019877337E+00
   0.2018000000E+01   0.9988965109E+00   0.1103489135E-02   0.1000000000E-03  -0.1225783979E-04   0.1225783979E-04   0.1790000000E-01  -0.1091231295E-02   0.1091231295E-02  -0.7200386535E+00   0.8193573187E-01   0.8193573188E-01   0.1089822411E-02  -0.1089822382E-02   0.4100188790E-07   0.1415822739E-02   0.8019877336E+00
   0.1013416748E+01   0.9987353800E+00   0.1264620035E-02   0.6584197477E-04   0.3529894025E-05  -0.3529894025E-05   0.1335090573E-01  -0.1268149929E-02   0.1268149929E-02  -0.3586558004E+00   0.4020102449E-01   0.4020102449E-01   0.5714075840E-03  -0.5714075736E-03   0.2143822494E-07   0.7175350341E-03   0.3988642021E+00
   0.1013416748E+01   0.1264620035E-02   0.9987353800E+00   0.6584197477E-04  -0.3529894025E-05   0.3529894025E-05   0.1335090573E-01   0.1268149929E-02  -0.1268149929E-02  -0.3586558004E+00   0.4020102449E-01   0.4020102449E-01  -0.5714075736E-03   0.5714075840E-03   0.2143822496E-07   0.7175350341E-03   0.3988642021E+00
   0.2018000000E+01   0.1103489135E-02   0.9988965109E+00   0.1000000000E-03   0.1225783979E-04  -0.1225783979E-04   0.1790000000E-01   0.1091231295E-02  -0.1091231295E-02  -0.7200386535E+00   0.8193573188E-01   0.8193573187E-01  -0.1089822382E-02   0.1089822411E-02   0.4100188795E-07   0.1415822739E-02   0.8019877336E+00
   0.2018000000E+01   0.9988965109E+00   0.9988965109E+00   0.1000000000E-03  -0.1225783979E-04  -0.1225783979E-04   0.1790000000E-01  -0.1091231295E-02  -0.1091231295E-02  -0.7200386535E+00   0.8193573187E-01   0.8193573187E-01   0.1089822412E-02   0.1089822412E-02  -0.4099708281E-07   0.1415822739E-02   0.8019877336E+00
   0.1013416748E+01   0.9987353800E+00   0.9987353800E+00   0.6584197478E-04   0.3529894025E-05   0.3529894025E-05   0.1335090573E-01  -0.1268149929E-02  -0.1268149929E-02  -0.3586558004E+00   0.4020102449E-01   0.4020102449E-01   0.5714075844E-03   0.5714075844E-03  -0.2143671468E-07   0.7175350341E-03   0.3988642020E+00
     1     2     3     4     5     6     7     8
 VARIABLES = X,Y,Z,DU1,DU2,DU3,U1,U2,U3,S11,S22,S33,S12,S13,S23,Vf,SMISES
 ZONE, T="0.1810D+01" F=FEPOINT, I=    8 J=    1 ET=BRICK
   0.1013475997E+01   0.1262017181E-02   0.1262017181E-02   0.5924956988E-04  -0.2602853640E-05  -0.2602853640E-05   0.1341674771E-01   0.1264620035E-02   0.1264620035E-02  -0.3411732546E+00   0.4359484341E-01   0.4359484341E-01   0.4122211028E-03   0.4122211028E-03  -0.2443594128E-07   0.7175350342E-03   0.3847720821E+00
   0.2018100000E+01   0.1117476095E-02   0.1117476095E-02   0.1000000000E-03   0.1398695994E-04   0.1398695994E-04   0.1800000000E-01   0.1103489135E-02   0.1103489135E-02  -0.6797857915E+00   0.8607948454E-01   0.8607948454E-01   0.8772016220E-03   0.8772016220E-03  -0.4672088590E-07   0.1415822739E-02   0.7658743375E+00
   0.2018100000E+01   0.9988825239E+00   0.1117476095E-02   0.1000000000E-03  -0.1398695994E-04   0.1398695994E-04   0.1800000000E-01  -0.1103489135E-02   0.1103489135E-02  -0.6797857915E+00   0.8607948453E-01   0.8607948454E-01  -0.8772015915E-03   0.8772016210E-03   0.4671575280E-07   0.1415822739E-02   0.7658743375E+00
   0.1013475997E+01   0.9987379828E+00   0.1262017181E-02   0.5924956989E-04   0.2602853641E-05  -0.2602853641E-05   0.1341674771E-01  -0.1264620035E-02   0.1264620035E-02  -0.3411732546E+00   0.4359484341E-01   0.4359484341E-01  -0.4122210913E-03   0.4122211024E-03   0.2443426631E-07   0.7175350341E-03   0.3847720821E+00
   0.1013475997E+01   0.1262017181E-02   0.9987379828E+00   0.5924956989E-04  -0.2602853641E-05   0.2602853641E-05   0.1341674771E-01   0.1264620035E-02  -0.1264620035E-02  -0.3411732546E+00   0.4359484341E-01   0.4359484341E-01   0.4122211024E-03  -0.4122210913E-03   0.2443426632E-07   0.7175350341E-03   0.3847720821E+00
   0.2018100000E+01   0.1117476095E-02   0.9988825239E+00   0.1000000000E-03   0.1398695994E-04  -0.1398695994E-04   0.1800000000E-01   0.1103489135E-02  -0.1103489135E-02  -0.6797857915E+00   0.8607948454E-01   0.8607948453E-01   0.8772016210E-03  -0.8772015915E-03   0.4671575284E-07   0.1415822739E-02   0.7658743375E+00
   0.2018100000E+01   0.9988825239E+00   0.9988825239E+00   0.1000000000E-03  -0.1398695994E-04  -0.1398695994E-04   0.1800000000E-01  -0.1103489134E-02  -0.1103489134E-02  -0.6797857915E+00   0.8607948453E-01   0.8607948453E-01  -0.8772015905E-03  -0.8772015905E-03  -0.4671060853E-07   0.1415822739E-02   0.7658743374E+00
   0.1013475997E+01   0.9987379828E+00   0.9987379828E+00   0.5924956989E-04   0.2602853642E-05   0.2602853642E-05   0.1341674771E-01  -0.1264620035E-02  -0.1264620035E-02  -0.3411732545E+00   0.4359484341E-01   0.4359484341E-01  -0.4122210908E-03  -0.4122210908E-03  -0.2443261416E-07   0.7175350341E-03   0.3847720821E+00
     1     2     3     4     5     6     7     8
 VARIABLES = X,Y,Z,DU1,DU2,DU3,U1,U2,U3,S11,S22,S33,S12,S13,S23,Vf,SMISES
 ZONE, T="0.1820D+01" F=FEPOINT, I=    8 J=    1 ET=BRICK
   0.1013529116E+01   0.1260414926E-02   0.1260414926E-02   0.5311891691E-04  -0.1602255881E-05  -0.1602255881E-05   0.1347599728E-01   0.1262017181E-02   0.1262017181E-02  -0.3208404112E+00   0.4647224775E-01   0.4647224775E-01   0.1445804831E-02   0.1445804831E-02  -0.2217000679E-07   0.7175350342E-03   0.3673639048E+00
   0.2018200000E+01   0.1133198112E-02   0.1133198112E-02   0.1000000000E-03   0.1572201712E-04   0.1572201712E-04   0.1810000000E-01   0.1117476095E-02   0.1117476095E-02  -0.6335637024E+00   0.8905609199E-01   0.8905609199E-01   0.2944168064E-02   0.2944168064E-02  -0.4189912107E-07   0.1415822739E-02   0.7227278081E+00
   0.2018200000E+01   0.9988668019E+00   0.1133198112E-02   0.1000000000E-03  -0.1572201712E-04   0.1572201712E-04   0.1810000000E-01  -0.1117476094E-02   0.1117476095E-02  -0.6335637024E+00   0.8905609199E-01   0.8905609200E-01  -0.2944168033E-02   0.2944168063E-02   0.4189368042E-07   0.1415822739E-02   0.7227278081E+00
   0.1013529116E+01   0.9987395851E+00   0.1260414926E-02   0.5311891691E-04   0.1602255882E-05  -0.1602255882E-05   0.1347599728E-01  -0.1262017181E-02   0.1262017181E-02  -0.3208404112E+00   0.4647224775E-01   0.4647224775E-01  -0.1445804819E-02   0.1445804830E-02   0.2216820010E-07   0.7175350341E-03   0.3673639048E+00
   0.1013529116E+01   0.1260414926E-02   0.9987395851E+00   0.5311891691E-04  -0.1602255882E-05   0.1602255882E-05   0.1347599728E-01   0.1262017181E-02  -0.1262017181E-02  -0.3208404112E+00   0.4647224775E-01   0.4647224775E-01   0.1445804830E-02  -0.1445804819E-02   0.2216820011E-07   0.7175350341E-03   0.3673639048E+00
   0.2018200000E+01   0.1133198112E-02   0.9988668019E+00   0.1000000000E-03   0.1572201712E-04  -0.1572201712E-04   0.1810000000E-01   0.1117476095E-02  -0.1117476094E-02  -0.6335637024E+00   0.8905609200E-01   0.8905609199E-01   0.2944168063E-02  -0.2944168033E-02   0.4189368046E-07   0.1415822739E-02   0.7227278081E+00
   0.2018200000E+01   0.9988668019E+00   0.9988668019E+00   0.1000000000E-03  -0.1572201712E-04  -0.1572201712E-04   0.1810000000E-01  -0.1117476094E-02  -0.1117476094E-02  -0.6335637023E+00   0.8905609199E-01   0.8905609199E-01  -0.2944168032E-02  -0.2944168032E-02  -0.4188822918E-07   0.1415822739E-02   0.7227278081E+00
   0.1013529116E+01   0.9987395851E+00   0.9987395851E+00   0.5311891691E-04   0.1602255883E-05   0.1602255883E-05   0.1347599728E-01  -0.1262017181E-02  -0.1262017181E-02  -0.3208404112E+00   0.4647224775E-01   0.4647224775E-01  -0.1445804818E-02  -0.1445804818E-02  -0.2216641551E-07   0.7175350341E-03   0.3673639048E+00
     1     2     3     4     5     6     7     8
 VARIABLES = X,Y,Z,DU1,DU2,DU3,U1,U2,U3,S11,S22,S33,S12,S13,S23,Vf,SMISES
 ZONE, T="0.1830D+01" F=FEPOINT, I=    8 J=    1 ET=BRICK
   0.1013576612E+01   0.1259869555E-02   0.1259869555E-02   0.4749616832E-04  -0.5453710992E-06  -0.5453710992E-06   0.1352911619E-01   0.1260414926E-02   0.1260414926E-02  -0.2980509002E+00   0.4857422630E-01   0.4857422630E-01   0.2525137702E-02   0.2525137702E-02  -0.1386316415E-07   0.7175350342E-03   0.3467907840E+00
   0.2018300000E+01   0.1150620753E-02   0.1150620753E-02   0.1000000000E-03   0.1742264120E-04   0.1742264120E-04   0.1820000000E-01   0.1133198112E-02   0.1133198112E-02  -0.5821822464E+00   0.9035883212E-01   0.9035883212E-01   0.5102672302E-02   0.5102672302E-02  -0.2498481326E-07   0.1415822739E-02   0.6728897058E+00
   0.2018300000E+01   0.9988493792E+00   0.1150620753E-02   0.1000000000E-03  -0.1742264121E-04   0.1742264120E-04   0.1820000000E-01  -0.1133198112E-02   0.1133198112E-02  -0.5821822463E+00   0.9035883211E-01   0.9035883212E-01  -0.5102672271E-02   0.5102672301E-02   0.2497910103E-07   0.1415822739E-02   0.6728897057E+00
   0.1013576612E+01   0.9987401304E+00   0.1259869554E-02   0.4749616832E-04   0.5453711005E-06  -0.5453711000E-06   0.1352911619E-01  -0.1260414926E-02   0.1260414926E-02  -0.2980509002E+00   0.4857422630E-01   0.4857422630E-01  -0.2525137690E-02   0.2525137702E-02   0.1386123664E-07   0.7175350341E-03   0.3467907840E+00
   0.1013576612E+01   0.1259869554E-02   0.9987401304E+00   0.4749616832E-04  -0.5453711000E-06   0.5453711005E-06   0.1352911619E-01   0.1260414926E-02  -0.1260414926E-02  -0.2980509002E+00   0.4857422630E-01   0.4857422630E-01   0.2525137702E-02  -0.2525137690E-02   0.1386123665E-07   0.7175350341E-03   0.3467907840E+00
   0.2018300000E+01   0.1150620753E-02   0.9988493792E+00   0.1000000000E-03   0.1742264120E-04  -0.1742264121E-04   0.1820000000E-01   0.1133198112E-02  -0.1133198112E-02  -0.5821822463E+00   0.9035883212E-01   0.9035883211E-01   0.5102672301E-02  -0.5102672271E-02   0.2497910106E-07   0.1415822739E-02   0.6728897057E+00
   0.2018300000E+01   0.9988493792E+00   0.9988493792E+00   0.1000000000E-03  -0.1742264120E-04  -0.1742264120E-04   0.1820000000E-01  -0.1133198112E-02  -0.1133198112E-02  -0.5821822463E+00   0.9035883211E-01   0.9035883211E-01  -0.5102672270E-02  -0.5102672270E-02  -0.2497337871E-07   0.1415822739E-02   0.6728897057E+00
   0.1013576612E+01   0.9987401304E+00   0.9987401304E+00   0.4749616833E-04   0.5453711013E-06   0.5453711013E-06   0.1352911619E-01  -0.1260414926E-02  -0.1260414926E-02  -0.2980509002E+00   0.4857422630E-01   0.4857422630E-01  -0.2525137689E-02  -0.2525137689E-02  -0.1385933033E-07   0.7175350341E-03   0.3467907840E+00
     1     2     3     4     5     6     7     8
 VARIABLES = X,Y,Z,DU1,DU2,DU3,U1,U2,U3,S11,S22,S33,S12,S13,S23,Vf,SMISES
 ZONE, T="0.1840D+01" F=FEPOINT, I=    8 J=    1 ET=BRICK
   0.1013619032E+01   0.1260416152E-02   0.1260416152E-02   0.4241975165E-04   0.5465978265E-06   0.5465978265E-06   0.1357661236E-01   0.1259869555E-02   0.1259869555E-02  -0.2731883255E+00   0.4968788639E-01   0.4968788639E-01   0.3644576011E-02   0.3644576011E-02   0.1185754860E-08   0.7175350342E-03   0.3232468028E+00
   0.2018400000E+01   0.1169662197E-02   0.1169662197E-02   0.1000000000E-03   0.1904144357E-04   0.1904144357E-04   0.1830000000E-01   0.1150620753E-02   0.1150620753E-02  -0.5264389632E+00   0.8957708543E-01   0.8957708543E-01   0.7341433745E-02   0.7341433745E-02   0.5423125512E-08   0.1415822739E-02   0.6168041260E+00
   0.2018400000E+01   0.9988303378E+00   0.1169662196E-02   0.1000000000E-03  -0.1904144357E-04   0.1904144357E-04   0.1830000000E-01  -0.1150620753E-02   0.1150620753E-02  -0.5264389632E+00   0.8957708542E-01   0.8957708543E-01  -0.7341433715E-02   0.7341433744E-02  -0.5429069745E-08   0.1415822739E-02   0.6168041260E+00
   0.1013619032E+01   0.9987395838E+00   0.1260416152E-02   0.4241975166E-04  -0.5465978248E-06   0.5465978257E-06   0.1357661236E-01  -0.1259869554E-02   0.1259869554E-02  -0.2731883255E+00   0.4968788638E-01   0.4968788639E-01  -0.3644575998E-02   0.3644576010E-02  -0.1187791031E-08   0.7175350341E-03   0.3232468028E+00
   0.1013619032E+01   0.1260416152E-02   0.9987395838E+00   0.4241975166E-04   0.5465978257E-06  -0.5465978248E-06   0.1357661236E-01   0.1259869554E-02  -0.1259869554E-02  -0.2731883255E+00   0.4968788639E-01   0.4968788638E-01   0.3644576010E-02  -0.3644575998E-02  -0.1187791024E-08   0.7175350341E-03   0.3232468028E+00
   0.2018400000E+01   0.1169662196E-02   0.9988303378E+00   0.1000000000E-03   0.1904144357E-04  -0.1904144357E-04   0.1830000000E-01   0.1150620753E-02  -0.1150620753E-02  -0.5264389632E+00   0.8957708543E-01   0.8957708542E-01   0.7341433744E-02  -0.7341433715E-02  -0.5429069721E-08   0.1415822739E-02   0.6168041260E+00
   0.2018400000E+01   0.9988303378E+00   0.9988303378E+00   0.1000000000E-03  -0.1904144357E-04  -0.1904144357E-04   0.1830000000E-01  -0.1150620753E-02  -0.1150620753E-02  -0.5264389632E+00   0.8957708543E-01   0.8957708543E-01  -0.7341433713E-02  -0.7341433713E-02   0.5435023615E-08   0.1415822739E-02   0.6168041260E+00
   0.1013619032E+01   0.9987395838E+00   0.9987395838E+00   0.4241975166E-04  -0.5465978240E-06  -0.5465978240E-06   0.1357661236E-01  -0.1259869554E-02  -0.1259869554E-02  -0.2731883254E+00   0.4968788638E-01   0.4968788638E-01  -0.3644575997E-02  -0.3644575997E-02   0.1189807056E-08   0.7175350341E-03   0.3232468027E+00
     1     2     3     4     5     6     7     8
 VARIABLES = X,Y,Z,DU1,DU2,DU3,U1,U2,U3,S11,S22,S33,S12,S13,S23,Vf,SMISES
 ZONE, T="0.1850D+01" F=FEPOINT, I=    8 J=    1 ET=BRICK
   0.1013656953E+01   0.1262066003E-02   0.1262066003E-02   0.3792094190E-04   0.1649850973E-05   0.1649850973E-05   0.1361903211E-01   0.1260416152E-02   0.1260416152E-02  -0.2466122677E+00   0.4966128548E-01   0.4966128548E-01   0.4796845605E-02   0.4796845605E-02   0.2354334151E-07   0.7175350342E-03   0.2969735974E+00
   0.2018500000E+01   0.1190189116E-02   0.1190189116E-02   0.1000000000E-03   0.2052691913E-04   0.2052691913E-04   0.1840000000E-01   0.1169662197E-02   0.1169662197E-02  -0.4670921134E+00   0.8642651644E-01   0.8642651644E-01   0.9645910143E-02   0.9645910143E-02   0.5045633805E-07   0.1415822739E-02   0.5550334717E+00
   0.2018500000E+01   0.9988098109E+00   0.1190189116E-02   0.1000000000E-03  -0.2052691913E-04   0.2052691913E-04   0.1840000000E-01  -0.1169662196E-02   0.1169662196E-02  -0.4670921133E+00   0.8642651644E-01   0.8642651645E-01  -0.9645910113E-02   0.9645910142E-02  -0.5046247110E-07   0.1415822739E-02   0.5550334717E+00
   0.1013656953E+01   0.9987379340E+00   0.1262066003E-02   0.3792094190E-04  -0.1649850971E-05   0.1649850972E-05   0.1361903211E-01  -0.1260416152E-02   0.1260416152E-02  -0.2466122677E+00   0.4966128547E-01   0.4966128548E-01  -0.4796845592E-02   0.4796845604E-02  -0.2354547291E-07   0.7175350341E-03   0.2969735974E+00
   0.1013656953E+01   0.1262066003E-02   0.9987379340E+00   0.3792094190E-04   0.1649850972E-05  -0.1649850971E-05   0.1361903211E-01   0.1260416152E-02  -0.1260416152E-02  -0.2466122677E+00   0.4966128548E-01   0.4966128547E-01   0.4796845604E-02  -0.4796845592E-02  -0.2354547291E-07   0.7175350341E-03   0.2969735974E+00
   0.2018500000E+01   0.1190189116E-02   0.9988098109E+00   0.1000000000E-03   0.2052691913E-04  -0.2052691913E-04   0.1840000000E-01   0.1169662196E-02  -0.1169662196E-02  -0.4670921133E+00   0.8642651645E-01   0.8642651644E-01   0.9645910142E-02  -0.9645910113E-02  -0.5046247109E-07   0.1415822739E-02   0.5550334717E+00
   0.2018500000E+01   0.9988098109E+00   0.9988098109E+00   0.1000000000E-03  -0.2052691913E-04  -0.2052691913E-04   0.1840000000E-01  -0.1169662196E-02  -0.1169662196E-02  -0.4670921133E+00   0.8642651644E-01   0.8642651644E-01  -0.9645910112E-02  -0.9645910112E-02   0.5046861339E-07   0.1415822739E-02   0.5550334716E+00
   0.1013656953E+01   0.9987379340E+00   0.9987379340E+00   0.3792094191E-04  -0.1649850970E-05  -0.1649850970E-05   0.1361903211E-01  -0.1260416152E-02  -0.1260416152E-02  -0.2466122677E+00   0.4966128547E-01   0.4966128547E-01  -0.4796845591E-02  -0.4796845591E-02   0.2354758537E-07   0.7175350341E-03   0.2969735974E+00
     1     2     3     4     5     6     7     8
 VARIABLES = X,Y,Z,DU1,DU2,DU3,U1,U2,U3,S11,S22,S33,S12,S13,S23,Vf,SMISES
 ZONE, T="0.1860D+01" F=FEPOINT, I=    8 J=    1 ET=BRICK
   0.1013690978E+01   0.1264805481E-02   0.1264805481E-02   0.3402460288E-04   0.2739477930E-05   0.2739477930E-05   0.1365695306E-01   0.1262066003E-02   0.1262066003E-02  -0.2186479383E+00   0.4841342669E-01   0.4841342669E-01   0.5972946655E-02   0.5972946655E-02   0.5357720343E-07   0.7175350342E-03   0.2682668923E+00
   0.2018600000E+01   0.1212015772E-02   0.1212015772E-02   0.1000000000E-03   0.2182665676E-04   0.2182665676E-04   0.1850000000E-01   0.1190189116E-02   0.1190189116E-02  -0.4048404991E+00   0.8076932111E-01   0.8076932111E-01   0.1199810661E-01   0.1199810661E-01   0.1108481666E-06   0.1415822739E-02   0.4882835367E+00
   0.2018600000E+01   0.9987879842E+00   0.1212015772E-02   0.1000000000E-03  -0.2182665676E-04   0.2182665676E-04   0.1850000000E-01  -0.1190189115E-02   0.1190189116E-02  -0.4048404991E+00   0.8076932110E-01   0.8076932111E-01  -0.1199810658E-01   0.1199810661E-01  -0.1108544418E-06   0.1415822739E-02   0.4882835367E+00
   0.1013690978E+01   0.9987351945E+00   0.1264805481E-02   0.3402460288E-04  -0.2739477928E-05   0.2739477930E-05   0.1365695306E-01  -0.1262066003E-02   0.1262066003E-02  -0.2186479383E+00   0.4841342669E-01   0.4841342669E-01  -0.5972946642E-02   0.5972946654E-02  -0.5357941535E-07   0.7175350341E-03   0.2682668923E+00
   0.1013690978E+01   0.1264805481E-02   0.9987351945E+00   0.3402460288E-04   0.2739477930E-05  -0.2739477928E-05   0.1365695306E-01   0.1262066003E-02  -0.1262066003E-02  -0.2186479383E+00   0.4841342669E-01   0.4841342669E-01   0.5972946654E-02  -0.5972946642E-02  -0.5357941535E-07   0.7175350341E-03   0.2682668923E+00
   0.2018600000E+01   0.1212015772E-02   0.9987879842E+00   0.1000000000E-03   0.2182665676E-04  -0.2182665676E-04   0.1850000000E-01   0.1190189116E-02  -0.1190189115E-02  -0.4048404991E+00   0.8076932111E-01   0.8076932110E-01   0.1199810661E-01  -0.1199810658E-01  -0.1108544417E-06   0.1415822739E-02   0.4882835367E+00
   0.2018600000E+01   0.9987879842E+00   0.9987879842E+00   0.1000000000E-03  -0.2182665676E-04  -0.2182665676E-04   0.1850000000E-01  -0.1190189115E-02  -0.1190189115E-02  -0.4048404991E+00   0.8076932111E-01   0.8076932111E-01  -0.1199810658E-01  -0.1199810658E-01   0.1108607258E-06   0.1415822739E-02   0.4882835367E+00
   0.1013690978E+01   0.9987351945E+00   0.9987351945E+00   0.3402460288E-04  -0.2739477928E-05  -0.2739477928E-05   0.1365695306E-01  -0.1262066003E-02  -0.1262066003E-02  -0.2186479383E+00   0.4841342669E-01   0.4841342669E-01  -0.5972946641E-02  -0.5972946641E-02   0.5358160968E-07   0.7175350341E-03   0.2682668923E+00
     1     2     3     4     5     6     7     8
 VARIABLES = X,Y,Z,DU1,DU2,DU3,U1,U2,U3,S11,S22,S33,S12,S13,S23,Vf,SMISES
 ZONE, T="0.1870D+01" F=FEPOINT, I=    8 J=    1 ET=BRICK
   0.1013721728E+01   0.1268596465E-02   0.1268596465E-02   0.3075001336E-04   0.3790983841E-05   0.3790983841E-05   0.1369097766E-01   0.1264805481E-02   0.1264805481E-02  -0.1895799603E+00   0.4593885375E-01   0.4593885375E-01   0.7162165664E-02   0.7162165664E-02   0.9139003628E-07   0.7175350342E-03   0.2374886430E+00
   0.2018700000E+01   0.1234906392E-02   0.1234906392E-02   0.1000000000E-03   0.2289061986E-04   0.2289061986E-04   0.1860000000E-01   0.1212015772E-02   0.1212015772E-02  -0.3403109621E+00   0.7262338479E-01   0.7262338479E-01   0.1437659911E-01   0.1437659911E-01   0.1868017623E-06   0.1415822739E-02   0.4174550904E+00
   0.2018700000E+01   0.9987650936E+00   0.1234906392E-02   0.1000000000E-03  -0.2289061987E-04   0.2289061986E-04   0.1860000000E-01  -0.1212015772E-02   0.1212015772E-02  -0.3403109621E+00   0.7262338478E-01   0.7262338479E-01  -0.1437659908E-01   0.1437659911E-01  -0.1868081294E-06   0.1415822739E-02   0.4174550904E+00
   0.1013721728E+01   0.9987314035E+00   0.1268596465E-02   0.3075001336E-04  -0.3790983838E-05   0.3790983840E-05   0.1369097766E-01  -0.1264805481E-02   0.1264805481E-02  -0.1895799603E+00   0.4593885374E-01   0.4593885375E-01  -0.7162165651E-02   0.7162165663E-02  -0.9139231275E-07   0.7175350341E-03   0.2374886430E+00
   0.1013721728E+01   0.1268596465E-02   0.9987314035E+00   0.3075001336E-04   0.3790983840E-05  -0.3790983838E-05   0.1369097766E-01   0.1264805481E-02  -0.1264805481E-02  -0.1895799603E+00   0.4593885375E-01   0.4593885374E-01   0.7162165663E-02  -0.7162165651E-02  -0.9139231275E-07   0.7175350341E-03   0.2374886430E+00
   0.2018700000E+01   0.1234906392E-02   0.9987650936E+00   0.1000000000E-03   0.2289061986E-04  -0.2289061987E-04   0.1860000000E-01   0.1212015772E-02  -0.1212015772E-02  -0.3403109621E+00   0.7262338479E-01   0.7262338478E-01   0.1437659911E-01  -0.1437659908E-01  -0.1868081294E-06   0.1415822739E-02   0.4174550904E+00
   0.2018700000E+01   0.9987650936E+00   0.9987650936E+00   0.1000000000E-03  -0.2289061987E-04  -0.2289061987E-04   0.1860000000E-01  -0.1212015772E-02  -0.1212015772E-02  -0.3403109620E+00   0.7262338479E-01   0.7262338479E-01  -0.1437659908E-01  -0.1437659908E-01   0.1868145050E-06   0.1415822739E-02   0.4174550904E+00
   0.1013721728E+01   0.9987314035E+00   0.9987314035E+00   0.3075001337E-04  -0.3790983838E-05  -0.3790983838E-05   0.1369097766E-01  -0.1264805481E-02  -0.1264805481E-02  -0.1895799602E+00   0.4593885375E-01   0.4593885375E-01  -0.7162165651E-02  -0.7162165651E-02   0.9139457310E-07   0.7175350341E-03   0.2374886430E+00
     1     2     3     4     5     6     7     8
 VARIABLES = X,Y,Z,DU1,DU2,DU3,U1,U2,U3,S11,S22,S33,S12,S13,S23,Vf,SMISES
 ZONE, T="0.1880D+01" F=FEPOINT, I=    8 J=    1 ET=BRICK
   0.1013749839E+01   0.1273378209E-02   0.1273378209E-02   0.2811169439E-04   0.4781744366E-05   0.4781744366E-05   0.1372172767E-01   0.1268596465E-02   0.1268596465E-02  -0.1596504217E+00   0.4230669315E-01   0.4230669315E-01   0.8352196712E-02   0.8352196712E-02   0.1367594692E-06   0.7175350342E-03   0.2050947963E+00
   0.2018800000E+01   0.1258580654E-02   0.1258580654E-02   0.1000000000E-03   0.2367426130E-04   0.2367426130E-04   0.1870000000E-01   0.1234906392E-02   0.1234906392E-02  -0.2740538399E+00   0.6216004105E-01   0.6216004105E-01   0.1675677646E-01   0.1675677646E-01   0.2778697494E-06   0.1415822739E-02   0.3437733571E+00
   0.2018800000E+01   0.9987414193E+00   0.1258580654E-02   0.1000000000E-03  -0.2367426131E-04   0.2367426130E-04   0.1870000000E-01  -0.1234906392E-02   0.1234906392E-02  -0.2740538399E+00   0.6216004105E-01   0.6216004106E-01  -0.1675677644E-01   0.1675677646E-01  -0.2778761550E-06   0.1415822739E-02   0.3437733571E+00
   0.1013749839E+01   0.9987266218E+00   0.1273378209E-02   0.2811169439E-04  -0.4781744364E-05   0.4781744366E-05   0.1372172767E-01  -0.1268596465E-02   0.1268596465E-02  -0.1596504217E+00   0.4230669315E-01   0.4230669315E-01  -0.8352196700E-02   0.8352196711E-02  -0.1367617930E-06   0.7175350341E-03   0.2050947963E+00
   0.1013749839E+01   0.1273378209E-02   0.9987266218E+00   0.2811169439E-04   0.4781744366E-05  -0.4781744364E-05   0.1372172767E-01   0.1268596465E-02  -0.1268596465E-02  -0.1596504217E+00   0.4230669315E-01   0.4230669315E-01   0.8352196711E-02  -0.8352196700E-02  -0.1367617930E-06   0.7175350341E-03   0.2050947963E+00
   0.2018800000E+01   0.1258580654E-02   0.9987414193E+00   0.1000000000E-03   0.2367426130E-04  -0.2367426131E-04   0.1870000000E-01   0.1234906392E-02  -0.1234906392E-02  -0.2740538399E+00   0.6216004106E-01   0.6216004105E-01   0.1675677646E-01  -0.1675677644E-01  -0.2778761550E-06   0.1415822739E-02   0.3437733571E+00
   0.2018800000E+01   0.9987414193E+00   0.9987414193E+00   0.1000000000E-03  -0.2367426131E-04  -0.2367426131E-04   0.1870000000E-01  -0.1234906392E-02  -0.1234906392E-02  -0.2740538399E+00   0.6216004105E-01   0.6216004105E-01  -0.1675677643E-01  -0.1675677643E-01   0.2778825688E-06   0.1415822739E-02   0.3437733571E+00
   0.1013749839E+01   0.9987266218E+00   0.9987266218E+00   0.2811169439E-04  -0.4781744363E-05  -0.4781744363E-05   0.1372172767E-01  -0.1268596465E-02  -0.1268596465E-02  -0.1596504217E+00   0.4230669315E-01   0.4230669315E-01  -0.8352196699E-02  -0.8352196699E-02   0.1367641023E-06   0.7175350341E-03   0.2050947963E+00
     1     2     3     4     5     6     7     8
 VARIABLES = X,Y,Z,DU1,DU2,DU3,U1,U2,U3,S11,S22,S33,S12,S13,S23,Vf,SMISES
 ZONE, T="0.1890D+01" F=FEPOINT, I=    8 J=    1 ET=BRICK
   0.1013775960E+01   0.1279070497E-02   0.1279070497E-02   0.2612016046E-04   0.5692288028E-05   0.5692288028E-05   0.1374983937E-01   0.1273378209E-02   0.1273378209E-02  -0.1290610246E+00   0.3765440013E-01   0.3765440013E-01   0.9529366109E-02   0.9529366109E-02   0.1890915464E-06   0.7175350342E-03   0.1717102329E+00
   0.2018900000E+01   0.1282721910E-02   0.1282721910E-02   0.1000000000E-03   0.2414125605E-04   0.2414125605E-04   0.1880000000E-01   0.1258580654E-02   0.1258580654E-02  -0.2065460554E+00   0.4969095987E-01   0.4969095987E-01   0.1911128921E-01   0.1911128921E-01   0.3828611712E-06   0.1415822739E-02   0.2691746696E+00
   0.2018900000E+01   0.9987172781E+00   0.1282721910E-02   0.1000000000E-03  -0.2414125606E-04   0.2414125605E-04   0.1880000000E-01  -0.1258580653E-02   0.1258580654E-02  -0.2065460554E+00   0.4969095987E-01   0.4969095988E-01  -0.1911128918E-01   0.1911128920E-01  -0.3828675588E-06   0.1415822739E-02   0.2691746696E+00
   0.1013775960E+01   0.9987209295E+00   0.1279070497E-02   0.2612016046E-04  -0.5692288025E-05   0.5692288028E-05   0.1374983937E-01  -0.1273378209E-02   0.1273378209E-02  -0.1290610246E+00   0.3765440012E-01   0.3765440013E-01  -0.9529366097E-02   0.9529366108E-02  -0.1890938991E-06   0.7175350341E-03   0.1717102329E+00
   0.1013775960E+01   0.1279070497E-02   0.9987209295E+00   0.2612016046E-04   0.5692288028E-05  -0.5692288025E-05   0.1374983937E-01   0.1273378209E-02  -0.1273378209E-02  -0.1290610246E+00   0.3765440013E-01   0.3765440012E-01   0.9529366108E-02  -0.9529366097E-02  -0.1890938991E-06   0.7175350341E-03   0.1717102329E+00
   0.2018900000E+01   0.1282721910E-02   0.9987172781E+00   0.1000000000E-03   0.2414125605E-04  -0.2414125606E-04   0.1880000000E-01   0.1258580654E-02  -0.1258580653E-02  -0.2065460554E+00   0.4969095988E-01   0.4969095987E-01   0.1911128920E-01  -0.1911128918E-01  -0.3828675588E-06   0.1415822739E-02   0.2691746696E+00
   0.2018900000E+01   0.9987172781E+00   0.9987172781E+00   0.1000000000E-03  -0.2414125606E-04  -0.2414125606E-04   0.1880000000E-01  -0.1258580653E-02  -0.1258580653E-02  -0.2065460554E+00   0.4969095987E-01   0.4969095987E-01  -0.1911128918E-01  -0.1911128918E-01   0.3828739541E-06   0.1415822739E-02   0.2691746696E+00
   0.1013775960E+01   0.9987209295E+00   0.9987209295E+00   0.2612016046E-04  -0.5692288025E-05  -0.5692288025E-05   0.1374983937E-01  -0.1273378209E-02  -0.1273378209E-02  -0.1290610246E+00   0.3765440013E-01   0.3765440013E-01  -0.9529366097E-02  -0.9529366097E-02   0.1890962390E-06   0.7175350341E-03   0.1717102329E+00
     1     2     3     4     5     6     7     8
 VARIABLES = X,Y,Z,DU1,DU2,DU3,U1,U2,U3,S11,S22,S33,S12,S13,S23,Vf,SMISES
 ZONE, T="0.1900D+01" F=FEPOINT, I=    8 J=    1 ET=BRICK
   0.1013800742E+01   0.1285577818E-02   0.1285577818E-02   0.2478252974E-04   0.6507320419E-05   0.6507320419E-05   0.1377595953E-01   0.1279070497E-02   0.1279070497E-02  -0.9797884930E-01   0.3217684032E-01   0.3217684032E-01   0.1067894750E-01   0.1067894750E-01   0.2473952721E-06   0.7175350342E-03   0.1383724021E+00
   0.2019000000E+01   0.1306987579E-02   0.1306987579E-02   0.1000000000E-03   0.2426566945E-04   0.2426566945E-04   0.1890000000E-01   0.1282721910E-02   0.1282721910E-02  -0.1382009523E+00   0.3564546403E-01   0.3564546403E-01   0.2141067957E-01   0.2141067957E-01   0.4997905760E-06   0.1415822739E-02   0.1977090902E+00
   0.2019000000E+01   0.9986930124E+00   0.1306987579E-02   0.1000000000E-03  -0.2426566946E-04   0.2426566945E-04   0.1890000000E-01  -0.1282721909E-02   0.1282721910E-02  -0.1382009523E+00   0.3564546403E-01   0.3564546404E-01  -0.2141067955E-01   0.2141067957E-01  -0.4997968861E-06   0.1415822739E-02   0.1977090902E+00
   0.1013800742E+01   0.9987144222E+00   0.1285577818E-02   0.2478252975E-04  -0.6507320416E-05   0.6507320419E-05   0.1377595953E-01  -0.1279070497E-02   0.1279070497E-02  -0.9797884930E-01   0.3217684032E-01   0.3217684032E-01  -0.1067894749E-01   0.1067894750E-01  -0.2473976343E-06   0.7175350341E-03   0.1383724021E+00
   0.1013800742E+01   0.1285577818E-02   0.9987144222E+00   0.2478252975E-04   0.6507320419E-05  -0.6507320416E-05   0.1377595953E-01   0.1279070497E-02  -0.1279070497E-02  -0.9797884930E-01   0.3217684032E-01   0.3217684032E-01   0.1067894750E-01  -0.1067894749E-01  -0.2473976343E-06   0.7175350341E-03   0.1383724021E+00
   0.2019000000E+01   0.1306987579E-02   0.9986930124E+00   0.1000000000E-03   0.2426566945E-04  -0.2426566946E-04   0.1890000000E-01   0.1282721910E-02  -0.1282721909E-02  -0.1382009523E+00   0.3564546404E-01   0.3564546403E-01   0.2141067957E-01  -0.2141067955E-01  -0.4997968862E-06   0.1415822739E-02   0.1977090902E+00
   0.2019000000E+01   0.9986930124E+00   0.9986930124E+00   0.1000000000E-03  -0.2426566946E-04  -0.2426566946E-04   0.1890000000E-01  -0.1282721909E-02  -0.1282721909E-02  -0.1382009523E+00   0.3564546404E-01   0.3564546404E-01  -0.2141067955E-01  -0.2141067955E-01   0.4998032038E-06   0.1415822739E-02   0.1977090902E+00
   0.1013800742E+01   0.9987144222E+00   0.9987144222E+00   0.2478252975E-04  -0.6507320416E-05  -0.6507320416E-05   0.1377595953E-01  -0.1279070497E-02  -0.1279070497E-02  -0.9797884929E-01   0.3217684032E-01   0.3217684032E-01  -0.1067894749E-01  -0.1067894749E-01   0.2473999853E-06   0.7175350341E-03   0.1383724021E+00
     1     2     3     4     5     6     7     8
 VARIABLES = X,Y,Z,DU1,DU2,DU3,U1,U2,U3,S11,S22,S33,S12,S13,S23,Vf,SMISES
 ZONE, T="0.1910D+01" F=FEPOINT, I=    8 J=    1 ET=BRICK
   0.1013824845E+01   0.1292794244E-02   0.1292794244E-02   0.2410294464E-04   0.7216426463E-05   0.7216426463E-05   0.1380074206E-01   0.1285577818E-02   0.1285577818E-02  -0.6654500568E-01   0.2611165550E-01   0.2611165550E-01   0.1178554841E-01   0.1178554841E-01   0.3102841403E-06   0.7175350342E-03   0.1074533442E+00
   0.2019100000E+01   0.1331021004E-02   0.1331021004E-02   0.1000000000E-03   0.2403342511E-04   0.2403342511E-04   0.1900000000E-01   0.1306987579E-02   0.1306987579E-02  -0.6938351904E-01   0.2054022137E-01   0.2054022137E-01   0.2362415455E-01   0.2362415455E-01   0.6258810926E-06   0.1415822739E-02   0.1413336819E+00
   0.2019100000E+01   0.9986689790E+00   0.1331021004E-02   0.1000000000E-03  -0.2403342511E-04   0.2403342511E-04   0.1900000000E-01  -0.1306987579E-02   0.1306987579E-02  -0.6938351905E-01   0.2054022137E-01   0.2054022138E-01  -0.2362415453E-01   0.2362415455E-01  -0.6258872637E-06   0.1415822739E-02   0.1413336819E+00
   0.1013824845E+01   0.9987072058E+00   0.1292794244E-02   0.2410294464E-04  -0.7216426460E-05   0.7216426463E-05   0.1380074206E-01  -0.1285577818E-02   0.1285577818E-02  -0.6654500568E-01   0.2611165550E-01   0.2611165551E-01  -0.1178554840E-01   0.1178554841E-01  -0.3102864914E-06   0.7175350341E-03   0.1074533442E+00
   0.1013824845E+01   0.1292794244E-02   0.9987072058E+00   0.2410294464E-04   0.7216426463E-05  -0.7216426460E-05   0.1380074206E-01   0.1285577818E-02  -0.1285577818E-02  -0.6654500568E-01   0.2611165551E-01   0.2611165550E-01   0.1178554841E-01  -0.1178554840E-01  -0.3102864914E-06   0.7175350341E-03   0.1074533442E+00
   0.2019100000E+01   0.1331021004E-02   0.9986689790E+00   0.1000000000E-03   0.2403342511E-04  -0.2403342511E-04   0.1900000000E-01   0.1306987579E-02  -0.1306987579E-02  -0.6938351905E-01   0.2054022138E-01   0.2054022137E-01   0.2362415455E-01  -0.2362415453E-01  -0.6258872637E-06   0.1415822739E-02   0.1413336819E+00
   0.2019100000E+01   0.9986689790E+00   0.9986689790E+00   0.1000000000E-03  -0.2403342511E-04  -0.2403342511E-04   0.1900000000E-01  -0.1306987579E-02  -0.1306987579E-02  -0.6938351905E-01   0.2054022137E-01   0.2054022137E-01  -0.2362415453E-01  -0.2362415453E-01   0.6258934419E-06   0.1415822739E-02   0.1413336818E+00
   0.1013824845E+01   0.9987072058E+00   0.9987072058E+00   0.2410294464E-04  -0.7216426459E-05  -0.7216426459E-05   0.1380074206E-01  -0.1285577818E-02  -0.1285577818E-02  -0.6654500568E-01   0.2611165551E-01   0.2611165551E-01  -0.1178554840E-01  -0.1178554840E-01   0.3102888332E-06   0.7175350341E-03   0.1074533441E+00
     1     2     3     4     5     6     7     8
 VARIABLES = X,Y,Z,DU1,DU2,DU3,U1,U2,U3,S11,S22,S33,S12,S13,S23,Vf,SMISES
 ZONE, T="0.1920D+01" F=FEPOINT, I=    8 J=    1 ET=BRICK
   0.1013848928E+01   0.1300608657E-02   0.1300608657E-02   0.2408277367E-04   0.7814412454E-05   0.7814412454E-05   0.1382484500E-01   0.1292794244E-02   0.1292794244E-02  -0.3488525305E-01   0.1972209776E-01   0.1972209776E-01   0.1283354478E-01   0.1283354478E-01   0.3760080996E-06   0.7175350342E-03   0.8423503249E-01
   0.2019200000E+01   0.1354463995E-02   0.1354463995E-02   0.1000000000E-03   0.2344299110E-04   0.2344299110E-04   0.1910000000E-01   0.1331021004E-02   0.1331021004E-02  -0.4292916448E-03   0.4943744799E-02   0.4943744799E-02   0.2572045504E-01   0.2572045504E-01   0.7576284055E-06   0.1415822739E-02   0.1285789370E+00
   0.2019200000E+01   0.9986455360E+00   0.1354463995E-02   0.1000000000E-03  -0.2344299110E-04   0.2344299110E-04   0.1910000000E-01  -0.1331021004E-02   0.1331021004E-02  -0.4292916516E-03   0.4943744797E-02   0.4943744809E-02  -0.2572045503E-01   0.2572045504E-01  -0.7576343741E-06   0.1415822739E-02   0.1285789370E+00
   0.1013848928E+01   0.9986993913E+00   0.1300608657E-02   0.2408277367E-04  -0.7814412450E-05   0.7814412454E-05   0.1382484500E-01  -0.1292794244E-02   0.1292794244E-02  -0.3488525305E-01   0.1972209775E-01   0.1972209776E-01  -0.1283354477E-01   0.1283354478E-01  -0.3760104185E-06   0.7175350341E-03   0.8423503248E-01
   0.1013848928E+01   0.1300608657E-02   0.9986993913E+00   0.2408277367E-04   0.7814412454E-05  -0.7814412450E-05   0.1382484500E-01   0.1292794244E-02  -0.1292794244E-02  -0.3488525305E-01   0.1972209776E-01   0.1972209775E-01   0.1283354478E-01  -0.1283354477E-01  -0.3760104185E-06   0.7175350341E-03   0.8423503248E-01
   0.2019200000E+01   0.1354463995E-02   0.9986455360E+00   0.1000000000E-03   0.2344299110E-04  -0.2344299110E-04   0.1910000000E-01   0.1331021004E-02  -0.1331021004E-02  -0.4292916516E-03   0.4943744809E-02   0.4943744797E-02   0.2572045504E-01  -0.2572045503E-01  -0.7576343742E-06   0.1415822739E-02   0.1285789370E+00
   0.2019200000E+01   0.9986455360E+00   0.9986455360E+00   0.1000000000E-03  -0.2344299110E-04  -0.2344299110E-04   0.1910000000E-01  -0.1331021004E-02  -0.1331021004E-02  -0.4292916584E-03   0.4943744806E-02   0.4943744806E-02  -0.2572045502E-01  -0.2572045502E-01   0.7576403494E-06   0.1415822739E-02   0.1285789370E+00
   0.1013848928E+01   0.9986993913E+00   0.9986993913E+00   0.2408277367E-04  -0.7814412450E-05  -0.7814412450E-05   0.1382484500E-01  -0.1292794244E-02  -0.1292794244E-02  -0.3488525306E-01   0.1972209776E-01   0.1972209776E-01  -0.1283354477E-01  -0.1283354477E-01   0.3760127299E-06   0.7175350341E-03   0.8423503248E-01
     1     2     3     4     5     6     7     8
 VARIABLES = X,Y,Z,DU1,DU2,DU3,U1,U2,U3,S11,S22,S33,S12,S13,S23,Vf,SMISES
 ZONE, T="0.1930D+01" F=FEPOINT, I=    8 J=    1 ET=BRICK
   0.1013873648E+01   0.1308909934E-02   0.1308909934E-02   0.2472058667E-04   0.8301277039E-05   0.8301277039E-05   0.1384892778E-01   0.1300608657E-02   0.1300608657E-02  -0.3121557356E-02   0.1327865832E-01   0.1327865832E-01   0.1380753716E-01   0.1380753716E-01   0.4425162511E-06   0.7175350342E-03   0.7227768161E-01
   0.2019300000E+01   0.1376969257E-02   0.1376969257E-02   0.1000000000E-03   0.2250526172E-04   0.2250526172E-04   0.1920000000E-01   0.1354463995E-02   0.1354463995E-02   0.6833498521E-01  -0.1056157680E-01  -0.1056157680E-01   0.2766876882E-01   0.2766876882E-01   0.8909262286E-06   0.1415822739E-02   0.1615502527E+00
   0.2019300000E+01   0.9986230307E+00   0.1376969257E-02   0.1000000000E-03  -0.2250526172E-04   0.2250526172E-04   0.1920000000E-01  -0.1354463995E-02   0.1354463995E-02   0.6833498520E-01  -0.1056157681E-01  -0.1056157679E-01  -0.2766876881E-01   0.2766876882E-01  -0.8909319302E-06   0.1415822739E-02   0.1615502527E+00
   0.1013873648E+01   0.9986910901E+00   0.1308909934E-02   0.2472058667E-04  -0.8301277035E-05   0.8301277039E-05   0.1384892778E-01  -0.1300608657E-02   0.1300608657E-02  -0.3121557359E-02   0.1327865832E-01   0.1327865832E-01  -0.1380753715E-01   0.1380753715E-01  -0.4425185158E-06   0.7175350341E-03   0.7227768161E-01
   0.1013873648E+01   0.1308909934E-02   0.9986910901E+00   0.2472058667E-04   0.8301277039E-05  -0.8301277035E-05   0.1384892778E-01   0.1300608657E-02  -0.1300608657E-02  -0.3121557359E-02   0.1327865832E-01   0.1327865832E-01   0.1380753715E-01  -0.1380753715E-01  -0.4425185158E-06   0.7175350341E-03   0.7227768161E-01
   0.2019300000E+01   0.1376969257E-02   0.9986230307E+00   0.1000000000E-03   0.2250526172E-04  -0.2250526172E-04   0.1920000000E-01   0.1354463995E-02  -0.1354463995E-02   0.6833498520E-01  -0.1056157679E-01  -0.1056157681E-01   0.2766876882E-01  -0.2766876881E-01  -0.8909319303E-06   0.1415822739E-02   0.1615502527E+00
   0.2019300000E+01   0.9986230307E+00   0.9986230307E+00   0.1000000000E-03  -0.2250526172E-04  -0.2250526172E-04   0.1920000000E-01  -0.1354463995E-02  -0.1354463995E-02   0.6833498519E-01  -0.1056157680E-01  -0.1056157680E-01  -0.2766876881E-01  -0.2766876881E-01   0.8909376380E-06   0.1415822739E-02   0.1615502526E+00
   0.1013873648E+01   0.9986910901E+00   0.9986910901E+00   0.2472058667E-04  -0.8301277035E-05  -0.8301277035E-05   0.1384892778E-01  -0.1300608657E-02  -0.1300608657E-02  -0.3121557362E-02   0.1327865832E-01   0.1327865832E-01  -0.1380753715E-01  -0.1380753715E-01   0.4425207751E-06   0.7175350341E-03   0.7227768160E-01
     1     2     3     4     5     6     7     8
 VARIABLES = X,Y,Z,DU1,DU2,DU3,U1,U2,U3,S11,S22,S33,S12,S13,S23,Vf,SMISES
 ZONE, T="0.1940D+01" F=FEPOINT, I=    8 J=    1 ET=BRICK
   0.1013899660E+01   0.1317591761E-02   0.1317591761E-02   0.2601191578E-04   0.8681827545E-05   0.8681827545E-05   0.1387364836E-01   0.1308909934E-02   0.1308909934E-02   0.2861647699E-01   0.7040857773E-02   0.7040857773E-02   0.1469280168E-01   0.1469280168E-01   0.5075471527E-06   0.7175350342E-03   0.7454317590E-01
   0.2019400000E+01   0.1398211927E-02   0.1398211927E-02   0.1000000000E-03   0.2124267006E-04   0.2124267006E-04   0.1930000000E-01   0.1376969257E-02   0.1376969257E-02   0.1365709204E+00  -0.2541711114E-01  -0.2541711114E-01   0.2943963306E-01   0.2943963306E-01   0.1021247033E-05   0.1415822739E-02   0.2160139877E+00
   0.2019400000E+01   0.9986017881E+00   0.1398211927E-02   0.1000000000E-03  -0.2124267007E-04   0.2124267007E-04   0.1930000000E-01  -0.1376969257E-02   0.1376969257E-02   0.1365709204E+00  -0.2541711115E-01  -0.2541711113E-01  -0.2943963305E-01   0.2943963306E-01  -0.1021252403E-05   0.1415822739E-02   0.2160139876E+00
   0.1013899660E+01   0.9986824082E+00   0.1317591761E-02   0.2601191578E-04  -0.8681827542E-05   0.8681827545E-05   0.1387364836E-01  -0.1308909934E-02   0.1308909934E-02   0.2861647699E-01   0.7040857771E-02   0.7040857776E-02  -0.1469280167E-01   0.1469280168E-01  -0.5075493413E-06   0.7175350341E-03   0.7454317590E-01
   0.1013899660E+01   0.1317591761E-02   0.9986824082E+00   0.2601191578E-04   0.8681827545E-05  -0.8681827542E-05   0.1387364836E-01   0.1308909934E-02  -0.1308909934E-02   0.2861647699E-01   0.7040857776E-02   0.7040857771E-02   0.1469280168E-01  -0.1469280167E-01  -0.5075493413E-06   0.7175350341E-03   0.7454317590E-01
   0.2019400000E+01   0.1398211927E-02   0.9986017881E+00   0.1000000000E-03   0.2124267007E-04  -0.2124267007E-04   0.1930000000E-01   0.1376969257E-02  -0.1376969257E-02   0.1365709204E+00  -0.2541711113E-01  -0.2541711115E-01   0.2943963306E-01  -0.2943963305E-01  -0.1021252403E-05   0.1415822739E-02   0.2160139876E+00
   0.2019400000E+01   0.9986017881E+00   0.9986017881E+00   0.1000000000E-03  -0.2124267007E-04  -0.2124267007E-04   0.1930000000E-01  -0.1376969257E-02  -0.1376969257E-02   0.1365709204E+00  -0.2541711114E-01  -0.2541711114E-01  -0.2943963305E-01  -0.2943963305E-01   0.1021257778E-05   0.1415822739E-02   0.2160139876E+00
   0.1013899660E+01   0.9986824082E+00   0.9986824082E+00   0.2601191578E-04  -0.8681827541E-05  -0.8681827541E-05   0.1387364836E-01  -0.1308909934E-02  -0.1308909934E-02   0.2861647698E-01   0.7040857775E-02   0.7040857775E-02  -0.1469280167E-01  -0.1469280167E-01   0.5075515264E-06   0.7175350341E-03   0.7454317589E-01
     1     2     3     4     5     6     7     8
 VARIABLES = X,Y,Z,DU1,DU2,DU3,U1,U2,U3,S11,S22,S33,S12,S13,S23,Vf,SMISES
 ZONE, T="0.1950D+01" F=FEPOINT, I=    8 J=    1 ET=BRICK
   0.1013927609E+01   0.1326556745E-02   0.1326556745E-02   0.2794883394E-04   0.8964983165E-05   0.8964983165E-05   0.1389966028E-01   0.1317591761E-02   0.1317591761E-02   0.6018131546E-01   0.1240503642E-02   0.1240503642E-02   0.1547570994E-01   0.1547570994E-01   0.5687404111E-06   0.7175350342E-03   0.9257983169E-01
   0.2019500000E+01   0.1417899547E-02   0.1417899547E-02   0.1000000000E-03   0.1968762038E-04   0.1968762038E-04   0.1940000000E-01   0.1398211927E-02   0.1398211927E-02   0.2039101517E+00  -0.3912259657E-01  -0.3912259657E-01   0.3100577488E-01   0.3100577488E-01   0.1143865384E-05   0.1415822739E-02   0.2819814866E+00
   0.2019500000E+01   0.9985821005E+00   0.1417899547E-02   0.1000000000E-03  -0.1968762038E-04   0.1968762038E-04   0.1940000000E-01  -0.1398211927E-02   0.1398211927E-02   0.2039101516E+00  -0.3912259657E-01  -0.3912259656E-01  -0.3100577487E-01   0.3100577488E-01  -0.1143870357E-05   0.1415822739E-02   0.2819814865E+00
   0.1013927609E+01   0.9986734433E+00   0.1326556745E-02   0.2794883394E-04  -0.8964983161E-05   0.8964983165E-05   0.1389966028E-01  -0.1317591761E-02   0.1317591761E-02   0.6018131546E-01   0.1240503641E-02   0.1240503645E-02  -0.1547570994E-01   0.1547570994E-01  -0.5687425014E-06   0.7175350341E-03   0.9257983168E-01
   0.1013927609E+01   0.1326556745E-02   0.9986734433E+00   0.2794883394E-04   0.8964983165E-05  -0.8964983161E-05   0.1389966028E-01   0.1317591761E-02  -0.1317591761E-02   0.6018131546E-01   0.1240503645E-02   0.1240503641E-02   0.1547570994E-01  -0.1547570994E-01  -0.5687425014E-06   0.7175350341E-03   0.9257983168E-01
   0.2019500000E+01   0.1417899547E-02   0.9985821005E+00   0.1000000000E-03   0.1968762038E-04  -0.1968762038E-04   0.1940000000E-01   0.1398211927E-02  -0.1398211927E-02   0.2039101516E+00  -0.3912259656E-01  -0.3912259657E-01   0.3100577488E-01  -0.3100577487E-01  -0.1143870358E-05   0.1415822739E-02   0.2819814865E+00
   0.2019500000E+01   0.9985821005E+00   0.9985821005E+00   0.1000000000E-03  -0.1968762039E-04  -0.1968762039E-04   0.1940000000E-01  -0.1398211927E-02  -0.1398211927E-02   0.2039101516E+00  -0.3912259656E-01  -0.3912259656E-01  -0.3100577487E-01  -0.3100577487E-01   0.1143875336E-05   0.1415822739E-02   0.2819814865E+00
   0.1013927609E+01   0.9986734433E+00   0.9986734433E+00   0.2794883394E-04  -0.8964983161E-05  -0.8964983161E-05   0.1389966028E-01  -0.1317591761E-02  -0.1317591761E-02   0.6018131545E-01   0.1240503645E-02   0.1240503645E-02  -0.1547570993E-01  -0.1547570993E-01   0.5687445901E-06   0.7175350341E-03   0.9257983167E-01
     1     2     3     4     5     6     7     8
 VARIABLES = X,Y,Z,DU1,DU2,DU3,U1,U2,U3,S11,S22,S33,S12,S13,S23,Vf,SMISES
 ZONE, T="0.1960D+01" F=FEPOINT, I=    8 J=    1 ET=BRICK
   0.1013958129E+01   0.1335719572E-02   0.1335719572E-02   0.3051939852E-04   0.9162827679E-05   0.9162827679E-05   0.1392760911E-01   0.1326556745E-02   0.1326556745E-02   0.9139923461E-01  -0.3932431746E-02  -0.3932431746E-02   0.1614409476E-01   0.1614409476E-01   0.6237607348E-06   0.7175350342E-03   0.1196322739E+00
   0.2019600000E+01   0.1435779922E-02   0.1435779922E-02   0.1000000000E-03   0.1788037427E-04   0.1788037427E-04   0.1950000000E-01   0.1417899547E-02   0.1417899547E-02   0.2699397961E+00  -0.5126537039E-01  -0.5126537039E-01   0.3234284383E-01   0.3234284383E-01   0.1254106229E-05   0.1415822739E-02   0.3523228050E+00
   0.2019600000E+01   0.9985642201E+00   0.1435779922E-02   0.1000000000E-03  -0.1788037428E-04   0.1788037428E-04   0.1950000000E-01  -0.1417899547E-02   0.1417899547E-02   0.2699397960E+00  -0.5126537039E-01  -0.5126537038E-01  -0.3234284383E-01   0.3234284383E-01  -0.1254110743E-05   0.1415822739E-02   0.3523228050E+00
   0.1013958129E+01   0.9986642804E+00   0.1335719572E-02   0.3051939852E-04  -0.9162827675E-05   0.9162827679E-05   0.1392760911E-01  -0.1326556744E-02   0.1326556745E-02   0.9139923461E-01  -0.3932431746E-02  -0.3932431742E-02  -0.1614409475E-01   0.1614409476E-01  -0.6237627050E-06   0.7175350341E-03   0.1196322739E+00
   0.1013958129E+01   0.1335719572E-02   0.9986642804E+00   0.3051939852E-04   0.9162827679E-05  -0.9162827675E-05   0.1392760911E-01   0.1326556745E-02  -0.1326556744E-02   0.9139923461E-01  -0.3932431742E-02  -0.3932431746E-02   0.1614409476E-01  -0.1614409475E-01  -0.6237627051E-06   0.7175350341E-03   0.1196322739E+00
   0.2019600000E+01   0.1435779922E-02   0.9985642201E+00   0.1000000000E-03   0.1788037428E-04  -0.1788037428E-04   0.1950000000E-01   0.1417899547E-02  -0.1417899547E-02   0.2699397960E+00  -0.5126537038E-01  -0.5126537039E-01   0.3234284383E-01  -0.3234284383E-01  -0.1254110743E-05   0.1415822739E-02   0.3523228050E+00
   0.2019600000E+01   0.9985642201E+00   0.9985642201E+00   0.1000000000E-03  -0.1788037428E-04  -0.1788037428E-04   0.1950000000E-01  -0.1417899547E-02  -0.1417899547E-02   0.2699397960E+00  -0.5126537038E-01  -0.5126537038E-01  -0.3234284383E-01  -0.3234284383E-01   0.1254115261E-05   0.1415822739E-02   0.3523228050E+00
   0.1013958129E+01   0.9986642804E+00   0.9986642804E+00   0.3051939852E-04  -0.9162827675E-05  -0.9162827675E-05   0.1392760911E-01  -0.1326556744E-02  -0.1326556744E-02   0.9139923460E-01  -0.3932431742E-02  -0.3932431742E-02  -0.1614409475E-01  -0.1614409475E-01   0.6237646756E-06   0.7175350341E-03   0.1196322739E+00
     1     2     3     4     5     6     7     8
 VARIABLES = X,Y,Z,DU1,DU2,DU3,U1,U2,U3,S11,S22,S33,S12,S13,S23,Vf,SMISES
 ZONE, T="0.1970D+01" F=FEPOINT, I=    8 J=    1 ET=BRICK
   0.1013991836E+01   0.1345009063E-02   0.1345009063E-02   0.3370701929E-04   0.9289490292E-05   0.9289490292E-05   0.1395812851E-01   0.1335719572E-02   0.1335719572E-02   0.1220648040E+00  -0.8340392319E-02  -0.8340392319E-02   0.1668754342E-01   0.1668754342E-01   0.6704241937E-06   0.7175350342E-03   0.1496900494E+00
   0.2019700000E+01   0.1451646481E-02   0.1451646481E-02   0.1000000000E-03   0.1586655888E-04   0.1586655888E-04   0.1960000000E-01   0.1435779922E-02   0.1435779922E-02   0.3341929917E+00  -0.6154231995E-01  -0.6154231995E-01   0.3342999937E-01   0.3342999937E-01   0.1347597613E-05   0.1415822739E-02   0.4222308035E+00
   0.2019700000E+01   0.9985483535E+00   0.1451646481E-02   0.1000000000E-03  -0.1586655889E-04   0.1586655889E-04   0.1960000000E-01  -0.1435779922E-02   0.1435779922E-02   0.3341929917E+00  -0.6154231995E-01  -0.6154231994E-01  -0.3342999937E-01   0.3342999937E-01  -0.1347601607E-05   0.1415822739E-02   0.4222308035E+00
   0.1013991836E+01   0.9986549909E+00   0.1345009063E-02   0.3370701929E-04  -0.9289490288E-05   0.9289490292E-05   0.1395812851E-01  -0.1335719572E-02   0.1335719572E-02   0.1220648040E+00  -0.8340392320E-02  -0.8340392316E-02  -0.1668754342E-01   0.1668754342E-01  -0.6704260227E-06   0.7175350341E-03   0.1496900494E+00
   0.1013991836E+01   0.1345009063E-02   0.9986549909E+00   0.3370701929E-04   0.9289490292E-05  -0.9289490288E-05   0.1395812851E-01   0.1335719572E-02  -0.1335719572E-02   0.1220648040E+00  -0.8340392316E-02  -0.8340392320E-02   0.1668754342E-01  -0.1668754342E-01  -0.6704260227E-06   0.7175350341E-03   0.1496900494E+00
   0.2019700000E+01   0.1451646481E-02   0.9985483535E+00   0.1000000000E-03   0.1586655889E-04  -0.1586655889E-04   0.1960000000E-01   0.1435779922E-02  -0.1435779922E-02   0.3341929917E+00  -0.6154231994E-01  -0.6154231995E-01   0.3342999937E-01  -0.3342999937E-01  -0.1347601607E-05   0.1415822739E-02   0.4222308035E+00
   0.2019700000E+01   0.9985483535E+00   0.9985483535E+00   0.1000000000E-03  -0.1586655889E-04  -0.1586655889E-04   0.1960000000E-01  -0.1435779922E-02  -0.1435779922E-02   0.3341929917E+00  -0.6154231994E-01  -0.6154231994E-01  -0.3342999937E-01  -0.3342999937E-01   0.1347605605E-05   0.1415822739E-02   0.4222308034E+00
   0.1013991836E+01   0.9986549909E+00   0.9986549909E+00   0.3370701929E-04  -0.9289490288E-05  -0.9289490288E-05   0.1395812851E-01  -0.1335719572E-02  -0.1335719572E-02   0.1220648040E+00  -0.8340392316E-02  -0.8340392316E-02  -0.1668754342E-01  -0.1668754342E-01   0.6704278540E-06   0.7175350341E-03   0.1496900494E+00
     1     2     3     4     5     6     7     8
 VARIABLES = X,Y,Z,DU1,DU2,DU3,U1,U2,U3,S11,S22,S33,S12,S13,S23,Vf,SMISES
 ZONE, T="0.1980D+01" F=FEPOINT, I=    8 J=    1 ET=BRICK
   0.1014029325E+01   0.1354369005E-02   0.1354369005E-02   0.3748981713E-04   0.9359942694E-05   0.9359942694E-05   0.1399183553E-01   0.1345009063E-02   0.1345009063E-02   0.1519385856E+00  -0.1190464815E-01  -0.1190464815E-01   0.1709760544E-01   0.1709760544E-01   0.7068162636E-06   0.7175350342E-03   0.1800195494E+00
   0.2019800000E+01   0.1465340966E-02   0.1465340966E-02   0.1000000000E-03   0.1369448541E-04   0.1369448541E-04   0.1970000000E-01   0.1451646481E-02   0.1451646481E-02   0.3961454145E+00  -0.6977326148E-01  -0.6977326148E-01   0.3425032720E-01   0.3425032720E-01   0.1420506958E-05   0.1415822739E-02   0.4892829946E+00
   0.2019800000E+01   0.9985346590E+00   0.1465340966E-02   0.1000000000E-03  -0.1369448542E-04   0.1369448541E-04   0.1970000000E-01  -0.1451646480E-02   0.1451646481E-02   0.3961454145E+00  -0.6977326148E-01  -0.6977326148E-01  -0.3425032721E-01   0.3425032720E-01  -0.1420510375E-05   0.1415822739E-02   0.4892829945E+00
   0.1014029325E+01   0.9986456310E+00   0.1354369005E-02   0.3748981713E-04  -0.9359942690E-05   0.9359942694E-05   0.1399183553E-01  -0.1345009062E-02   0.1345009063E-02   0.1519385856E+00  -0.1190464815E-01  -0.1190464815E-01  -0.1709760544E-01   0.1709760544E-01  -0.7068179313E-06   0.7175350341E-03   0.1800195494E+00
   0.1014029325E+01   0.1354369005E-02   0.9986456310E+00   0.3748981713E-04   0.9359942694E-05  -0.9359942690E-05   0.1399183553E-01   0.1345009063E-02  -0.1345009062E-02   0.1519385856E+00  -0.1190464815E-01  -0.1190464815E-01   0.1709760544E-01  -0.1709760544E-01  -0.7068179313E-06   0.7175350341E-03   0.1800195494E+00
   0.2019800000E+01   0.1465340966E-02   0.9985346590E+00   0.1000000000E-03   0.1369448541E-04  -0.1369448542E-04   0.1970000000E-01   0.1451646481E-02  -0.1451646480E-02   0.3961454145E+00  -0.6977326148E-01  -0.6977326148E-01   0.3425032720E-01  -0.3425032721E-01  -0.1420510375E-05   0.1415822739E-02   0.4892829945E+00
   0.2019800000E+01   0.9985346590E+00   0.9985346590E+00   0.1000000000E-03  -0.1369448542E-04  -0.1369448542E-04   0.1970000000E-01  -0.1451646480E-02  -0.1451646480E-02   0.3961454145E+00  -0.6977326147E-01  -0.6977326147E-01  -0.3425032720E-01  -0.3425032720E-01   0.1420513794E-05   0.1415822739E-02   0.4892829945E+00
   0.1014029325E+01   0.9986456310E+00   0.9986456310E+00   0.3748981713E-04  -0.9359942690E-05  -0.9359942690E-05   0.1399183553E-01  -0.1345009062E-02  -0.1345009062E-02   0.1519385856E+00  -0.1190464815E-01  -0.1190464815E-01  -0.1709760544E-01  -0.1709760544E-01   0.7068196031E-06   0.7175350341E-03   0.1800195494E+00
     1     2     3     4     5     6     7     8
 VARIABLES = X,Y,Z,DU1,DU2,DU3,U1,U2,U3,S11,S22,S33,S12,S13,S23,Vf,SMISES
 ZONE, T="0.1990D+01" F=FEPOINT, I=    8 J=    1 ET=BRICK
   0.1014071165E+01   0.1363757809E-02   0.1363757809E-02   0.4184004111E-04   0.9388803293E-05   0.9388803293E-05   0.1402932535E-01   0.1354369005E-02   0.1354369005E-02   0.1807482673E+00  -0.1460723050E-01  -0.1460723050E-01   0.1736790810E-01   0.1736790810E-01   0.7313923486E-06   0.7175350342E-03   0.2093647010E+00
   0.2019900000E+01   0.1476753439E-02   0.1476753439E-02   0.1000000000E-03   0.1141247267E-04   0.1141247267E-04   0.1980000000E-01   0.1465340966E-02   0.1465340966E-02   0.4552181681E+00  -0.7590512128E-01  -0.7590512128E-01   0.3479107120E-01   0.3479107120E-01   0.1469742275E-05   0.1415822739E-02   0.5521234729E+00
   0.2019900000E+01   0.9985232466E+00   0.1476753439E-02   0.1000000000E-03  -0.1141247268E-04   0.1141247267E-04   0.1980000000E-01  -0.1465340966E-02   0.1465340966E-02   0.4552181681E+00  -0.7590512128E-01  -0.7590512127E-01  -0.3479107120E-01   0.3479107120E-01  -0.1469745062E-05   0.1415822739E-02   0.5521234729E+00
   0.1014071165E+01   0.9986362422E+00   0.1363757809E-02   0.4184004111E-04  -0.9388803290E-05   0.9388803294E-05   0.1402932535E-01  -0.1354369005E-02   0.1354369005E-02   0.1807482672E+00  -0.1460723050E-01  -0.1460723050E-01  -0.1736790810E-01   0.1736790810E-01  -0.7313938363E-06   0.7175350341E-03   0.2093647010E+00
   0.1014071165E+01   0.1363757809E-02   0.9986362422E+00   0.4184004111E-04   0.9388803294E-05  -0.9388803290E-05   0.1402932535E-01   0.1354369005E-02  -0.1354369005E-02   0.1807482672E+00  -0.1460723050E-01  -0.1460723050E-01   0.1736790810E-01  -0.1736790810E-01  -0.7313938363E-06   0.7175350341E-03   0.2093647010E+00
   0.2019900000E+01   0.1476753439E-02   0.9985232466E+00   0.1000000000E-03   0.1141247267E-04  -0.1141247268E-04   0.1980000000E-01   0.1465340966E-02  -0.1465340966E-02   0.4552181681E+00  -0.7590512127E-01  -0.7590512128E-01   0.3479107120E-01  -0.3479107120E-01  -0.1469745062E-05   0.1415822739E-02   0.5521234729E+00
   0.2019900000E+01   0.9985232466E+00   0.9985232466E+00   0.1000000000E-03  -0.1141247268E-04  -0.1141247268E-04   0.1980000000E-01  -0.1465340966E-02  -0.1465340966E-02   0.4552181680E+00  -0.7590512127E-01  -0.7590512127E-01  -0.3479107120E-01  -0.3479107120E-01   0.1469747850E-05   0.1415822739E-02   0.5521234729E+00
   0.1014071165E+01   0.9986362422E+00   0.9986362422E+00   0.4184004111E-04  -0.9388803290E-05  -0.9388803290E-05   0.1402932535E-01  -0.1354369005E-02  -0.1354369005E-02   0.1807482672E+00  -0.1460723050E-01  -0.1460723050E-01  -0.1736790810E-01  -0.1736790810E-01   0.7313953297E-06   0.7175350341E-03   0.2093647010E+00
     1     2     3     4     5     6     7     8
 VARIABLES = X,Y,Z,DU1,DU2,DU3,U1,U2,U3,S11,S22,S33,S12,S13,S23,Vf,SMISES
 ZONE, T="0.2000D+01" F=FEPOINT, I=    8 J=    1 ET=BRICK
   0.1014117889E+01   0.1373147044E-02   0.1373147044E-02   0.4672360817E-04   0.9389235594E-05   0.9389235594E-05   0.1407116539E-01   0.1363757809E-02   0.1363757809E-02   0.2081931811E+00  -0.1648842516E-01  -0.1648842516E-01   0.1749417965E-01   0.1749417965E-01   0.7430536558E-06   0.7175350342E-03   0.2370365964E+00
   0.2020000000E+01   0.1485819801E-02   0.1485819801E-02   0.1000000000E-03   0.9066361891E-05   0.9066361891E-05   0.1990000000E-01   0.1476753439E-02   0.1476753439E-02   0.5107869447E+00  -0.8000698507E-01  -0.8000698507E-01   0.3504368036E-01   0.3504368036E-01   0.1493104038E-05   0.1415822739E-02   0.6098567859E+00
   0.2020000000E+01   0.9985141802E+00   0.1485819801E-02   0.1000000000E-03  -0.9066361897E-05   0.9066361895E-05   0.1990000000E-01  -0.1476753439E-02   0.1476753439E-02   0.5107869447E+00  -0.8000698507E-01  -0.8000698507E-01  -0.3504368037E-01   0.3504368036E-01  -0.1493106147E-05   0.1415822739E-02   0.6098567859E+00
   0.1014117889E+01   0.9986268530E+00   0.1373147044E-02   0.4672360817E-04  -0.9389235590E-05   0.9389235595E-05   0.1407116539E-01  -0.1363757808E-02   0.1363757809E-02   0.2081931811E+00  -0.1648842516E-01  -0.1648842516E-01  -0.1749417966E-01   0.1749417965E-01  -0.7430549462E-06   0.7175350341E-03   0.2370365964E+00
   0.1014117889E+01   0.1373147044E-02   0.9986268530E+00   0.4672360817E-04   0.9389235595E-05  -0.9389235590E-05   0.1407116539E-01   0.1363757809E-02  -0.1363757808E-02   0.2081931811E+00  -0.1648842516E-01  -0.1648842516E-01   0.1749417965E-01  -0.1749417966E-01  -0.7430549462E-06   0.7175350341E-03   0.2370365964E+00
   0.2020000000E+01   0.1485819801E-02   0.9985141802E+00   0.1000000000E-03   0.9066361895E-05  -0.9066361897E-05   0.1990000000E-01   0.1476753439E-02  -0.1476753439E-02   0.5107869447E+00  -0.8000698507E-01  -0.8000698507E-01   0.3504368036E-01  -0.3504368037E-01  -0.1493106147E-05   0.1415822739E-02   0.6098567859E+00
   0.2020000000E+01   0.9985141802E+00   0.9985141802E+00   0.1000000000E-03  -0.9066361901E-05  -0.9066361901E-05   0.1990000000E-01  -0.1476753439E-02  -0.1476753439E-02   0.5107869447E+00  -0.8000698506E-01  -0.8000698506E-01  -0.3504368037E-01  -0.3504368037E-01   0.1493108256E-05   0.1415822739E-02   0.6098567859E+00
   0.1014117889E+01   0.9986268530E+00   0.9986268530E+00   0.4672360817E-04  -0.9389235591E-05  -0.9389235591E-05   0.1407116539E-01  -0.1363757808E-02  -0.1363757808E-02   0.2081931811E+00  -0.1648842516E-01  -0.1648842516E-01  -0.1749417966E-01  -0.1749417966E-01   0.7430562441E-06   0.7175350341E-03   0.2370365964E+00
     1     2     3     4     5     6     7     8
