 VARIABLES = X,Y,Z,DU1,DU2,DU3,U1,U2,U3,S11,S22,S33,S12,S13,S23,Vf,SMISES
 ZONE, T="0.1000D-01" F=FEPOINT, I=   12 J=    2 ET=BRICK
   0.0000000000E+00   0.0000000000E+00   0.0000000000E+00   0.0000000000E+00   0.0000000000E+00   0.0000000000E+00   0.0000000000E+00   0.0000000000E+00   0.0000000000E+00   0.0000000000E+00   0.0000000000E+00   0.0000000000E+00   0.0000000000E+00   0.0000000000E+00   0.0000000000E+00   0.0000000000E+00   0.0000000000E+00
   0.1000000000E+01   0.0000000000E+00   0.0000000000E+00   0.0000000000E+00   0.0000000000E+00   0.0000000000E+00   0.0000000000E+00   0.0000000000E+00   0.0000000000E+00   0.0000000000E+00   0.0000000000E+00   0.0000000000E+00   0.0000000000E+00   0.0000000000E+00   0.0000000000E+00   0.0000000000E+00   0.0000000000E+00
   0.1000000000E+01   0.1000000000E+01   0.0000000000E+00   0.0000000000E+00   0.0000000000E+00   0.0000000000E+00   0.0000000000E+00   0.0000000000E+00   0.0000000000E+00   0.0000000000E+00   0.0000000000E+00   0.0000000000E+00   0.0000000000E+00   0.0000000000E+00   0.0000000000E+00   0.0000000000E+00   0.0000000000E+00
   0.0000000000E+00   0.1000000000E+01   0.0000000000E+00   0.0000000000E+00   0.0000000000E+00   0.0000000000E+00   0.0000000000E+00   0.0000000000E+00   0.0000000000E+00   0.0000000000E+00   0.0000000000E+00   0.0000000000E+00   0.0000000000E+00   0.0000000000E+00   0.0000000000E+00   0.0000000000E+00   0.0000000000E+00
   0.0000000000E+00   0.0000000000E+00   0.1000000000E+01   0.0000000000E+00   0.0000000000E+00   0.0000000000E+00   0.0000000000E+00   0.0000000000E+00   0.0000000000E+00   0.0000000000E+00   0.0000000000E+00   0.0000000000E+00   0.0000000000E+00   0.0000000000E+00   0.0000000000E+00   0.0000000000E+00   0.0000000000E+00
   0.1000000000E+01   0.0000000000E+00   0.1000000000E+01   0.0000000000E+00   0.0000000000E+00   0.0000000000E+00   0.0000000000E+00   0.0000000000E+00   0.0000000000E+00   0.0000000000E+00   0.0000000000E+00   0.0000000000E+00   0.0000000000E+00   0.0000000000E+00   0.0000000000E+00   0.0000000000E+00   0.0000000000E+00
   0.1000000000E+01   0.1000000000E+01   0.1000000000E+01   0.0000000000E+00   0.0000000000E+00   0.0000000000E+00   0.0000000000E+00   0.0000000000E+00   0.0000000000E+00   0.0000000000E+00   0.0000000000E+00   0.0000000000E+00   0.0000000000E+00   0.0000000000E+00   0.0000000000E+00   0.0000000000E+00   0.0000000000E+00
   0.0000000000E+00   0.1000000000E+01   0.1000000000E+01   0.0000000000E+00   0.0000000000E+00   0.0000000000E+00   0.0000000000E+00   0.0000000000E+00   0.0000000000E+00   0.0000000000E+00   0.0000000000E+00   0.0000000000E+00   0.0000000000E+00   0.0000000000E+00   0.0000000000E+00   0.0000000000E+00   0.0000000000E+00
   0.2000100000E+01   0.0000000000E+00   0.0000000000E+00   0.1000000000E-03   0.0000000000E+00   0.0000000000E+00   0.0000000000E+00   0.0000000000E+00   0.0000000000E+00   0.0000000000E+00   0.0000000000E+00   0.0000000000E+00   0.0000000000E+00   0.0000000000E+00   0.0000000000E+00   0.0000000000E+00   0.0000000000E+00
   0.2000100000E+01   0.1000000000E+01   0.0000000000E+00   0.1000000000E-03   0.0000000000E+00   0.0000000000E+00   0.0000000000E+00   0.0000000000E+00   0.0000000000E+00   0.0000000000E+00   0.0000000000E+00   0.0000000000E+00   0.0000000000E+00   0.0000000000E+00   0.0000000000E+00   0.0000000000E+00   0.0000000000E+00
   0.2000100000E+01   0.0000000000E+00   0.1000000000E+01   0.1000000000E-03   0.0000000000E+00   0.0000000000E+00   0.0000000000E+00   0.0000000000E+00   0.0000000000E+00   0.0000000000E+00   0.0000000000E+00   0.0000000000E+00   0.0000000000E+00   0.0000000000E+00   0.0000000000E+00   0.0000000000E+00   0.0000000000E+00
   0.2000100000E+01   0.1000000000E+01   0.1000000000E+01   0.1000000000E-03   0.0000000000E+00   0.0000000000E+00   0.0000000000E+00   0.0000000000E+00   0.0000000000E+00   0.0000000000E+00   0.0000000000E+00   0.0000000000E+00   0.0000000000E+00   0.0000000000E+00   0.0000000000E+00   0.0000000000E+00   0.0000000000E+00
     1     2     3     4     5     6     7     8
     2     9    10     3     6    11    12     7
 VARIABLES = X,Y,Z,DU1,DU2,DU3,U1,U2,U3,S11,S22,S33,S12,S13,S23,Vf,SMISES
 ZONE, T="0.2000D-01" F=FEPOINT, I=   12 J=    2 ET=BRICK
   0.0000000000E+00   0.0000000000E+00   0.0000000000E+00   0.0000000000E+00   0.0000000000E+00   0.0000000000E+00   0.0000000000E+00   0.0000000000E+00   0.0000000000E+00   0.0000000000E+00   0.0000000000E+00   0.0000000000E+00   0.0000000000E+00   0.0000000000E+00   0.0000000000E+00   0.0000000000E+00   0.0000000000E+00
   0.1000002222E+01   0.1094593658E-05   0.1094593658E-05   0.2222245708E-05   0.1094593658E-05   0.1094593658E-05   0.0000000000E+00   0.0000000000E+00   0.0000000000E+00   0.7407856067E-01   0.3648645525E-01   0.3648645525E-01  -0.1941048611E-18  -0.9507566601E-19   0.0000000000E+00   0.0000000000E+00   0.3759210541E-01
   0.1000002222E+01   0.9999989054E+00   0.1094593658E-05   0.2222245708E-05  -0.1094593658E-05   0.1094593658E-05   0.0000000000E+00   0.0000000000E+00   0.0000000000E+00   0.7407856066E-01   0.3648645525E-01   0.3648645525E-01  -0.1941048611E-18  -0.1917035160E-18   0.0000000000E+00   0.0000000000E+00   0.3759210541E-01
   0.0000000000E+00   0.1000000000E+01   0.0000000000E+00   0.0000000000E+00   0.0000000000E+00   0.0000000000E+00   0.0000000000E+00   0.0000000000E+00   0.0000000000E+00   0.0000000000E+00   0.0000000000E+00   0.0000000000E+00   0.0000000000E+00   0.0000000000E+00   0.0000000000E+00   0.0000000000E+00   0.0000000000E+00
   0.0000000000E+00   0.0000000000E+00   0.1000000000E+01   0.0000000000E+00   0.0000000000E+00   0.0000000000E+00   0.0000000000E+00   0.0000000000E+00   0.0000000000E+00   0.0000000000E+00   0.0000000000E+00   0.0000000000E+00   0.0000000000E+00   0.0000000000E+00   0.0000000000E+00   0.0000000000E+00   0.0000000000E+00
   0.1000002222E+01   0.1094593658E-05   0.9999989054E+00   0.2222245708E-05   0.1094593658E-05  -0.1094593658E-05   0.0000000000E+00   0.0000000000E+00   0.0000000000E+00   0.7407856066E-01   0.3648645525E-01   0.3648645525E-01  -0.2182383097E-18  -0.9507566601E-19   0.0000000000E+00   0.0000000000E+00   0.3759210541E-01
   0.1000002222E+01   0.9999989054E+00   0.9999989054E+00   0.2222245707E-05  -0.1094593658E-05  -0.1094593658E-05   0.0000000000E+00   0.0000000000E+00   0.0000000000E+00   0.7407856066E-01   0.3648645525E-01   0.3648645525E-01  -0.2182383096E-18  -0.1917035160E-18   0.0000000000E+00   0.0000000000E+00   0.3759210541E-01
   0.0000000000E+00   0.1000000000E+01   0.1000000000E+01   0.0000000000E+00   0.0000000000E+00   0.0000000000E+00   0.0000000000E+00   0.0000000000E+00   0.0000000000E+00   0.0000000000E+00   0.0000000000E+00   0.0000000000E+00   0.0000000000E+00   0.0000000000E+00   0.0000000000E+00   0.0000000000E+00   0.0000000000E+00
   0.2000200000E+01   0.2189187315E-05   0.2189187315E-05   0.1000000000E-03   0.2189187315E-05   0.2189187315E-05   0.1000000000E-03   0.0000000000E+00   0.0000000000E+00   0.1481571213E+00   0.7297291050E-01   0.7297291050E-01  -0.4364766193E-18  -0.3834070320E-18   0.0000000000E+00   0.0000000000E+00   0.7518421082E-01
   0.2000200000E+01   0.9999978108E+00   0.2189187315E-05   0.1000000000E-03  -0.2189187315E-05   0.2189187315E-05   0.1000000000E-03   0.0000000000E+00   0.0000000000E+00   0.1481571213E+00   0.7297291050E-01   0.7297291050E-01  -0.4364766193E-18  -0.6357441052E-18   0.0000000000E+00   0.0000000000E+00   0.7518421082E-01
   0.2000200000E+01   0.2189187315E-05   0.9999978108E+00   0.1000000000E-03   0.2189187315E-05  -0.2189187315E-05   0.1000000000E-03   0.0000000000E+00   0.0000000000E+00   0.1481571213E+00   0.7297291050E-01   0.7297291050E-01  -0.6499640588E-18  -0.3834070319E-18   0.0000000000E+00   0.0000000000E+00   0.7518421082E-01
   0.2000200000E+01   0.9999978108E+00   0.9999978108E+00   0.1000000000E-03  -0.2189187315E-05  -0.2189187315E-05   0.1000000000E-03   0.0000000000E+00   0.0000000000E+00   0.1481571213E+00   0.7297291050E-01   0.7297291050E-01  -0.6499640587E-18  -0.6357441052E-18   0.0000000000E+00   0.0000000000E+00   0.7518421082E-01
     1     2     3     4     5     6     7     8
     2     9    10     3     6    11    12     7
 VARIABLES = X,Y,Z,DU1,DU2,DU3,U1,U2,U3,S11,S22,S33,S12,S13,S23,Vf,SMISES
 ZONE, T="0.3000D-01" F=FEPOINT, I=   12 J=    2 ET=BRICK
   0.0000000000E+00  -0.1710807829E-07  -0.1710807829E-07   0.0000000000E+00  -0.1710807829E-07  -0.1710807829E-07   0.0000000000E+00   0.0000000000E+00   0.0000000000E+00   0.1512092579E-02  -0.7074358122E-03  -0.7074358122E-03   0.1371670179E-03   0.1371670179E-03  -0.3541650617E-14   0.0000000000E+00   0.2296302983E-02
   0.1000008001E+01   0.3868173095E-05   0.3868173095E-05   0.5778649588E-05   0.2773579437E-05   0.2773579437E-05   0.2222245708E-05   0.1094593658E-05   0.1094593658E-05   0.1449548489E+00   0.6812822391E-01   0.6812822391E-01   0.1371638414E-03   0.1371638414E-03  -0.9374220171E-14   0.0000000000E+00   0.7685815081E-01
   0.1000008001E+01   0.9999961318E+00   0.3868173095E-05   0.5778649587E-05  -0.2773579437E-05   0.2773579437E-05   0.2222245708E-05  -0.1094593658E-05   0.1094593658E-05   0.1449548489E+00   0.6812822391E-01   0.6812822391E-01  -0.1371638414E-03   0.1371638414E-03  -0.1250761373E-14   0.0000000000E+00   0.7685815080E-01
   0.0000000000E+00   0.1000000017E+01  -0.1710807829E-07   0.0000000000E+00   0.1710807829E-07  -0.1710807829E-07   0.0000000000E+00   0.0000000000E+00   0.0000000000E+00   0.1512092579E-02  -0.7074358121E-03  -0.7074358121E-03  -0.1371670179E-03   0.1371670179E-03  -0.1336770256E-20   0.0000000000E+00   0.2296302983E-02
   0.0000000000E+00  -0.1710807829E-07   0.1000000017E+01   0.0000000000E+00  -0.1710807829E-07   0.1710807829E-07   0.0000000000E+00   0.0000000000E+00   0.0000000000E+00   0.1512092579E-02  -0.7074358121E-03  -0.7074358121E-03   0.1371670179E-03  -0.1371670179E-03  -0.2359161530E-19   0.0000000000E+00   0.2296302983E-02
   0.1000008001E+01   0.3868173095E-05   0.9999961318E+00   0.5778649587E-05   0.2773579437E-05  -0.2773579437E-05   0.2222245708E-05   0.1094593658E-05  -0.1094593658E-05   0.1449548489E+00   0.6812822391E-01   0.6812822391E-01   0.1371638414E-03  -0.1371638414E-03  -0.1250847129E-14   0.0000000000E+00   0.7685815080E-01
   0.1000008001E+01   0.9999961318E+00   0.9999961318E+00   0.5778649587E-05  -0.2773579437E-05  -0.2773579437E-05   0.2222245707E-05  -0.1094593658E-05  -0.1094593658E-05   0.1449548489E+00   0.6812822391E-01   0.6812822391E-01  -0.1371638414E-03  -0.1371638414E-03   0.1187562797E-13   0.0000000000E+00   0.7685815080E-01
   0.0000000000E+00   0.1000000017E+01   0.1000000017E+01   0.0000000000E+00   0.1710807829E-07   0.1710807829E-07   0.0000000000E+00   0.0000000000E+00   0.0000000000E+00   0.1512092579E-02  -0.7074358121E-03  -0.7074358121E-03  -0.1371670179E-03  -0.1371670179E-03   0.3541625688E-14   0.0000000000E+00   0.2296302982E-02
   0.2000300000E+01   0.7753453257E-05   0.7753453257E-05   0.1000000000E-03   0.5564265941E-05   0.5564265941E-05   0.2000000000E-03   0.2189187315E-05   0.2189187315E-05   0.2883976060E+00   0.1369638832E+00   0.1369638832E+00   0.1371606649E-03   0.1371606649E-03  -0.1520688568E-13   0.0000000000E+00   0.1514348409E+00
   0.2000300000E+01   0.9999922465E+00   0.7753453256E-05   0.1000000000E-03  -0.5564265941E-05   0.5564265941E-05   0.2000000000E-03  -0.2189187315E-05   0.2189187315E-05   0.2883976060E+00   0.1369638832E+00   0.1369638832E+00  -0.1371606649E-03   0.1371606649E-03  -0.2501546440E-14   0.0000000000E+00   0.1514348409E+00
   0.2000300000E+01   0.7753453256E-05   0.9999922465E+00   0.1000000000E-03   0.5564265941E-05  -0.5564265941E-05   0.2000000000E-03   0.2189187315E-05  -0.2189187315E-05   0.2883976060E+00   0.1369638832E+00   0.1369638832E+00   0.1371606649E-03  -0.1371606649E-03  -0.2501740477E-14   0.0000000000E+00   0.1514348409E+00
   0.2000300000E+01   0.9999922465E+00   0.9999922465E+00   0.1000000000E-03  -0.5564265941E-05  -0.5564265941E-05   0.2000000000E-03  -0.2189187315E-05  -0.2189187315E-05   0.2883976060E+00   0.1369638832E+00   0.1369638832E+00  -0.1371606649E-03  -0.1371606649E-03   0.2020963866E-13   0.0000000000E+00   0.1514348409E+00
     1     2     3     4     5     6     7     8
     2     9    10     3     6    11    12     7
 VARIABLES = X,Y,Z,DU1,DU2,DU3,U1,U2,U3,S11,S22,S33,S12,S13,S23,Vf,SMISES
 ZONE, T="0.4000D-01" F=FEPOINT, I=   12 J=    2 ET=BRICK
   0.0000000000E+00  -0.8449610628E-07  -0.8449610628E-07   0.0000000000E+00  -0.6738802799E-07  -0.6738802799E-07   0.0000000000E+00  -0.1710807829E-07  -0.1710807829E-07   0.5584514283E-02  -0.2352957941E-02  -0.2352957941E-02   0.4868770355E-03   0.4868770355E-03   0.1275845184E-09   0.0000000000E+00   0.8207939499E-02
   0.1000018486E+01   0.8730720793E-05   0.8730720793E-05   0.1048544020E-04   0.4862547698E-05   0.4862547698E-05   0.8000895295E-05   0.3868173095E-05   0.3868173095E-05   0.2109237040E+00   0.9234095840E-01   0.9234095840E-01   0.4868677330E-03   0.4868677330E-03   0.1275589670E-09   0.0000000000E+00   0.1186966724E+00
   0.1000018486E+01   0.9999912693E+00   0.8730720793E-05   0.1048544020E-04  -0.4862547698E-05   0.4862547698E-05   0.8000895295E-05  -0.3868173095E-05   0.3868173095E-05   0.2109237040E+00   0.9234095839E-01   0.9234095839E-01  -0.4868677331E-03   0.4868677330E-03  -0.1275963283E-09   0.0000000000E+00   0.1186966724E+00
   0.0000000000E+00   0.1000000084E+01  -0.8449610628E-07   0.0000000000E+00   0.6738802799E-07  -0.6738802799E-07   0.0000000000E+00   0.1710807829E-07  -0.1710807829E-07   0.5584514283E-02  -0.2352957941E-02  -0.2352957941E-02  -0.4868770355E-03   0.4868770354E-03  -0.1275967927E-09   0.0000000000E+00   0.8207939499E-02
   0.0000000000E+00  -0.8449610628E-07   0.1000000084E+01   0.0000000000E+00  -0.6738802799E-07   0.6738802799E-07   0.0000000000E+00  -0.1710807829E-07   0.1710807829E-07   0.5584514283E-02  -0.2352957941E-02  -0.2352957941E-02   0.4868770354E-03  -0.4868770355E-03  -0.1275967928E-09   0.0000000000E+00   0.8207939499E-02
   0.1000018486E+01   0.8730720793E-05   0.9999912693E+00   0.1048544020E-04   0.4862547698E-05  -0.4862547698E-05   0.8000895295E-05   0.3868173095E-05  -0.3868173095E-05   0.2109237040E+00   0.9234095839E-01   0.9234095839E-01   0.4868677330E-03  -0.4868677331E-03  -0.1275963284E-09   0.0000000000E+00   0.1186966724E+00
   0.1000018486E+01   0.9999912693E+00   0.9999912693E+00   0.1048544020E-04  -0.4862547698E-05  -0.4862547698E-05   0.8000895295E-05  -0.3868173095E-05  -0.3868173095E-05   0.2109237040E+00   0.9234095839E-01   0.9234095839E-01  -0.4868677331E-03  -0.4868677331E-03   0.1276336892E-09   0.0000000000E+00   0.1186966724E+00
   0.0000000000E+00   0.1000000084E+01   0.1000000084E+01   0.0000000000E+00   0.6738802798E-07   0.6738802798E-07   0.0000000000E+00   0.1710807829E-07   0.1710807829E-07   0.5584514283E-02  -0.2352957941E-02  -0.2352957941E-02  -0.4868770354E-03  -0.4868770354E-03   0.1276090671E-09   0.0000000000E+00   0.8207939498E-02
   0.2000400000E+01   0.1754592719E-04   0.1754592719E-04   0.1000000000E-03   0.9792473932E-05   0.9792473932E-05   0.3000000000E-03   0.7753453257E-05   0.7753453257E-05   0.4162629035E+00   0.1870348699E+00   0.1870348699E+00   0.4868584305E-03   0.4868584305E-03   0.1275334151E-09   0.0000000000E+00   0.2292373402E+00
   0.2000400000E+01   0.9999824541E+00   0.1754592719E-04   0.1000000000E-03  -0.9792473932E-05   0.9792473932E-05   0.3000000000E-03  -0.7753453256E-05   0.7753453256E-05   0.4162629035E+00   0.1870348698E+00   0.1870348698E+00  -0.4868584305E-03   0.4868584305E-03  -0.1275958639E-09   0.0000000000E+00   0.2292373401E+00
   0.2000400000E+01   0.1754592719E-04   0.9999824541E+00   0.1000000000E-03   0.9792473932E-05  -0.9792473932E-05   0.3000000000E-03   0.7753453256E-05  -0.7753453256E-05   0.4162629035E+00   0.1870348698E+00   0.1870348698E+00   0.4868584305E-03  -0.4868584305E-03  -0.1275958642E-09   0.0000000000E+00   0.2292373401E+00
   0.2000400000E+01   0.9999824541E+00   0.9999824541E+00   0.1000000000E-03  -0.9792473932E-05  -0.9792473932E-05   0.3000000000E-03  -0.7753453256E-05  -0.7753453256E-05   0.4162629035E+00   0.1870348698E+00   0.1870348698E+00  -0.4868584305E-03  -0.4868584305E-03   0.1276583116E-09   0.0000000000E+00   0.2292373401E+00
     1     2     3     4     5     6     7     8
     2     9    10     3     6    11    12     7
 VARIABLES = X,Y,Z,DU1,DU2,DU3,U1,U2,U3,S11,S22,S33,S12,S13,S23,Vf,SMISES
 ZONE, T="0.5000D-01" F=FEPOINT, I=   12 J=    2 ET=BRICK
   0.0000000000E+00  -0.2468863703E-06  -0.2468863703E-06   0.0000000000E+00  -0.1623902640E-06  -0.1623902640E-06   0.0000000000E+00  -0.8449610628E-07  -0.8449610628E-07   0.1329757829E-01  -0.4893397380E-02  -0.4893397380E-02   0.1104664294E-02   0.1104664294E-02   0.9276585813E-09   0.0000000000E+00   0.1879846034E-01
   0.1000034603E+01   0.1588927167E-04   0.1588927167E-04   0.1611695509E-04   0.7158550875E-05   0.7158550875E-05   0.1848633550E-04   0.8730720793E-05   0.8730720793E-05   0.2707892551E+00   0.1073117053E+00   0.1073117053E+00   0.1104650613E-02   0.1104650613E-02   0.9275373548E-09   0.0000000000E+00   0.1637413840E+00
   0.1000034603E+01   0.9999841107E+00   0.1588927167E-04   0.1611695509E-04  -0.7158550875E-05   0.7158550875E-05   0.1848633550E-04  -0.8730720793E-05   0.8730720793E-05   0.2707892551E+00   0.1073117053E+00   0.1073117053E+00  -0.1104650613E-02   0.1104650613E-02  -0.9276211362E-09   0.0000000000E+00   0.1637413840E+00
   0.0000000000E+00   0.1000000247E+01  -0.2468863703E-06   0.0000000000E+00   0.1623902640E-06  -0.1623902640E-06   0.0000000000E+00   0.8449610628E-07  -0.8449610628E-07   0.1329757829E-01  -0.4893397380E-02  -0.4893397380E-02  -0.1104664294E-02   0.1104664294E-02  -0.9276856053E-09   0.0000000000E+00   0.1879846033E-01
   0.0000000000E+00  -0.2468863703E-06   0.1000000247E+01   0.0000000000E+00  -0.1623902640E-06   0.1623902640E-06   0.0000000000E+00  -0.8449610628E-07   0.8449610628E-07   0.1329757829E-01  -0.4893397380E-02  -0.4893397380E-02   0.1104664294E-02  -0.1104664294E-02  -0.9276856053E-09   0.0000000000E+00   0.1879846033E-01
   0.1000034603E+01   0.1588927167E-04   0.9999841107E+00   0.1611695509E-04   0.7158550875E-05  -0.7158550875E-05   0.1848633550E-04   0.8730720793E-05  -0.8730720793E-05   0.2707892551E+00   0.1073117053E+00   0.1073117053E+00   0.1104650613E-02  -0.1104650613E-02  -0.9276211364E-09   0.0000000000E+00   0.1637413840E+00
   0.1000034603E+01   0.9999841107E+00   0.9999841107E+00   0.1611695509E-04  -0.7158550874E-05  -0.7158550874E-05   0.1848633550E-04  -0.8730720793E-05  -0.8730720793E-05   0.2707892551E+00   0.1073117053E+00   0.1073117053E+00  -0.1104650613E-02  -0.1104650613E-02   0.9277049181E-09   0.0000000000E+00   0.1637413839E+00
   0.0000000000E+00   0.1000000247E+01   0.1000000247E+01   0.0000000000E+00   0.1623902640E-06   0.1623902640E-06   0.0000000000E+00   0.8449610627E-07   0.8449610627E-07   0.1329757829E-01  -0.4893397379E-02  -0.4893397379E-02  -0.1104664294E-02  -0.1104664294E-02   0.9277126297E-09   0.0000000000E+00   0.1879846033E-01
   0.2000500000E+01   0.3202538183E-04   0.3202538183E-04   0.1000000000E-03   0.1447945464E-04   0.1447945464E-04   0.4000000000E-03   0.1754592719E-04   0.1754592719E-04   0.5282809803E+00   0.2195167839E+00   0.2195167839E+00   0.1104636931E-02   0.1104636931E-02   0.9274161251E-09   0.0000000000E+00   0.3087997657E+00
   0.2000500000E+01   0.9999679746E+00   0.3202538182E-04   0.1000000000E-03  -0.1447945464E-04   0.1447945464E-04   0.4000000000E-03  -0.1754592719E-04   0.1754592719E-04   0.5282809803E+00   0.2195167838E+00   0.2195167838E+00  -0.1104636931E-02   0.1104636931E-02  -0.9275566662E-09   0.0000000000E+00   0.3087997657E+00
   0.2000500000E+01   0.3202538182E-04   0.9999679746E+00   0.1000000000E-03   0.1447945464E-04  -0.1447945464E-04   0.4000000000E-03   0.1754592719E-04  -0.1754592719E-04   0.5282809803E+00   0.2195167838E+00   0.2195167838E+00   0.1104636931E-02  -0.1104636931E-02  -0.9275566668E-09   0.0000000000E+00   0.3087997657E+00
   0.2000500000E+01   0.9999679746E+00   0.9999679746E+00   0.1000000000E-03  -0.1447945464E-04  -0.1447945464E-04   0.4000000000E-03  -0.1754592719E-04  -0.1754592719E-04   0.5282809803E+00   0.2195167838E+00   0.2195167838E+00  -0.1104636931E-02  -0.1104636931E-02   0.9276972059E-09   0.0000000000E+00   0.3087997657E+00
     1     2     3     4     5     6     7     8
     2     9    10     3     6    11    12     7
 VARIABLES = X,Y,Z,DU1,DU2,DU3,U1,U2,U3,S11,S22,S33,S12,S13,S23,Vf,SMISES
 ZONE, T="0.6000D-01" F=FEPOINT, I=   12 J=    2 ET=BRICK
   0.0000000000E+00  -0.5504901001E-06  -0.5504901001E-06   0.0000000000E+00  -0.3036037298E-06  -0.3036037298E-06   0.0000000000E+00  -0.2468863703E-06  -0.2468863703E-06   0.2574213097E-01  -0.7992001625E-02  -0.7992001625E-02   0.2022080399E-02   0.2022080399E-02   0.3623341680E-08   0.0000000000E+00   0.3483167635E-01
   0.1000057022E+01   0.2533857746E-04   0.2533857746E-04   0.2241902584E-04   0.9449305795E-05   0.9449305795E-05   0.3460329059E-04   0.1588927167E-04   0.1588927167E-04   0.3239480538E+00   0.1121250125E+00   0.1121250125E+00   0.2022074847E-02   0.2022074847E-02   0.3622859636E-08   0.0000000000E+00   0.2123163447E+00
   0.1000057022E+01   0.9999746614E+00   0.2533857746E-04   0.2241902584E-04  -0.9449305795E-05   0.9449305795E-05   0.3460329059E-04  -0.1588927167E-04   0.1588927167E-04   0.3239480537E+00   0.1121250125E+00   0.1121250125E+00  -0.2022074847E-02   0.2022074847E-02  -0.3623010875E-08   0.0000000000E+00   0.2123163447E+00
   0.0000000000E+00   0.1000000550E+01  -0.5504901001E-06   0.0000000000E+00   0.3036037298E-06  -0.3036037298E-06   0.0000000000E+00   0.2468863703E-06  -0.2468863703E-06   0.2574213097E-01  -0.7992001625E-02  -0.7992001625E-02  -0.2022080399E-02   0.2022080399E-02  -0.3623389388E-08   0.0000000000E+00   0.3483167635E-01
   0.0000000000E+00  -0.5504901001E-06   0.1000000550E+01   0.0000000000E+00  -0.3036037298E-06   0.3036037298E-06   0.0000000000E+00  -0.2468863703E-06   0.2468863703E-06   0.2574213097E-01  -0.7992001625E-02  -0.7992001625E-02   0.2022080399E-02  -0.2022080399E-02  -0.3623389388E-08   0.0000000000E+00   0.3483167635E-01
   0.1000057022E+01   0.2533857746E-04   0.9999746614E+00   0.2241902584E-04   0.9449305795E-05  -0.9449305795E-05   0.3460329059E-04   0.1588927167E-04  -0.1588927167E-04   0.3239480537E+00   0.1121250125E+00   0.1121250125E+00   0.2022074847E-02  -0.2022074847E-02  -0.3623010875E-08   0.0000000000E+00   0.2123163447E+00
   0.1000057022E+01   0.9999746614E+00   0.9999746614E+00   0.2241902584E-04  -0.9449305795E-05  -0.9449305795E-05   0.3460329058E-04  -0.1588927167E-04  -0.1588927167E-04   0.3239480537E+00   0.1121250125E+00   0.1121250125E+00  -0.2022074847E-02  -0.2022074847E-02   0.3623162113E-08   0.0000000000E+00   0.2123163447E+00
   0.0000000000E+00   0.1000000550E+01   0.1000000550E+01   0.0000000000E+00   0.3036037298E-06   0.3036037298E-06   0.0000000000E+00   0.2468863703E-06   0.2468863703E-06   0.2574213096E-01  -0.7992001624E-02  -0.7992001624E-02  -0.2022080399E-02  -0.2022080399E-02   0.3623437097E-08   0.0000000000E+00   0.3483167635E-01
   0.2000600000E+01   0.5122749702E-04   0.5122749702E-04   0.1000000000E-03   0.1920211519E-04   0.1920211519E-04   0.5000000000E-03   0.3202538183E-04   0.3202538183E-04   0.6221541346E+00   0.2322419475E+00   0.2322419475E+00   0.2022069293E-02   0.2022069293E-02   0.3622377573E-08   0.0000000000E+00   0.3900065737E+00
   0.2000600000E+01   0.9999487725E+00   0.5122749701E-04   0.1000000000E-03  -0.1920211519E-04   0.1920211519E-04   0.5000000000E-03  -0.3202538182E-04   0.3202538182E-04   0.6221541345E+00   0.2322419475E+00   0.2322419475E+00  -0.2022069293E-02   0.2022069293E-02  -0.3622632348E-08   0.0000000000E+00   0.3900065737E+00
   0.2000600000E+01   0.5122749701E-04   0.9999487725E+00   0.1000000000E-03   0.1920211519E-04  -0.1920211519E-04   0.5000000000E-03   0.3202538182E-04  -0.3202538182E-04   0.6221541345E+00   0.2322419475E+00   0.2322419475E+00   0.2022069293E-02  -0.2022069293E-02  -0.3622632349E-08   0.0000000000E+00   0.3900065737E+00
   0.2000600000E+01   0.9999487725E+00   0.9999487725E+00   0.1000000000E-03  -0.1920211519E-04  -0.1920211519E-04   0.5000000000E-03  -0.3202538182E-04  -0.3202538182E-04   0.6221541345E+00   0.2322419475E+00   0.2322419475E+00  -0.2022069293E-02  -0.2022069293E-02   0.3622887119E-08   0.0000000000E+00   0.3900065736E+00
     1     2     3     4     5     6     7     8
     2     9    10     3     6    11    12     7
 VARIABLES = X,Y,Z,DU1,DU2,DU3,U1,U2,U3,S11,S22,S33,S12,S13,S23,Vf,SMISES
 ZONE, T="0.7000D-01" F=FEPOINT, I=   12 J=    2 ET=BRICK
   0.0000000000E+00  -0.1028348009E-05  -0.1028348009E-05   0.0000000000E+00  -0.4778579091E-06  -0.4778579091E-06   0.0000000000E+00  -0.5504901001E-06  -0.5504901001E-06   0.4397945109E-01  -0.1104248295E-01  -0.1104248295E-01   0.3244263836E-02   0.3244263836E-02   0.1019690964E-07   0.0000000000E+00   0.5675392220E-01
   0.1000086146E+01   0.3687094682E-04   0.3687094682E-04   0.2912336534E-04   0.1153236936E-04   0.1153236936E-04   0.5702231643E-04   0.2533857746E-04   0.2533857746E-04   0.3704161870E+00   0.1068041576E+00   0.1068041576E+00   0.3244295627E-02   0.3244295627E-02   0.1019546237E-07   0.0000000000E+00   0.2644196601E+00
   0.1000086146E+01   0.9999631291E+00   0.3687094682E-04   0.2912336534E-04  -0.1153236936E-04   0.1153236936E-04   0.5702231642E-04  -0.2533857746E-04   0.2533857746E-04   0.3704161870E+00   0.1068041576E+00   0.1068041576E+00  -0.3244295628E-02   0.3244295627E-02  -0.1019570114E-07   0.0000000000E+00   0.2644196601E+00
   0.0000000000E+00   0.1000001028E+01  -0.1028348009E-05   0.0000000000E+00   0.4778579090E-06  -0.4778579090E-06   0.0000000000E+00   0.5504901001E-06  -0.5504901001E-06   0.4397945109E-01  -0.1104248295E-01  -0.1104248295E-01  -0.3244263836E-02   0.3244263836E-02  -0.1019698301E-07   0.0000000000E+00   0.5675392219E-01
   0.0000000000E+00  -0.1028348009E-05   0.1000001028E+01   0.0000000000E+00  -0.4778579090E-06   0.4778579090E-06   0.0000000000E+00  -0.5504901001E-06   0.5504901001E-06   0.4397945109E-01  -0.1104248295E-01  -0.1104248295E-01   0.3244263836E-02  -0.3244263836E-02  -0.1019698301E-07   0.0000000000E+00   0.5675392219E-01
   0.1000086146E+01   0.3687094682E-04   0.9999631291E+00   0.2912336534E-04   0.1153236936E-04  -0.1153236936E-04   0.5702231642E-04   0.2533857746E-04  -0.2533857746E-04   0.3704161870E+00   0.1068041576E+00   0.1068041576E+00   0.3244295627E-02  -0.3244295628E-02  -0.1019570114E-07   0.0000000000E+00   0.2644196601E+00
   0.1000086146E+01   0.9999631291E+00   0.9999631291E+00   0.2912336534E-04  -0.1153236936E-04  -0.1153236936E-04   0.5702231642E-04  -0.2533857746E-04  -0.2533857746E-04   0.3704161870E+00   0.1068041576E+00   0.1068041576E+00  -0.3244295628E-02  -0.3244295628E-02   0.1019593991E-07   0.0000000000E+00   0.2644196601E+00
   0.0000000000E+00   0.1000001028E+01   0.1000001028E+01   0.0000000000E+00   0.4778579090E-06   0.4778579090E-06   0.0000000000E+00   0.5504901001E-06   0.5504901001E-06   0.4397945108E-01  -0.1104248295E-01  -0.1104248295E-01  -0.3244263836E-02  -0.3244263836E-02   0.1019705638E-07   0.0000000000E+00   0.5675392219E-01
   0.2000700000E+01   0.7476988055E-04   0.7476988055E-04   0.1000000000E-03   0.2354238353E-04   0.2354238353E-04   0.6000000000E-03   0.5122749702E-04   0.5122749702E-04   0.6968533214E+00   0.2246505989E+00   0.2246505989E+00   0.3244327413E-02   0.3244327413E-02   0.1019401501E-07   0.0000000000E+00   0.4724033726E+00
   0.2000700000E+01   0.9999252301E+00   0.7476988054E-04   0.1000000000E-03  -0.2354238353E-04   0.2354238353E-04   0.6000000000E-03  -0.5122749701E-04   0.5122749701E-04   0.6968533214E+00   0.2246505989E+00   0.2246505989E+00  -0.3244327413E-02   0.3244327413E-02  -0.1019441919E-07   0.0000000000E+00   0.4724033726E+00
   0.2000700000E+01   0.7476988054E-04   0.9999252301E+00   0.1000000000E-03   0.2354238353E-04  -0.2354238353E-04   0.6000000000E-03   0.5122749701E-04  -0.5122749701E-04   0.6968533214E+00   0.2246505989E+00   0.2246505989E+00   0.3244327413E-02  -0.3244327413E-02  -0.1019441919E-07   0.0000000000E+00   0.4724033726E+00
   0.2000700000E+01   0.9999252301E+00   0.9999252301E+00   0.1000000000E-03  -0.2354238353E-04  -0.2354238353E-04   0.6000000000E-03  -0.5122749701E-04  -0.5122749701E-04   0.6968533214E+00   0.2246505989E+00   0.2246505989E+00  -0.3244327413E-02  -0.3244327413E-02   0.1019482337E-07   0.0000000000E+00   0.4724033726E+00
     1     2     3     4     5     6     7     8
     2     9    10     3     6    11    12     7
 VARIABLES = X,Y,Z,DU1,DU2,DU3,U1,U2,U3,S11,S22,S33,S12,S13,S23,Vf,SMISES
 ZONE, T="0.8000D-01" F=FEPOINT, I=   12 J=    2 ET=BRICK
   0.0000000000E+00  -0.1682772076E-05  -0.1682772076E-05   0.0000000000E+00  -0.6544240669E-06  -0.6544240669E-06   0.0000000000E+00  -0.1028348009E-05  -0.1028348009E-05   0.6898536170E-01  -0.1323390448E-01  -0.1323390448E-01   0.4749335378E-02   0.4749335378E-02   0.2318452952E-07   0.0000000000E+00   0.8470287141E-01
   0.1000122108E+01   0.5010354517E-04   0.5010354517E-04   0.3596207974E-04   0.1323259835E-04   0.1323259835E-04   0.8614568177E-04   0.3687094682E-04   0.3687094682E-04   0.4108004768E+00   0.9226763983E-01   0.9226763983E-01   0.4749453947E-02   0.4749453947E-02   0.2318111650E-07   0.0000000000E+00   0.3197361686E+00
   0.1000122108E+01   0.9999498965E+00   0.5010354516E-04   0.3596207974E-04  -0.1323259835E-04   0.1323259835E-04   0.8614568177E-04  -0.3687094682E-04   0.3687094682E-04   0.4108004768E+00   0.9226763983E-01   0.9226763983E-01  -0.4749453948E-02   0.4749453946E-02  -0.2318145971E-07   0.0000000000E+00   0.3197361685E+00
   0.0000000000E+00   0.1000001683E+01  -0.1682772076E-05   0.0000000000E+00   0.6544240669E-06  -0.6544240669E-06   0.0000000000E+00   0.1028348009E-05  -0.1028348009E-05   0.6898536170E-01  -0.1323390448E-01  -0.1323390448E-01  -0.4749335378E-02   0.4749335378E-02  -0.2318463183E-07   0.0000000000E+00   0.8470287141E-01
   0.0000000000E+00  -0.1682772076E-05   0.1000001683E+01   0.0000000000E+00  -0.6544240669E-06   0.6544240669E-06   0.0000000000E+00  -0.1028348009E-05   0.1028348009E-05   0.6898536170E-01  -0.1323390448E-01  -0.1323390448E-01   0.4749335378E-02  -0.4749335378E-02  -0.2318463183E-07   0.0000000000E+00   0.8470287141E-01
   0.1000122108E+01   0.5010354516E-04   0.9999498965E+00   0.3596207974E-04   0.1323259835E-04  -0.1323259835E-04   0.8614568177E-04   0.3687094682E-04  -0.3687094682E-04   0.4108004768E+00   0.9226763983E-01   0.9226763983E-01   0.4749453946E-02  -0.4749453948E-02  -0.2318145971E-07   0.0000000000E+00   0.3197361685E+00
   0.1000122108E+01   0.9999498965E+00   0.9999498965E+00   0.3596207974E-04  -0.1323259834E-04  -0.1323259834E-04   0.8614568176E-04  -0.3687094682E-04  -0.3687094682E-04   0.4108004768E+00   0.9226763982E-01   0.9226763982E-01  -0.4749453947E-02  -0.4749453947E-02   0.2318180293E-07   0.0000000000E+00   0.3197361685E+00
   0.0000000000E+00   0.1000001683E+01   0.1000001683E+01   0.0000000000E+00   0.6544240668E-06   0.6544240668E-06   0.0000000000E+00   0.1028348009E-05   0.1028348009E-05   0.6898536169E-01  -0.1323390448E-01  -0.1323390448E-01  -0.4749335378E-02  -0.4749335378E-02   0.2318473414E-07   0.0000000000E+00   0.8470287141E-01
   0.2000800000E+01   0.1018891142E-03   0.1018891142E-03   0.1000000000E-03   0.2711923361E-04   0.2711923361E-04   0.7000000000E-03   0.7476988055E-04   0.7476988055E-04   0.7526164314E+00   0.1977687644E+00   0.1977687644E+00   0.4749572504E-02   0.4749572504E-02   0.2317770317E-07   0.0000000000E+00   0.5552136808E+00
   0.2000800000E+01   0.9998981109E+00   0.1018891141E-03   0.1000000000E-03  -0.2711923361E-04   0.2711923361E-04   0.7000000000E-03  -0.7476988054E-04   0.7476988054E-04   0.7526164313E+00   0.1977687644E+00   0.1977687644E+00  -0.4749572504E-02   0.4749572503E-02  -0.2317828732E-07   0.0000000000E+00   0.5552136808E+00
   0.2000800000E+01   0.1018891141E-03   0.9998981109E+00   0.1000000000E-03   0.2711923361E-04  -0.2711923361E-04   0.7000000000E-03   0.7476988054E-04  -0.7476988054E-04   0.7526164313E+00   0.1977687644E+00   0.1977687644E+00   0.4749572503E-02  -0.4749572504E-02  -0.2317828733E-07   0.0000000000E+00   0.5552136808E+00
   0.2000800000E+01   0.9998981109E+00   0.9998981109E+00   0.1000000000E-03  -0.2711923361E-04  -0.2711923361E-04   0.7000000000E-03  -0.7476988054E-04  -0.7476988054E-04   0.7526164313E+00   0.1977687644E+00   0.1977687644E+00  -0.4749572503E-02  -0.4749572503E-02   0.2317887147E-07   0.0000000000E+00   0.5552136808E+00
     1     2     3     4     5     6     7     8
     2     9    10     3     6    11    12     7
 VARIABLES = X,Y,Z,DU1,DU2,DU3,U1,U2,U3,S11,S22,S33,S12,S13,S23,Vf,SMISES
 ZONE, T="0.9000D-01" F=FEPOINT, I=   12 J=    2 ET=BRICK
   0.0000000000E+00  -0.2467138931E-05  -0.2467138931E-05   0.0000000000E+00  -0.7843668553E-06  -0.7843668553E-06   0.0000000000E+00  -0.1682772076E-05  -0.1682772076E-05   0.1015837319E+00  -0.1364876275E-01  -0.1364876275E-01   0.6489617454E-02   0.6489617454E-02   0.4516792337E-07   0.0000000000E+00   0.1185406189E+00
   0.1000164789E+01   0.6451997505E-04   0.6451997505E-04   0.4268145170E-04   0.1441642989E-04   0.1441642989E-04   0.1221077615E-03   0.5010354517E-04   0.5010354517E-04   0.4462187840E+00   0.7020851619E-01   0.7020851619E-01   0.6489891360E-02   0.6489891360E-02   0.4516129401E-07   0.0000000000E+00   0.3776770547E+00
   0.1000164789E+01   0.9999354800E+00   0.6451997505E-04   0.4268145170E-04  -0.1441642989E-04   0.1441642989E-04   0.1221077615E-03  -0.5010354516E-04   0.5010354516E-04   0.4462187839E+00   0.7020851619E-01   0.7020851619E-01  -0.6489891361E-02   0.6489891359E-02  -0.4516175355E-07   0.0000000000E+00   0.3776770547E+00
   0.0000000000E+00   0.1000002467E+01  -0.2467138931E-05   0.0000000000E+00   0.7843668552E-06  -0.7843668552E-06   0.0000000000E+00   0.1682772076E-05  -0.1682772076E-05   0.1015837319E+00  -0.1364876275E-01  -0.1364876275E-01  -0.6489617454E-02   0.6489617454E-02  -0.4516805570E-07   0.0000000000E+00   0.1185406189E+00
   0.0000000000E+00  -0.2467138931E-05   0.1000002467E+01   0.0000000000E+00  -0.7843668552E-06   0.7843668552E-06   0.0000000000E+00  -0.1682772076E-05   0.1682772076E-05   0.1015837319E+00  -0.1364876275E-01  -0.1364876275E-01   0.6489617454E-02  -0.6489617454E-02  -0.4516805570E-07   0.0000000000E+00   0.1185406189E+00
   0.1000164789E+01   0.6451997505E-04   0.9999354800E+00   0.4268145170E-04   0.1441642989E-04  -0.1441642989E-04   0.1221077615E-03   0.5010354516E-04  -0.5010354516E-04   0.4462187839E+00   0.7020851619E-01   0.7020851619E-01   0.6489891359E-02  -0.6489891361E-02  -0.4516175355E-07   0.0000000000E+00   0.3776770547E+00
   0.1000164789E+01   0.9999354800E+00   0.9999354800E+00   0.4268145170E-04  -0.1441642988E-04  -0.1441642988E-04   0.1221077615E-03  -0.5010354516E-04  -0.5010354516E-04   0.4462187839E+00   0.7020851619E-01   0.7020851619E-01  -0.6489891360E-02  -0.6489891360E-02   0.4516221309E-07   0.0000000000E+00   0.3776770547E+00
   0.0000000000E+00   0.1000002467E+01   0.1000002467E+01   0.0000000000E+00   0.7843668552E-06   0.7843668552E-06   0.0000000000E+00   0.1682772076E-05   0.1682772076E-05   0.1015837319E+00  -0.1364876274E-01  -0.1364876274E-01  -0.6489617454E-02  -0.6489617454E-02   0.4516818803E-07   0.0000000000E+00   0.1185406188E+00
   0.2000900000E+01   0.1315057159E-03   0.1315057159E-03   0.1000000000E-03   0.2961660178E-04   0.2961660178E-04   0.8000000000E-03   0.1018891142E-03   0.1018891142E-03   0.7908553786E+00   0.1540650238E+00   0.1540650238E+00   0.6490165246E-02   0.6490165246E-02   0.4515466382E-07   0.0000000000E+00   0.6373859204E+00
   0.2000900000E+01   0.9998684943E+00   0.1315057159E-03   0.1000000000E-03  -0.2961660178E-04   0.2961660178E-04   0.8000000000E-03  -0.1018891141E-03   0.1018891141E-03   0.7908553786E+00   0.1540650238E+00   0.1540650238E+00  -0.6490165246E-02   0.6490165245E-02  -0.4515545064E-07   0.0000000000E+00   0.6373859204E+00
   0.2000900000E+01   0.1315057159E-03   0.9998684943E+00   0.1000000000E-03   0.2961660178E-04  -0.2961660178E-04   0.8000000000E-03   0.1018891141E-03  -0.1018891141E-03   0.7908553786E+00   0.1540650238E+00   0.1540650238E+00   0.6490165245E-02  -0.6490165246E-02  -0.4515545064E-07   0.0000000000E+00   0.6373859204E+00
   0.2000900000E+01   0.9998684943E+00   0.9998684943E+00   0.1000000000E-03  -0.2961660178E-04  -0.2961660178E-04   0.8000000000E-03  -0.1018891141E-03  -0.1018891141E-03   0.7908553785E+00   0.1540650238E+00   0.1540650238E+00  -0.6490165245E-02  -0.6490165245E-02   0.4515623744E-07   0.0000000000E+00   0.6373859204E+00
     1     2     3     4     5     6     7     8
     2     9    10     3     6    11    12     7
 VARIABLES = X,Y,Z,DU1,DU2,DU3,U1,U2,U3,S11,S22,S33,S12,S13,S23,Vf,SMISES
 ZONE, T="0.1000D+00" F=FEPOINT, I=   12 J=    2 ET=BRICK
   0.0000000000E+00  -0.3269574773E-05  -0.3269574773E-05   0.0000000000E+00  -0.8024358419E-06  -0.8024358419E-06   0.0000000000E+00  -0.2467138931E-05  -0.2467138931E-05   0.1423763661E+00  -0.1138287422E-01  -0.1138287422E-01   0.8394561567E-02   0.8394561567E-02   0.7804746889E-07   0.0000000000E+00   0.1579067289E+00
   0.1000213843E+01   0.7952183762E-04   0.7952183762E-04   0.4905421630E-04   0.1500186257E-04   0.1500186257E-04   0.1647892132E-03   0.6451997505E-04   0.6451997505E-04   0.4781786827E+00   0.4291061826E-01   0.4291061826E-01   0.8395071468E-02   0.8395071468E-02   0.7803648202E-07   0.0000000000E+00   0.4374420402E+00
   0.1000213843E+01   0.9999204782E+00   0.7952183762E-04   0.4905421630E-04  -0.1500186257E-04   0.1500186257E-04   0.1647892132E-03  -0.6451997505E-04   0.6451997505E-04   0.4781786827E+00   0.4291061826E-01   0.4291061826E-01  -0.8395071469E-02   0.8395071467E-02  -0.7803706331E-07   0.0000000000E+00   0.4374420401E+00
   0.0000000000E+00   0.1000003270E+01  -0.3269574773E-05   0.0000000000E+00   0.8024358418E-06  -0.8024358418E-06   0.0000000000E+00   0.2467138931E-05  -0.2467138931E-05   0.1423763661E+00  -0.1138287422E-01  -0.1138287422E-01  -0.8394561567E-02   0.8394561566E-02  -0.7804762991E-07   0.0000000000E+00   0.1579067289E+00
   0.0000000000E+00  -0.3269574773E-05   0.1000003270E+01   0.0000000000E+00  -0.8024358418E-06   0.8024358418E-06   0.0000000000E+00  -0.2467138931E-05   0.2467138931E-05   0.1423763661E+00  -0.1138287422E-01  -0.1138287422E-01   0.8394561566E-02  -0.8394561567E-02  -0.7804762991E-07   0.0000000000E+00   0.1579067289E+00
   0.1000213843E+01   0.7952183762E-04   0.9999204782E+00   0.4905421630E-04   0.1500186257E-04  -0.1500186257E-04   0.1647892132E-03   0.6451997505E-04  -0.6451997505E-04   0.4781786827E+00   0.4291061826E-01   0.4291061826E-01   0.8395071467E-02  -0.8395071469E-02  -0.7803706332E-07   0.0000000000E+00   0.4374420401E+00
   0.1000213843E+01   0.9999204782E+00   0.9999204782E+00   0.4905421630E-04  -0.1500186257E-04  -0.1500186257E-04   0.1647892132E-03  -0.6451997505E-04  -0.6451997505E-04   0.4781786826E+00   0.4291061826E-01   0.4291061826E-01  -0.8395071469E-02  -0.8395071469E-02   0.7803764462E-07   0.0000000000E+00   0.4374420401E+00
   0.0000000000E+00   0.1000003270E+01   0.1000003270E+01   0.0000000000E+00   0.8024358417E-06   0.8024358417E-06   0.0000000000E+00   0.2467138931E-05   0.2467138931E-05   0.1423763661E+00  -0.1138287422E-01  -0.1138287422E-01  -0.8394561566E-02  -0.8394561566E-02   0.7804779094E-07   0.0000000000E+00   0.1579067289E+00
   0.2001000000E+01   0.1623109589E-03   0.1623109589E-03   0.1000000000E-03   0.3080524292E-04   0.3080524292E-04   0.9000000000E-03   0.1315057159E-03   0.1315057159E-03   0.8139835401E+00   0.9720284034E-01   0.9720284034E-01   0.8395581344E-02   0.8395581344E-02   0.7802549336E-07   0.0000000000E+00   0.7176661983E+00
   0.2001000000E+01   0.9998376890E+00   0.1623109588E-03   0.1000000000E-03  -0.3080524292E-04   0.3080524292E-04   0.9000000000E-03  -0.1315057159E-03   0.1315057159E-03   0.8139835401E+00   0.9720284033E-01   0.9720284033E-01  -0.8395581345E-02   0.8395581344E-02  -0.7802649503E-07   0.0000000000E+00   0.7176661982E+00
   0.2001000000E+01   0.1623109588E-03   0.9998376890E+00   0.1000000000E-03   0.3080524292E-04  -0.3080524292E-04   0.9000000000E-03   0.1315057159E-03  -0.1315057159E-03   0.8139835401E+00   0.9720284033E-01   0.9720284033E-01   0.8395581344E-02  -0.8395581345E-02  -0.7802649504E-07   0.0000000000E+00   0.7176661982E+00
   0.2001000000E+01   0.9998376890E+00   0.9998376890E+00   0.1000000000E-03  -0.3080524292E-04  -0.3080524292E-04   0.9000000000E-03  -0.1315057159E-03  -0.1315057159E-03   0.8139835400E+00   0.9720284033E-01   0.9720284033E-01  -0.8395581344E-02  -0.8395581344E-02   0.7802749669E-07   0.0000000000E+00   0.7176661982E+00
     1     2     3     4     5     6     7     8
     2     9    10     3     6    11    12     7
 VARIABLES = X,Y,Z,DU1,DU2,DU3,U1,U2,U3,S11,S22,S33,S12,S13,S23,Vf,SMISES
 ZONE, T="0.1100D+00" F=FEPOINT, I=   12 J=    2 ET=BRICK
   0.0000000000E+00  -0.3901064785E-05  -0.3901064785E-05   0.0000000000E+00  -0.6314900111E-06  -0.6314900111E-06   0.0000000000E+00  -0.3269574773E-05  -0.3269574773E-05   0.1916773129E+00  -0.5673196033E-02  -0.5673196033E-02   0.1037516391E-01   0.1037516391E-01   0.1222653949E-06   0.0000000000E+00   0.2022853738E+00
   0.1000268733E+01   0.9448529291E-04   0.9448529291E-04   0.5488961513E-04   0.1496345529E-04   0.1496345529E-04   0.2138434295E-03   0.7952183762E-04   0.7952183762E-04   0.5084262632E+00   0.1302100423E-01   0.1302100423E-01   0.1037597496E-01   0.1037597496E-01   0.1222492828E-06   0.0000000000E+00   0.4980968046E+00
   0.1000268733E+01   0.9999055147E+00   0.9448529291E-04   0.5488961513E-04  -0.1496345529E-04   0.1496345529E-04   0.2138434295E-03  -0.7952183762E-04   0.7952183762E-04   0.5084262632E+00   0.1302100423E-01   0.1302100423E-01  -0.1037597496E-01   0.1037597496E-01  -0.1222499840E-06   0.0000000000E+00   0.4980968045E+00
   0.0000000000E+00   0.1000003901E+01  -0.3901064784E-05   0.0000000000E+00   0.6314900110E-06  -0.6314900110E-06   0.0000000000E+00   0.3269574773E-05  -0.3269574773E-05   0.1916773129E+00  -0.5673196032E-02  -0.5673196032E-02  -0.1037516391E-01   0.1037516391E-01  -0.1222655810E-06   0.0000000000E+00   0.2022853738E+00
   0.0000000000E+00  -0.3901064784E-05   0.1000003901E+01   0.0000000000E+00  -0.6314900110E-06   0.6314900110E-06   0.0000000000E+00  -0.3269574773E-05   0.3269574773E-05   0.1916773129E+00  -0.5673196032E-02  -0.5673196032E-02   0.1037516391E-01  -0.1037516391E-01  -0.1222655810E-06   0.0000000000E+00   0.2022853738E+00
   0.1000268733E+01   0.9448529291E-04   0.9999055147E+00   0.5488961513E-04   0.1496345529E-04  -0.1496345529E-04   0.2138434295E-03   0.7952183762E-04  -0.7952183762E-04   0.5084262632E+00   0.1302100423E-01   0.1302100423E-01   0.1037597496E-01  -0.1037597496E-01  -0.1222499840E-06   0.0000000000E+00   0.4980968045E+00
   0.1000268733E+01   0.9999055147E+00   0.9999055147E+00   0.5488961513E-04  -0.1496345529E-04  -0.1496345529E-04   0.2138434295E-03  -0.7952183762E-04  -0.7952183762E-04   0.5084262632E+00   0.1302100423E-01   0.1302100423E-01  -0.1037597496E-01  -0.1037597496E-01   0.1222506852E-06   0.0000000000E+00   0.4980968045E+00
   0.0000000000E+00   0.1000003901E+01   0.1000003901E+01   0.0000000000E+00   0.6314900109E-06   0.6314900109E-06   0.0000000000E+00   0.3269574773E-05   0.3269574773E-05   0.1916773129E+00  -0.5673196031E-02  -0.5673196031E-02  -0.1037516391E-01  -0.1037516391E-01   0.1222657671E-06   0.0000000000E+00   0.2022853738E+00
   0.2001100000E+01   0.1928681786E-03   0.1928681786E-03   0.1000000000E-03   0.3055721971E-04   0.3055721971E-04   0.1000000000E-02   0.1623109589E-03   0.1623109589E-03   0.8251748441E+00   0.3171538919E-01   0.3171538919E-01   0.1037670540E-01   0.1037670540E-01   0.1222322183E-06   0.0000000000E+00   0.7946816109E+00
   0.2001100000E+01   0.9998071318E+00   0.1928681786E-03   0.1000000000E-03  -0.3055721971E-04   0.3055721971E-04   0.1000000000E-02  -0.1623109588E-03   0.1623109588E-03   0.8251748440E+00   0.3171538919E-01   0.3171538919E-01  -0.1037670540E-01   0.1037670540E-01  -0.1222334348E-06   0.0000000000E+00   0.7946816109E+00
   0.2001100000E+01   0.1928681786E-03   0.9998071318E+00   0.1000000000E-03   0.3055721971E-04  -0.3055721971E-04   0.1000000000E-02   0.1623109588E-03  -0.1623109588E-03   0.8251748440E+00   0.3171538919E-01   0.3171538919E-01   0.1037670540E-01  -0.1037670540E-01  -0.1222334348E-06   0.0000000000E+00   0.7946816109E+00
   0.2001100000E+01   0.9998071318E+00   0.9998071318E+00   0.1000000000E-03  -0.3055721971E-04  -0.3055721971E-04   0.1000000000E-02  -0.1623109588E-03  -0.1623109588E-03   0.8251748440E+00   0.3171538919E-01   0.3171538919E-01  -0.1037670540E-01  -0.1037670540E-01   0.1222346512E-06   0.0000000000E+00   0.7946816109E+00
     1     2     3     4     5     6     7     8
     2     9    10     3     6    11    12     7
 VARIABLES = X,Y,Z,DU1,DU2,DU3,U1,U2,U3,S11,S22,S33,S12,S13,S23,Vf,SMISES
 ZONE, T="0.1200D+00" F=FEPOINT, I=   12 J=    2 ET=BRICK
   0.0000000000E+00  -0.4090215159E-05  -0.4090215159E-05   0.0000000000E+00  -0.1891503750E-06  -0.1891503750E-06   0.0000000000E+00  -0.3901064785E-05  -0.3901064785E-05   0.2494596691E+00   0.3981205807E-02   0.3981205807E-02   0.1232956274E-01   0.1232956274E-01   0.1761899281E-06   0.0000000000E+00   0.2510796229E+00
   0.1000328762E+01   0.1088197110E-03   0.1088197110E-03   0.6002864682E-04   0.1433441812E-04   0.1433441812E-04   0.2687330446E-03   0.9448529291E-04   0.9448529291E-04   0.5386097398E+00  -0.1661453959E-01  -0.1661453959E-01   0.1232710525E-01   0.1232710525E-01   0.1761169868E-06   0.0000000000E+00   0.5584031207E+00
   0.1000328762E+01   0.9998911803E+00   0.1088197110E-03   0.6002864682E-04  -0.1433441812E-04   0.1433441812E-04   0.2687330446E-03  -0.9448529291E-04   0.9448529291E-04   0.5386097398E+00  -0.1661453959E-01  -0.1661453959E-01  -0.1232710525E-01   0.1232710525E-01  -0.1761177983E-06   0.0000000000E+00   0.5584031207E+00
   0.0000000000E+00   0.1000004090E+01  -0.4090215159E-05   0.0000000000E+00   0.1891503748E-06  -0.1891503749E-06   0.0000000000E+00   0.3901064784E-05  -0.3901064784E-05   0.2494596690E+00   0.3981205808E-02   0.3981205808E-02  -0.1232956274E-01   0.1232956274E-01  -0.1761901338E-06   0.0000000000E+00   0.2510796228E+00
   0.0000000000E+00  -0.4090215159E-05   0.1000004090E+01   0.0000000000E+00  -0.1891503749E-06   0.1891503748E-06   0.0000000000E+00  -0.3901064784E-05   0.3901064784E-05   0.2494596690E+00   0.3981205808E-02   0.3981205808E-02   0.1232956274E-01  -0.1232956274E-01  -0.1761901338E-06   0.0000000000E+00   0.2510796228E+00
   0.1000328762E+01   0.1088197110E-03   0.9998911803E+00   0.6002864682E-04   0.1433441812E-04  -0.1433441812E-04   0.2687330446E-03   0.9448529291E-04  -0.9448529291E-04   0.5386097398E+00  -0.1661453959E-01  -0.1661453959E-01   0.1232710525E-01  -0.1232710525E-01  -0.1761177983E-06   0.0000000000E+00   0.5584031207E+00
   0.1000328762E+01   0.9998911803E+00   0.9998911803E+00   0.6002864682E-04  -0.1433441812E-04  -0.1433441812E-04   0.2687330446E-03  -0.9448529291E-04  -0.9448529291E-04   0.5386097397E+00  -0.1661453959E-01  -0.1661453959E-01  -0.1232710525E-01  -0.1232710525E-01   0.1761186097E-06   0.0000000000E+00   0.5584031207E+00
   0.0000000000E+00   0.1000004090E+01   0.1000004090E+01   0.0000000000E+00   0.1891503747E-06   0.1891503747E-06   0.0000000000E+00   0.3901064784E-05   0.3901064784E-05   0.2494596690E+00   0.3981205809E-02   0.3981205809E-02  -0.1232956274E-01  -0.1232956274E-01   0.1761903395E-06   0.0000000000E+00   0.2510796228E+00
   0.2001200000E+01   0.2217400215E-03   0.2217400215E-03   0.1000000000E-03   0.2887184298E-04   0.2887184298E-04   0.1100000000E-02   0.1928681786E-03   0.1928681786E-03   0.8268081315E+00  -0.3673444549E-01  -0.3673444549E-01   0.1230461903E-01   0.1230461903E-01   0.1757577337E-06   0.0000000000E+00   0.8651218002E+00
   0.2001200000E+01   0.9997782600E+00   0.2217400215E-03   0.1000000000E-03  -0.2887184298E-04   0.2887184298E-04   0.1100000000E-02  -0.1928681786E-03   0.1928681786E-03   0.8268081315E+00  -0.3673444549E-01  -0.3673444549E-01  -0.1230461903E-01   0.1230461903E-01  -0.1757591485E-06   0.0000000000E+00   0.8651218002E+00
   0.2001200000E+01   0.2217400215E-03   0.9997782600E+00   0.1000000000E-03   0.2887184298E-04  -0.2887184298E-04   0.1100000000E-02   0.1928681786E-03  -0.1928681786E-03   0.8268081315E+00  -0.3673444549E-01  -0.3673444549E-01   0.1230461903E-01  -0.1230461903E-01  -0.1757591485E-06   0.0000000000E+00   0.8651218002E+00
   0.2001200000E+01   0.9997782600E+00   0.9997782600E+00   0.1000000000E-03  -0.2887184297E-04  -0.2887184297E-04   0.1100000000E-02  -0.1928681786E-03  -0.1928681786E-03   0.8268081315E+00  -0.3673444549E-01  -0.3673444549E-01  -0.1230461903E-01  -0.1230461903E-01   0.1757605633E-06   0.0000000000E+00   0.8651218002E+00
     1     2     3     4     5     6     7     8
     2     9    10     3     6    11    12     7
 VARIABLES = X,Y,Z,DU1,DU2,DU3,U1,U2,U3,S11,S22,S33,S12,S13,S23,Vf,SMISES
 ZONE, T="0.1300D+00" F=FEPOINT, I=   12 J=    2 ET=BRICK
   0.0000000000E+00  -0.3486723264E-05  -0.3486723264E-05   0.0000000000E+00   0.6034918952E-06   0.6034918952E-06   0.0000000000E+00  -0.4090215159E-05  -0.4090215159E-05   0.3153005457E+00   0.1770553736E-01   0.1770553736E-01   0.1414973239E-01   0.1414973239E-01   0.2358673126E-06   0.0000000000E+00   0.3036779970E+00
   0.1000393095E+01   0.1220256832E-03   0.1220256832E-03   0.6433355848E-04   0.1320597220E-04   0.1320597220E-04   0.3287616915E-03   0.1088197110E-03   0.1088197110E-03   0.5698288091E+00  -0.4309348852E-01  -0.4309348852E-01   0.1412664910E-01   0.1412664910E-01   0.2354381115E-06   0.0000000000E+00   0.6165132091E+00
   0.1000393095E+01   0.9998779743E+00   0.1220256832E-03   0.6433355848E-04  -0.1320597220E-04   0.1320597220E-04   0.3287616915E-03  -0.1088197110E-03   0.1088197110E-03   0.5698288091E+00  -0.4309348852E-01  -0.4309348852E-01  -0.1412664910E-01   0.1412664910E-01  -0.2354390149E-06   0.0000000000E+00   0.6165132091E+00
   0.0000000000E+00   0.1000003487E+01  -0.3486723264E-05   0.0000000000E+00  -0.6034918954E-06   0.6034918953E-06   0.0000000000E+00   0.4090215159E-05  -0.4090215159E-05   0.3153005457E+00   0.1770553736E-01   0.1770553736E-01  -0.1414973239E-01   0.1414973239E-01  -0.2358675313E-06   0.0000000000E+00   0.3036779970E+00
   0.0000000000E+00  -0.3486723264E-05   0.1000003487E+01   0.0000000000E+00   0.6034918953E-06  -0.6034918954E-06   0.0000000000E+00  -0.4090215159E-05   0.4090215159E-05   0.3153005457E+00   0.1770553736E-01   0.1770553736E-01   0.1414973239E-01  -0.1414973239E-01  -0.2358675313E-06   0.0000000000E+00   0.3036779970E+00
   0.1000393095E+01   0.1220256832E-03   0.9998779743E+00   0.6433355848E-04   0.1320597220E-04  -0.1320597220E-04   0.3287616915E-03   0.1088197110E-03  -0.1088197110E-03   0.5698288091E+00  -0.4309348852E-01  -0.4309348852E-01   0.1412664910E-01  -0.1412664910E-01  -0.2354390149E-06   0.0000000000E+00   0.6165132091E+00
   0.1000393095E+01   0.9998779743E+00   0.9998779743E+00   0.6433355848E-04  -0.1320597220E-04  -0.1320597220E-04   0.3287616914E-03  -0.1088197110E-03  -0.1088197110E-03   0.5698288091E+00  -0.4309348852E-01  -0.4309348852E-01  -0.1412664910E-01  -0.1412664910E-01   0.2354399182E-06   0.0000000000E+00   0.6165132091E+00
   0.0000000000E+00   0.1000003487E+01   0.1000003487E+01   0.0000000000E+00  -0.6034918955E-06  -0.6034918955E-06   0.0000000000E+00   0.4090215158E-05   0.4090215158E-05   0.3153005457E+00   0.1770553736E-01   0.1770553736E-01  -0.1414973239E-01  -0.1414973239E-01   0.2358677500E-06   0.0000000000E+00   0.3036779970E+00
   0.2001300000E+01   0.2476317775E-03   0.2476317775E-03   0.1000000000E-03   0.2589175592E-04   0.2589175592E-04   0.1200000000E-02   0.2217400215E-03   0.2217400215E-03   0.8197705005E+00  -0.1015992284E+00  -0.1015992284E+00   0.1400320035E-01   0.1400320035E-01   0.2332874011E-06   0.0000000000E+00   0.9232869142E+00
   0.2001300000E+01   0.9997523682E+00   0.2476317775E-03   0.1000000000E-03  -0.2589175592E-04   0.2589175592E-04   0.1200000000E-02  -0.2217400215E-03   0.2217400215E-03   0.8197705004E+00  -0.1015992284E+00  -0.1015992284E+00  -0.1400320035E-01   0.1400320035E-01  -0.2332889769E-06   0.0000000000E+00   0.9232869142E+00
   0.2001300000E+01   0.2476317775E-03   0.9997523682E+00   0.1000000000E-03   0.2589175592E-04  -0.2589175592E-04   0.1200000000E-02   0.2217400215E-03  -0.2217400215E-03   0.8197705004E+00  -0.1015992284E+00  -0.1015992284E+00   0.1400320035E-01  -0.1400320035E-01  -0.2332889769E-06   0.0000000000E+00   0.9232869142E+00
   0.2001300000E+01   0.9997523682E+00   0.9997523682E+00   0.1000000000E-03  -0.2589175592E-04  -0.2589175592E-04   0.1200000000E-02  -0.2217400215E-03  -0.2217400215E-03   0.8197705004E+00  -0.1015992284E+00  -0.1015992284E+00  -0.1400320035E-01  -0.1400320035E-01   0.2332905526E-06   0.0000000000E+00   0.9232869141E+00
     1     2     3     4     5     6     7     8
     2     9    10     3     6    11    12     7
 VARIABLES = X,Y,Z,DU1,DU2,DU3,U1,U2,U3,S11,S22,S33,S12,S13,S23,Vf,SMISES
 ZONE, T="0.1400D+00" F=FEPOINT, I=   12 J=    2 ET=BRICK
   0.0000000000E+00  -0.1675255311E-05  -0.1675255311E-05   0.0000000000E+00   0.1811467953E-05   0.1811467953E-05   0.0000000000E+00  -0.3486723264E-05  -0.3486723264E-05   0.3883227640E+00   0.3514933598E-01   0.3514933598E-01   0.1572918914E-01   0.1572918914E-01   0.2952931466E-06   0.0000000000E+00   0.3595048136E+00
   0.1000460797E+01   0.1337430718E-03   0.1337430718E-03   0.6770168443E-04   0.1171738854E-04   0.1171738854E-04   0.3930952499E-03   0.1220256832E-03   0.1220256832E-03   0.6026392413E+00  -0.6383527530E-01  -0.6383527530E-01   0.1564796083E-01   0.1564796083E-01   0.2937595431E-06   0.0000000000E+00   0.6703586566E+00
   0.1000460797E+01   0.9998662569E+00   0.1337430718E-03   0.6770168443E-04  -0.1171738854E-04   0.1171738854E-04   0.3930952499E-03  -0.1220256832E-03   0.1220256832E-03   0.6026392413E+00  -0.6383527529E-01  -0.6383527529E-01  -0.1564796083E-01   0.1564796083E-01  -0.2937605124E-06   0.0000000000E+00   0.6703586565E+00
   0.0000000000E+00   0.1000001675E+01  -0.1675255310E-05   0.0000000000E+00  -0.1811467954E-05   0.1811467953E-05   0.0000000000E+00   0.3486723263E-05  -0.3486723264E-05   0.3883227640E+00   0.3514933598E-01   0.3514933598E-01  -0.1572918914E-01   0.1572918914E-01  -0.2952933713E-06   0.0000000000E+00   0.3595048136E+00
   0.0000000000E+00  -0.1675255310E-05   0.1000001675E+01   0.0000000000E+00   0.1811467953E-05  -0.1811467954E-05   0.0000000000E+00  -0.3486723264E-05   0.3486723263E-05   0.3883227640E+00   0.3514933598E-01   0.3514933598E-01   0.1572918914E-01  -0.1572918914E-01  -0.2952933713E-06   0.0000000000E+00   0.3595048136E+00
   0.1000460797E+01   0.1337430718E-03   0.9998662569E+00   0.6770168443E-04   0.1171738854E-04  -0.1171738854E-04   0.3930952499E-03   0.1220256832E-03  -0.1220256832E-03   0.6026392413E+00  -0.6383527529E-01  -0.6383527529E-01   0.1564796083E-01  -0.1564796083E-01  -0.2937605124E-06   0.0000000000E+00   0.6703586565E+00
   0.1000460797E+01   0.9998662569E+00   0.9998662569E+00   0.6770168443E-04  -0.1171738854E-04  -0.1171738854E-04   0.3930952499E-03  -0.1220256832E-03  -0.1220256832E-03   0.6026392412E+00  -0.6383527529E-01  -0.6383527529E-01  -0.1564796083E-01  -0.1564796083E-01   0.2937614817E-06   0.0000000000E+00   0.6703586565E+00
   0.0000000000E+00   0.1000001675E+01   0.1000001675E+01   0.0000000000E+00  -0.1811467954E-05  -0.1811467954E-05   0.0000000000E+00   0.3486723263E-05   0.3486723263E-05   0.3883227640E+00   0.3514933598E-01   0.3514933598E-01  -0.1572918914E-01  -0.1572918914E-01   0.2952935960E-06   0.0000000000E+00   0.3595048136E+00
   0.2001400000E+01   0.2694938550E-03   0.2694938550E-03   0.1000000000E-03   0.2186207756E-04   0.2186207756E-04   0.1300000000E-02   0.2476317775E-03   0.2476317775E-03   0.8060736142E+00  -0.1573788344E+00  -0.1573788344E+00   0.1532358595E-01   0.1532358595E-01   0.2874046155E-06   0.0000000000E+00   0.9656481491E+00
   0.2001400000E+01   0.9997305061E+00   0.2694938550E-03   0.1000000000E-03  -0.2186207756E-04   0.2186207756E-04   0.1300000000E-02  -0.2476317774E-03   0.2476317775E-03   0.8060736141E+00  -0.1573788344E+00  -0.1573788344E+00  -0.1532358595E-01   0.1532358595E-01  -0.2874062986E-06   0.0000000000E+00   0.9656481491E+00
   0.2001400000E+01   0.2694938550E-03   0.9997305061E+00   0.1000000000E-03   0.2186207756E-04  -0.2186207756E-04   0.1300000000E-02   0.2476317775E-03  -0.2476317774E-03   0.8060736141E+00  -0.1573788344E+00  -0.1573788344E+00   0.1532358595E-01  -0.1532358595E-01  -0.2874062986E-06   0.0000000000E+00   0.9656481491E+00
   0.2001400000E+01   0.9997305061E+00   0.9997305061E+00   0.1000000000E-03  -0.2186207756E-04  -0.2186207756E-04   0.1300000000E-02  -0.2476317774E-03  -0.2476317774E-03   0.8060736141E+00  -0.1573788344E+00  -0.1573788344E+00  -0.1532358595E-01  -0.1532358595E-01   0.2874079817E-06   0.0000000000E+00   0.9656481490E+00
     1     2     3     4     5     6     7     8
     2     9    10     3     6    11    12     7
 VARIABLES = X,Y,Z,DU1,DU2,DU3,U1,U2,U3,S11,S22,S33,S12,S13,S23,Vf,SMISES
 ZONE, T="0.1500D+00" F=FEPOINT, I=   12 J=    2 ET=BRICK
   0.0000000000E+00   0.1800079646E-05   0.1800079646E-05   0.0000000000E+00   0.3475334957E-05   0.3475334957E-05   0.0000000000E+00  -0.1675255311E-05  -0.1675255311E-05   0.4671866975E+00   0.5544170742E-01   0.5544170742E-01   0.1697075283E-01   0.1697075283E-01   0.3472163018E-06   0.0000000000E+00   0.4180640931E+00
   0.1000530884E+01   0.1437760925E-03   0.1437760925E-03   0.7008752310E-04   0.1003302078E-04   0.1003302078E-04   0.4607969344E-03   0.1337430718E-03   0.1337430718E-03   0.6376535160E+00  -0.7715339123E-01  -0.7715339123E-01   0.1678697395E-01   0.1678697395E-01   0.3436170380E-06   0.0000000000E+00   0.7188317330E+00
   0.1000530884E+01   0.9998562239E+00   0.1437760925E-03   0.7008752310E-04  -0.1003302078E-04   0.1003302078E-04   0.4607969344E-03  -0.1337430718E-03   0.1337430718E-03   0.6376535160E+00  -0.7715339123E-01  -0.7715339123E-01  -0.1678697395E-01   0.1678697394E-01  -0.3436180423E-06   0.0000000000E+00   0.7188317329E+00
   0.0000000000E+00   0.9999981999E+00   0.1800079647E-05   0.0000000000E+00  -0.3475334957E-05   0.3475334957E-05   0.0000000000E+00   0.1675255310E-05  -0.1675255310E-05   0.4671866975E+00   0.5544170742E-01   0.5544170742E-01  -0.1697075283E-01   0.1697075283E-01  -0.3472165263E-06   0.0000000000E+00   0.4180640931E+00
   0.0000000000E+00   0.1800079647E-05   0.9999981999E+00   0.0000000000E+00   0.3475334957E-05  -0.3475334957E-05   0.0000000000E+00  -0.1675255310E-05   0.1675255310E-05   0.4671866975E+00   0.5544170742E-01   0.5544170742E-01   0.1697075283E-01  -0.1697075283E-01  -0.3472165263E-06   0.0000000000E+00   0.4180640931E+00
   0.1000530884E+01   0.1437760925E-03   0.9998562239E+00   0.7008752310E-04   0.1003302078E-04  -0.1003302078E-04   0.4607969344E-03   0.1337430718E-03  -0.1337430718E-03   0.6376535160E+00  -0.7715339123E-01  -0.7715339123E-01   0.1678697394E-01  -0.1678697395E-01  -0.3436180423E-06   0.0000000000E+00   0.7188317329E+00
   0.1000530884E+01   0.9998562239E+00   0.9998562239E+00   0.7008752309E-04  -0.1003302078E-04  -0.1003302078E-04   0.4607969343E-03  -0.1337430718E-03  -0.1337430718E-03   0.6376535160E+00  -0.7715339123E-01  -0.7715339123E-01  -0.1678697395E-01  -0.1678697395E-01   0.3436190467E-06   0.0000000000E+00   0.7188317329E+00
   0.0000000000E+00   0.9999981999E+00   0.9999981999E+00   0.0000000000E+00  -0.3475334957E-05  -0.3475334957E-05   0.0000000000E+00   0.1675255309E-05   0.1675255309E-05   0.4671866975E+00   0.5544170742E-01   0.5544170742E-01  -0.1697075283E-01  -0.1697075283E-01   0.3472167508E-06   0.0000000000E+00   0.4180640931E+00
   0.2001500000E+01   0.2865744079E-03   0.2865744079E-03   0.1000000000E-03   0.1708055283E-04   0.1708055283E-04   0.1400000000E-02   0.2694938550E-03   0.2694938550E-03   0.7896890478E+00  -0.2005328465E+00  -0.2005328465E+00   0.1618827188E-01   0.1618827188E-01   0.3308735874E-06   0.0000000000E+00   0.9926062683E+00
   0.2001500000E+01   0.9997134256E+00   0.2865744078E-03   0.1000000000E-03  -0.1708055283E-04   0.1708055283E-04   0.1400000000E-02  -0.2694938550E-03   0.2694938550E-03   0.7896890478E+00  -0.2005328465E+00  -0.2005328465E+00  -0.1618827188E-01   0.1618827187E-01  -0.3308753177E-06   0.0000000000E+00   0.9926062683E+00
   0.2001500000E+01   0.2865744078E-03   0.9997134256E+00   0.1000000000E-03   0.1708055283E-04  -0.1708055283E-04   0.1400000000E-02   0.2694938550E-03  -0.2694938550E-03   0.7896890478E+00  -0.2005328465E+00  -0.2005328465E+00   0.1618827187E-01  -0.1618827188E-01  -0.3308753177E-06   0.0000000000E+00   0.9926062683E+00
   0.2001500000E+01   0.9997134256E+00   0.9997134256E+00   0.1000000000E-03  -0.1708055283E-04  -0.1708055283E-04   0.1400000000E-02  -0.2694938550E-03  -0.2694938550E-03   0.7896890477E+00  -0.2005328465E+00  -0.2005328465E+00  -0.1618827188E-01  -0.1618827188E-01   0.3308770480E-06   0.0000000000E+00   0.9926062682E+00
     1     2     3     4     5     6     7     8
     2     9    10     3     6    11    12     7
 VARIABLES = X,Y,Z,DU1,DU2,DU3,U1,U2,U3,S11,S22,S33,S12,S13,S23,Vf,SMISES
 ZONE, T="0.1600D+00" F=FEPOINT, I=   12 J=    2 ET=BRICK
   0.0000000000E+00   0.7402551392E-05   0.7402551392E-05   0.0000000000E+00   0.5602471746E-05   0.5602471746E-05   0.0000000000E+00   0.1800079646E-05   0.1800079646E-05   0.5501658496E+00   0.7723585540E-01   0.7723585540E-01   0.1779275730E-01   0.1779275730E-01   0.3843035808E-06   0.0000000000E+00   0.4789745168E+00
   0.1000602394E+01   0.1520965773E-03   0.1520965773E-03   0.7150980306E-04   0.8320484701E-05   0.8320484701E-05   0.5308844575E-03   0.1437760925E-03   0.1437760925E-03   0.6755975774E+00  -0.8239910412E-01  -0.8239910412E-01   0.1747363578E-01   0.1747363578E-01   0.3780534516E-06   0.0000000000E+00   0.7619914669E+00
   0.1000602394E+01   0.9998479034E+00   0.1520965772E-03   0.7150980306E-04  -0.8320484701E-05   0.8320484701E-05   0.5308844575E-03  -0.1437760925E-03   0.1437760925E-03   0.6755975774E+00  -0.8239910412E-01  -0.8239910411E-01  -0.1747363578E-01   0.1747363578E-01  -0.3780544588E-06   0.0000000000E+00   0.7619914669E+00
   0.0000000000E+00   0.9999925974E+00   0.7402551392E-05   0.0000000000E+00  -0.5602471746E-05   0.5602471746E-05   0.0000000000E+00  -0.1800079647E-05   0.1800079647E-05   0.5501658496E+00   0.7723585540E-01   0.7723585540E-01  -0.1779275730E-01   0.1779275729E-01  -0.3843038005E-06   0.0000000000E+00   0.4789745168E+00
   0.0000000000E+00   0.7402551392E-05   0.9999925974E+00   0.0000000000E+00   0.5602471746E-05  -0.5602471746E-05   0.0000000000E+00   0.1800079647E-05  -0.1800079647E-05   0.5501658496E+00   0.7723585540E-01   0.7723585540E-01   0.1779275729E-01  -0.1779275730E-01  -0.3843038005E-06   0.0000000000E+00   0.4789745168E+00
   0.1000602394E+01   0.1520965772E-03   0.9998479034E+00   0.7150980306E-04   0.8320484701E-05  -0.8320484701E-05   0.5308844575E-03   0.1437760925E-03  -0.1437760925E-03   0.6755975774E+00  -0.8239910411E-01  -0.8239910412E-01   0.1747363578E-01  -0.1747363578E-01  -0.3780544588E-06   0.0000000000E+00   0.7619914669E+00
   0.1000602394E+01   0.9998479034E+00   0.9998479034E+00   0.7150980306E-04  -0.8320484701E-05  -0.8320484701E-05   0.5308844574E-03  -0.1437760925E-03  -0.1437760925E-03   0.6755975774E+00  -0.8239910411E-01  -0.8239910411E-01  -0.1747363578E-01  -0.1747363578E-01   0.3780554660E-06   0.0000000000E+00   0.7619914669E+00
   0.0000000000E+00   0.9999925974E+00   0.9999925974E+00   0.0000000000E+00  -0.5602471746E-05  -0.5602471746E-05   0.0000000000E+00  -0.1800079648E-05  -0.1800079648E-05   0.5501658496E+00   0.7723585539E-01   0.7723585539E-01  -0.1779275730E-01  -0.1779275730E-01   0.3843040202E-06   0.0000000000E+00   0.4789745168E+00
   0.2001600000E+01   0.2984399810E-03   0.2984399810E-03   0.1000000000E-03   0.1186557311E-04   0.1186557311E-04   0.1500000000E-02   0.2865744079E-03   0.2865744079E-03   0.7753651236E+00  -0.2292019728E+00  -0.2292019728E+00   0.1657824036E-01   0.1657824036E-01   0.3582210407E-06   0.0000000000E+00   0.1007032088E+01
   0.2001600000E+01   0.9997015600E+00   0.2984399810E-03   0.1000000000E-03  -0.1186557311E-04   0.1186557311E-04   0.1500000000E-02  -0.2865744078E-03   0.2865744078E-03   0.7753651236E+00  -0.2292019728E+00  -0.2292019728E+00  -0.1657824036E-01   0.1657824036E-01  -0.3582227589E-06   0.0000000000E+00   0.1007032088E+01
   0.2001600000E+01   0.2984399810E-03   0.9997015600E+00   0.1000000000E-03   0.1186557311E-04  -0.1186557311E-04   0.1500000000E-02   0.2865744078E-03  -0.2865744078E-03   0.7753651236E+00  -0.2292019728E+00  -0.2292019728E+00   0.1657824036E-01  -0.1657824036E-01  -0.3582227589E-06   0.0000000000E+00   0.1007032088E+01
   0.2001600000E+01   0.9997015600E+00   0.9997015600E+00   0.1000000000E-03  -0.1186557311E-04  -0.1186557311E-04   0.1500000000E-02  -0.2865744078E-03  -0.2865744078E-03   0.7753651236E+00  -0.2292019728E+00  -0.2292019728E+00  -0.1657824036E-01  -0.1657824036E-01   0.3582244770E-06   0.0000000000E+00   0.1007032088E+01
     1     2     3     4     5     6     7     8
     2     9    10     3     6    11    12     7
 VARIABLES = X,Y,Z,DU1,DU2,DU3,U1,U2,U3,S11,S22,S33,S12,S13,S23,Vf,SMISES
 ZONE, T="0.1700D+00" F=FEPOINT, I=   12 J=    2 ET=BRICK
   0.0000000000E+00   0.1556403848E-04   0.1556403848E-04   0.0000000000E+00   0.8161487084E-05   0.8161487084E-05   0.0000000000E+00   0.7402551392E-05   0.7402551392E-05   0.6352796037E+00   0.9882516174E-01   0.9882516174E-01   0.1813361549E-01   0.1813361549E-01   0.4004259310E-06   0.0000000000E+00   0.5419865222E+00
   0.1000674439E+01   0.1588306885E-03   0.1588306885E-03   0.7204447354E-04   0.6734111272E-05   0.6734111272E-05   0.6023942605E-03   0.1520965773E-03   0.1520965773E-03   0.7170493920E+00  -0.7982203333E-01  -0.7982203333E-01   0.1766946565E-01   0.1766946565E-01   0.3918633603E-06   0.0000000000E+00   0.8006647228E+00
   0.1000674439E+01   0.9998411693E+00   0.1588306885E-03   0.7204447354E-04  -0.6734111271E-05   0.6734111272E-05   0.6023942605E-03  -0.1520965772E-03   0.1520965772E-03   0.7170493919E+00  -0.7982203332E-01  -0.7982203332E-01  -0.1766946566E-01   0.1766946565E-01  -0.3918643395E-06   0.0000000000E+00   0.8006647227E+00
   0.0000000000E+00   0.9999844360E+00   0.1556403848E-04   0.0000000000E+00  -0.8161487084E-05   0.8161487084E-05   0.0000000000E+00  -0.7402551393E-05   0.7402551392E-05   0.6352796037E+00   0.9882516174E-01   0.9882516174E-01  -0.1813361549E-01   0.1813361549E-01  -0.4004261436E-06   0.0000000000E+00   0.5419865222E+00
   0.0000000000E+00   0.1556403848E-04   0.9999844360E+00   0.0000000000E+00   0.8161487084E-05  -0.8161487084E-05   0.0000000000E+00   0.7402551392E-05  -0.7402551393E-05   0.6352796037E+00   0.9882516174E-01   0.9882516174E-01   0.1813361549E-01  -0.1813361549E-01  -0.4004261436E-06   0.0000000000E+00   0.5419865222E+00
   0.1000674439E+01   0.1588306885E-03   0.9998411693E+00   0.7204447354E-04   0.6734111272E-05  -0.6734111271E-05   0.6023942605E-03   0.1520965772E-03  -0.1520965772E-03   0.7170493919E+00  -0.7982203332E-01  -0.7982203332E-01   0.1766946565E-01  -0.1766946566E-01  -0.3918643395E-06   0.0000000000E+00   0.8006647227E+00
   0.1000674439E+01   0.9998411693E+00   0.9998411693E+00   0.7204447354E-04  -0.6734111272E-05  -0.6734111272E-05   0.6023942605E-03  -0.1520965772E-03  -0.1520965772E-03   0.7170493919E+00  -0.7982203332E-01  -0.7982203332E-01  -0.1766946566E-01  -0.1766946566E-01   0.3918653187E-06   0.0000000000E+00   0.8006647227E+00
   0.0000000000E+00   0.9999844360E+00   0.9999844360E+00   0.0000000000E+00  -0.8161487084E-05  -0.8161487084E-05   0.0000000000E+00  -0.7402551394E-05  -0.7402551394E-05   0.6352796036E+00   0.9882516174E-01   0.9882516174E-01  -0.1813361549E-01  -0.1813361549E-01   0.4004263562E-06   0.0000000000E+00   0.5419865222E+00
   0.2001700000E+01   0.3049776852E-03   0.3049776852E-03   0.1000000000E-03   0.6537704194E-05   0.6537704194E-05   0.1600000000E-02   0.2984399810E-03   0.2984399810E-03   0.7672508186E+00  -0.2426850476E+00  -0.2426850476E+00   0.1650319107E-01   0.1650319107E-01   0.3662782374E-06   0.0000000000E+00   0.1012365650E+01
   0.2001700000E+01   0.9996950223E+00   0.3049776852E-03   0.1000000000E-03  -0.6537704193E-05   0.6537704194E-05   0.1600000000E-02  -0.2984399810E-03   0.2984399810E-03   0.7672508186E+00  -0.2426850476E+00  -0.2426850476E+00  -0.1650319107E-01   0.1650319107E-01  -0.3662798883E-06   0.0000000000E+00   0.1012365650E+01
   0.2001700000E+01   0.3049776852E-03   0.9996950223E+00   0.1000000000E-03   0.6537704194E-05  -0.6537704193E-05   0.1600000000E-02   0.2984399810E-03  -0.2984399810E-03   0.7672508186E+00  -0.2426850476E+00  -0.2426850476E+00   0.1650319107E-01  -0.1650319107E-01  -0.3662798883E-06   0.0000000000E+00   0.1012365650E+01
   0.2001700000E+01   0.9996950223E+00   0.9996950223E+00   0.1000000000E-03  -0.6537704193E-05  -0.6537704193E-05   0.1600000000E-02  -0.2984399809E-03  -0.2984399809E-03   0.7672508186E+00  -0.2426850476E+00  -0.2426850476E+00  -0.1650319107E-01  -0.1650319107E-01   0.3662815393E-06   0.0000000000E+00   0.1012365650E+01
     1     2     3     4     5     6     7     8
     2     9    10     3     6    11    12     7
 VARIABLES = X,Y,Z,DU1,DU2,DU3,U1,U2,U3,S11,S22,S33,S12,S13,S23,Vf,SMISES
 ZONE, T="0.1800D+00" F=FEPOINT, I=   12 J=    2 ET=BRICK
   0.0000000000E+00   0.2664432640E-04   0.2664432640E-04   0.0000000000E+00   0.1108028792E-04   0.1108028792E-04   0.0000000000E+00   0.1556403848E-04   0.1556403848E-04   0.7204496912E+00   0.1183021778E+00   0.1183021778E+00   0.1795501032E-01   0.1795501032E-01   0.3918170154E-06   0.0000000000E+00   0.6069769703E+00
   0.1000746249E+01   0.1642341281E-03   0.1642341281E-03   0.7181074123E-04   0.5403439624E-05   0.5403439624E-05   0.6744387341E-03   0.1588306885E-03   0.1588306885E-03   0.7621826851E+00  -0.7034920501E-01  -0.7034920501E-01   0.1736088002E-01   0.1736088002E-01   0.3823968956E-06   0.0000000000E+00   0.8359685803E+00
   0.1000746249E+01   0.9998357659E+00   0.1642341281E-03   0.7181074123E-04  -0.5403439624E-05   0.5403439625E-05   0.6744387341E-03  -0.1588306885E-03   0.1588306885E-03   0.7621826851E+00  -0.7034920501E-01  -0.7034920501E-01  -0.1736088003E-01   0.1736088002E-01  -0.3823978192E-06   0.0000000000E+00   0.8359685803E+00
   0.0000000000E+00   0.9999733557E+00   0.2664432640E-04   0.0000000000E+00  -0.1108028792E-04   0.1108028792E-04   0.0000000000E+00  -0.1556403848E-04   0.1556403848E-04   0.7204496911E+00   0.1183021778E+00   0.1183021778E+00  -0.1795501032E-01   0.1795501032E-01  -0.3918172213E-06   0.0000000000E+00   0.6069769702E+00
   0.0000000000E+00   0.2664432640E-04   0.9999733557E+00   0.0000000000E+00   0.1108028792E-04  -0.1108028792E-04   0.0000000000E+00   0.1556403848E-04  -0.1556403848E-04   0.7204496911E+00   0.1183021778E+00   0.1183021778E+00   0.1795501032E-01  -0.1795501032E-01  -0.3918172213E-06   0.0000000000E+00   0.6069769702E+00
   0.1000746249E+01   0.1642341281E-03   0.9998357659E+00   0.7181074123E-04   0.5403439625E-05  -0.5403439624E-05   0.6744387341E-03   0.1588306885E-03  -0.1588306885E-03   0.7621826851E+00  -0.7034920501E-01  -0.7034920501E-01   0.1736088002E-01  -0.1736088003E-01  -0.3823978192E-06   0.0000000000E+00   0.8359685803E+00
   0.1000746249E+01   0.9998357659E+00   0.9998357659E+00   0.7181074123E-04  -0.5403439624E-05  -0.5403439624E-05   0.6744387340E-03  -0.1588306885E-03  -0.1588306885E-03   0.7621826850E+00  -0.7034920500E-01  -0.7034920500E-01  -0.1736088003E-01  -0.1736088003E-01   0.3823987428E-06   0.0000000000E+00   0.8359685802E+00
   0.0000000000E+00   0.9999733557E+00   0.9999733557E+00   0.0000000000E+00  -0.1108028792E-04  -0.1108028792E-04   0.0000000000E+00  -0.1556403848E-04  -0.1556403848E-04   0.7204496911E+00   0.1183021777E+00   0.1183021777E+00  -0.1795501032E-01  -0.1795501032E-01   0.3918174273E-06   0.0000000000E+00   0.6069769702E+00
   0.2001800000E+01   0.3063829988E-03   0.3063829988E-03   0.1000000000E-03   0.1405313588E-05   0.1405313588E-05   0.1700000000E-02   0.3049776852E-03   0.3049776852E-03   0.7681926549E+00  -0.2411390757E+00  -0.2411390757E+00   0.1598282104E-01   0.1598282104E-01   0.3542214260E-06   0.0000000000E+00   0.1011612139E+01
   0.2001800000E+01   0.9996936170E+00   0.3063829987E-03   0.1000000000E-03  -0.1405313588E-05   0.1405313589E-05   0.1700000000E-02  -0.3049776851E-03   0.3049776852E-03   0.7681926548E+00  -0.2411390757E+00  -0.2411390757E+00  -0.1598282104E-01   0.1598282103E-01  -0.3542229603E-06   0.0000000000E+00   0.1011612139E+01
   0.2001800000E+01   0.3063829987E-03   0.9996936170E+00   0.1000000000E-03   0.1405313589E-05  -0.1405313588E-05   0.1700000000E-02   0.3049776852E-03  -0.3049776851E-03   0.7681926548E+00  -0.2411390757E+00  -0.2411390757E+00   0.1598282103E-01  -0.1598282104E-01  -0.3542229604E-06   0.0000000000E+00   0.1011612139E+01
   0.2001800000E+01   0.9996936170E+00   0.9996936170E+00   0.1000000000E-03  -0.1405313588E-05  -0.1405313588E-05   0.1700000000E-02  -0.3049776851E-03  -0.3049776851E-03   0.7681926548E+00  -0.2411390757E+00  -0.2411390757E+00  -0.1598282104E-01  -0.1598282104E-01   0.3542244947E-06   0.0000000000E+00   0.1011612139E+01
     1     2     3     4     5     6     7     8
     2     9    10     3     6    11    12     7
 VARIABLES = X,Y,Z,DU1,DU2,DU3,U1,U2,U3,S11,S22,S33,S12,S13,S23,Vf,SMISES
 ZONE, T="0.1900D+00" F=FEPOINT, I=   12 J=    2 ET=BRICK
   0.0000000000E+00   0.4089224400E-04   0.4089224400E-04   0.0000000000E+00   0.1424791760E-04   0.1424791760E-04   0.0000000000E+00   0.2664432640E-04   0.2664432640E-04   0.8036571515E+00   0.1337363277E+00   0.1337363277E+00   0.1724388494E-01   0.1724388494E-01   0.3578811539E-06   0.0000000000E+00   0.6739226696E+00
   0.1000817205E+01   0.1686595737E-03   0.1686595737E-03   0.7095530095E-04   0.4425445593E-05   0.4425445593E-05   0.7462494753E-03   0.1642341281E-03   0.1642341281E-03   0.8106687349E+00  -0.5538525605E-01  -0.5538525605E-01   0.1655466656E-01   0.1655466656E-01   0.3499570991E-06   0.0000000000E+00   0.8690105998E+00
   0.1000817205E+01   0.9998313404E+00   0.1686595737E-03   0.7095530095E-04  -0.4425445593E-05   0.4425445593E-05   0.7462494753E-03  -0.1642341281E-03   0.1642341281E-03   0.8106687348E+00  -0.5538525605E-01  -0.5538525605E-01  -0.1655466657E-01   0.1655466656E-01  -0.3499579437E-06   0.0000000000E+00   0.8690105998E+00
   0.0000000000E+00   0.9999591078E+00   0.4089224400E-04   0.0000000000E+00  -0.1424791760E-04   0.1424791760E-04   0.0000000000E+00  -0.2664432640E-04   0.2664432640E-04   0.8036571515E+00   0.1337363277E+00   0.1337363277E+00  -0.1724388494E-01   0.1724388494E-01  -0.3578813564E-06   0.0000000000E+00   0.6739226696E+00
   0.0000000000E+00   0.4089224400E-04   0.9999591078E+00   0.0000000000E+00   0.1424791760E-04  -0.1424791760E-04   0.0000000000E+00   0.2664432640E-04  -0.2664432640E-04   0.8036571515E+00   0.1337363277E+00   0.1337363277E+00   0.1724388494E-01  -0.1724388494E-01  -0.3578813564E-06   0.0000000000E+00   0.6739226696E+00
   0.1000817205E+01   0.1686595737E-03   0.9998313404E+00   0.7095530095E-04   0.4425445593E-05  -0.4425445593E-05   0.7462494753E-03   0.1642341281E-03  -0.1642341281E-03   0.8106687348E+00  -0.5538525605E-01  -0.5538525605E-01   0.1655466656E-01  -0.1655466657E-01  -0.3499579437E-06   0.0000000000E+00   0.8690105998E+00
   0.1000817205E+01   0.9998313404E+00   0.9998313404E+00   0.7095530095E-04  -0.4425445593E-05  -0.4425445593E-05   0.7462494753E-03  -0.1642341281E-03  -0.1642341281E-03   0.8106687348E+00  -0.5538525605E-01  -0.5538525605E-01  -0.1655466657E-01  -0.1655466657E-01   0.3499587884E-06   0.0000000000E+00   0.8690105998E+00
   0.0000000000E+00   0.9999591078E+00   0.9999591078E+00   0.0000000000E+00  -0.1424791760E-04  -0.1424791760E-04   0.0000000000E+00  -0.2664432640E-04  -0.2664432640E-04   0.8036571514E+00   0.1337363277E+00   0.1337363277E+00  -0.1724388494E-01  -0.1724388494E-01   0.3578815590E-06   0.0000000000E+00   0.6739226696E+00
   0.2001900000E+01   0.3031335835E-03   0.3031335835E-03   0.1000000000E-03  -0.3249415216E-05  -0.3249415216E-05   0.1800000000E-02   0.3063829988E-03   0.3063829988E-03   0.7796039242E+00  -0.2254686428E+00  -0.2254686428E+00   0.1504151698E-01   0.1504151698E-01   0.3234819572E-06   0.0000000000E+00   0.1007100980E+01
   0.2001900000E+01   0.9996968664E+00   0.3031335835E-03   0.1000000000E-03   0.3249415216E-05  -0.3249415215E-05   0.1800000000E-02  -0.3063829987E-03   0.3063829987E-03   0.7796039242E+00  -0.2254686428E+00  -0.2254686428E+00  -0.1504151698E-01   0.1504151698E-01  -0.3234833317E-06   0.0000000000E+00   0.1007100980E+01
   0.2001900000E+01   0.3031335835E-03   0.9996968664E+00   0.1000000000E-03  -0.3249415215E-05   0.3249415216E-05   0.1800000000E-02   0.3063829987E-03  -0.3063829987E-03   0.7796039242E+00  -0.2254686428E+00  -0.2254686428E+00   0.1504151698E-01  -0.1504151698E-01  -0.3234833317E-06   0.0000000000E+00   0.1007100980E+01
   0.2001900000E+01   0.9996968664E+00   0.9996968664E+00   0.1000000000E-03   0.3249415215E-05   0.3249415215E-05   0.1800000000E-02  -0.3063829987E-03  -0.3063829987E-03   0.7796039241E+00  -0.2254686427E+00  -0.2254686427E+00  -0.1504151698E-01  -0.1504151698E-01   0.3234847063E-06   0.0000000000E+00   0.1007100980E+01
     1     2     3     4     5     6     7     8
     2     9    10     3     6    11    12     7
 VARIABLES = X,Y,Z,DU1,DU2,DU3,U1,U2,U3,S11,S22,S33,S12,S13,S23,Vf,SMISES
 ZONE, T="0.2000D+00" F=FEPOINT, I=   12 J=    2 ET=BRICK
   0.0000000000E+00   0.5841254681E-04   0.5841254681E-04   0.0000000000E+00   0.1752030282E-04   0.1752030282E-04   0.0000000000E+00   0.4089224400E-04   0.4089224400E-04   0.8830609546E+00   0.1433650180E+00   0.1433650180E+00   0.1601249710E-01   0.1601249710E-01   0.3014707936E-06   0.0000000000E+00   0.7428196985E+00
   0.1000886843E+01   0.1725201203E-03   0.1725201203E-03   0.6963807992E-04   0.3860546571E-05   0.3860546571E-05   0.8172047763E-03   0.1686595737E-03   0.1686595737E-03   0.8616779274E+00  -0.3662174270E-01  -0.3662174270E-01   0.1527518219E-01   0.1527518219E-01   0.2977840107E-06   0.0000000000E+00   0.9006964666E+00
   0.1000886843E+01   0.9998274799E+00   0.1725201203E-03   0.6963807992E-04  -0.3860546570E-05   0.3860546571E-05   0.8172047762E-03  -0.1686595737E-03   0.1686595737E-03   0.8616779273E+00  -0.3662174270E-01  -0.3662174270E-01  -0.1527518220E-01   0.1527518219E-01  -0.2977847577E-06   0.0000000000E+00   0.9006964666E+00
   0.0000000000E+00   0.9999415875E+00   0.5841254681E-04   0.0000000000E+00  -0.1752030282E-04   0.1752030282E-04   0.0000000000E+00  -0.4089224400E-04   0.4089224400E-04   0.8830609545E+00   0.1433650180E+00   0.1433650180E+00  -0.1601249711E-01   0.1601249710E-01  -0.3014709987E-06   0.0000000000E+00   0.7428196985E+00
   0.0000000000E+00   0.5841254681E-04   0.9999415875E+00   0.0000000000E+00   0.1752030282E-04  -0.1752030282E-04   0.0000000000E+00   0.4089224400E-04  -0.4089224400E-04   0.8830609545E+00   0.1433650180E+00   0.1433650180E+00   0.1601249710E-01  -0.1601249711E-01  -0.3014709987E-06   0.0000000000E+00   0.7428196985E+00
   0.1000886843E+01   0.1725201203E-03   0.9998274799E+00   0.6963807992E-04   0.3860546571E-05  -0.3860546570E-05   0.8172047762E-03   0.1686595737E-03  -0.1686595737E-03   0.8616779273E+00  -0.3662174270E-01  -0.3662174270E-01   0.1527518219E-01  -0.1527518220E-01  -0.2977847577E-06   0.0000000000E+00   0.9006964666E+00
   0.1000886843E+01   0.9998274799E+00   0.9998274799E+00   0.6963807992E-04  -0.3860546571E-05  -0.3860546571E-05   0.8172047762E-03  -0.1686595737E-03  -0.1686595737E-03   0.8616779273E+00  -0.3662174270E-01  -0.3662174270E-01  -0.1527518220E-01  -0.1527518220E-01   0.2977855048E-06   0.0000000000E+00   0.9006964666E+00
   0.0000000000E+00   0.9999415875E+00   0.9999415875E+00   0.0000000000E+00  -0.1752030282E-04  -0.1752030282E-04   0.0000000000E+00  -0.4089224400E-04  -0.4089224400E-04   0.8830609545E+00   0.1433650180E+00   0.1433650180E+00  -0.1601249711E-01  -0.1601249711E-01   0.3014712037E-06   0.0000000000E+00   0.7428196985E+00
   0.2002000000E+01   0.2959496631E-03   0.2959496631E-03   0.1000000000E-03  -0.7183920388E-05  -0.7183920388E-05   0.1900000000E-02   0.3031335835E-03   0.3031335835E-03   0.8016159352E+00  -0.1972690209E+00  -0.1972690209E+00   0.1371027381E-01   0.1371027381E-01   0.2775686697E-06   0.0000000000E+00   0.1000580887E+01
   0.2002000000E+01   0.9997040503E+00   0.2959496631E-03   0.1000000000E-03   0.7183920389E-05  -0.7183920387E-05   0.1900000000E-02  -0.3031335835E-03   0.3031335835E-03   0.8016159352E+00  -0.1972690209E+00  -0.1972690209E+00  -0.1371027381E-01   0.1371027381E-01  -0.2775698478E-06   0.0000000000E+00   0.1000580887E+01
   0.2002000000E+01   0.2959496631E-03   0.9997040503E+00   0.1000000000E-03  -0.7183920387E-05   0.7183920389E-05   0.1900000000E-02   0.3031335835E-03  -0.3031335835E-03   0.8016159352E+00  -0.1972690209E+00  -0.1972690209E+00   0.1371027381E-01  -0.1371027381E-01  -0.2775698479E-06   0.0000000000E+00   0.1000580887E+01
   0.2002000000E+01   0.9997040503E+00   0.9997040503E+00   0.1000000000E-03   0.7183920388E-05   0.7183920388E-05   0.1900000000E-02  -0.3031335835E-03  -0.3031335835E-03   0.8016159351E+00  -0.1972690209E+00  -0.1972690209E+00  -0.1371027381E-01  -0.1371027381E-01   0.2775710260E-06   0.0000000000E+00   0.1000580887E+01
     1     2     3     4     5     6     7     8
     2     9    10     3     6    11    12     7
 VARIABLES = X,Y,Z,DU1,DU2,DU3,U1,U2,U3,S11,S22,S33,S12,S13,S23,Vf,SMISES
 ZONE, T="0.2100D+00" F=FEPOINT, I=   12 J=    2 ET=BRICK
   0.0000000000E+00   0.7914579912E-04   0.7914579912E-04   0.0000000000E+00   0.2073325230E-04   0.2073325230E-04   0.0000000000E+00   0.5841254681E-04   0.5841254681E-04   0.9568016976E+00   0.1459160829E+00   0.1459160829E+00   0.1429081386E-01   0.1429081386E-01   0.2284829489E-06   0.0000000000E+00   0.8131543839E+00
   0.1000954873E+01   0.1762605367E-03   0.1762605367E-03   0.6803049150E-04   0.3740416369E-05   0.3740416369E-05   0.8868428562E-03   0.1725201203E-03   0.1725201203E-03   0.9134143910E+00  -0.1558988599E-01  -0.1558988599E-01   0.1355101313E-01   0.1355101313E-01   0.2314615305E-06   0.0000000000E+00   0.9308110696E+00
   0.1000954873E+01   0.9998237395E+00   0.1762605367E-03   0.6803049150E-04  -0.3740416368E-05   0.3740416369E-05   0.8868428562E-03  -0.1725201203E-03   0.1725201203E-03   0.9134143909E+00  -0.1558988599E-01  -0.1558988599E-01  -0.1355101314E-01   0.1355101313E-01  -0.2314621659E-06   0.0000000000E+00   0.9308110696E+00
   0.0000000000E+00   0.9999208542E+00   0.7914579912E-04   0.0000000000E+00  -0.2073325230E-04   0.2073325230E-04   0.0000000000E+00  -0.5841254681E-04   0.5841254681E-04   0.9568016976E+00   0.1459160829E+00   0.1459160829E+00  -0.1429081386E-01   0.1429081386E-01  -0.2284831637E-06   0.0000000000E+00   0.8131543839E+00
   0.0000000000E+00   0.7914579912E-04   0.9999208542E+00   0.0000000000E+00   0.2073325230E-04  -0.2073325230E-04   0.0000000000E+00   0.5841254681E-04  -0.5841254681E-04   0.9568016976E+00   0.1459160829E+00   0.1459160829E+00   0.1429081386E-01  -0.1429081386E-01  -0.2284831638E-06   0.0000000000E+00   0.8131543839E+00
   0.1000954873E+01   0.1762605367E-03   0.9998237395E+00   0.6803049150E-04   0.3740416369E-05  -0.3740416368E-05   0.8868428562E-03   0.1725201203E-03  -0.1725201203E-03   0.9134143909E+00  -0.1558988599E-01  -0.1558988599E-01   0.1355101313E-01  -0.1355101314E-01  -0.2314621659E-06   0.0000000000E+00   0.9308110696E+00
   0.1000954873E+01   0.9998237395E+00   0.9998237395E+00   0.6803049150E-04  -0.3740416369E-05  -0.3740416369E-05   0.8868428561E-03  -0.1725201203E-03  -0.1725201203E-03   0.9134143909E+00  -0.1558988599E-01  -0.1558988599E-01  -0.1355101314E-01  -0.1355101314E-01   0.2314628013E-06   0.0000000000E+00   0.9308110696E+00
   0.0000000000E+00   0.9999208542E+00   0.9999208542E+00   0.0000000000E+00  -0.2073325230E-04  -0.2073325230E-04   0.0000000000E+00  -0.5841254682E-04  -0.5841254682E-04   0.9568016976E+00   0.1459160829E+00   0.1459160829E+00  -0.1429081386E-01  -0.1429081386E-01   0.2284833786E-06   0.0000000000E+00   0.8131543838E+00
   0.2002100000E+01   0.2857427530E-03   0.2857427530E-03   0.1000000000E-03  -0.1020691016E-04  -0.1020691016E-04   0.2000000000E-02   0.2959496631E-03   0.2959496631E-03   0.8333258712E+00  -0.1587452483E+00  -0.1587452483E+00   0.1203058223E-01   0.1203058223E-01   0.2217084268E-06   0.0000000000E+00   0.9933862659E+00
   0.2002100000E+01   0.9997142572E+00   0.2857427530E-03   0.1000000000E-03   0.1020691016E-04  -0.1020691016E-04   0.2000000000E-02  -0.2959496631E-03   0.2959496631E-03   0.8333258711E+00  -0.1587452483E+00  -0.1587452483E+00  -0.1203058223E-01   0.1203058223E-01  -0.2217093795E-06   0.0000000000E+00   0.9933862659E+00
   0.2002100000E+01   0.2857427530E-03   0.9997142572E+00   0.1000000000E-03  -0.1020691016E-04   0.1020691016E-04   0.2000000000E-02   0.2959496631E-03  -0.2959496631E-03   0.8333258711E+00  -0.1587452483E+00  -0.1587452483E+00   0.1203058223E-01  -0.1203058223E-01  -0.2217093795E-06   0.0000000000E+00   0.9933862659E+00
   0.2002100000E+01   0.9997142572E+00   0.9997142572E+00   0.1000000000E-03   0.1020691016E-04   0.1020691016E-04   0.2000000000E-02  -0.2959496631E-03  -0.2959496631E-03   0.8333258711E+00  -0.1587452483E+00  -0.1587452483E+00  -0.1203058223E-01  -0.1203058223E-01   0.2217103323E-06   0.0000000000E+00   0.9933862658E+00
     1     2     3     4     5     6     7     8
     2     9    10     3     6    11    12     7
 VARIABLES = X,Y,Z,DU1,DU2,DU3,U1,U2,U3,S11,S22,S33,S12,S13,S23,Vf,SMISES
 ZONE, T="0.2200D+00" F=FEPOINT, I=   12 J=    2 ET=BRICK
   0.0000000000E+00   0.1028719116E-03   0.1028719116E-03   0.0000000000E+00   0.2372611245E-04   0.2372611245E-04   0.0000000000E+00   0.7914579912E-04   0.7914579912E-04   0.1022427986E+01   0.1410550906E+00   0.1410550906E+00   0.1211807011E-01   0.1211807011E-01   0.1471051493E-06   0.0000000000E+00   0.8828732960E+00
   0.1001021188E+01   0.1803338249E-03   0.1803338249E-03   0.6631497245E-04   0.4073288192E-05   0.4073288192E-05   0.9548733477E-03   0.1762605367E-03   0.1762605367E-03   0.9633498286E+00   0.6412128817E-02   0.6412128817E-02   0.1142892988E-01   0.1142892988E-01   0.1586036809E-06   0.0000000000E+00   0.9581769888E+00
   0.1001021188E+01   0.9998196662E+00   0.1803338249E-03   0.6631497245E-04  -0.4073288192E-05   0.4073288192E-05   0.9548733477E-03  -0.1762605367E-03   0.1762605367E-03   0.9633498286E+00   0.6412128817E-02   0.6412128818E-02  -0.1142892988E-01   0.1142892988E-01  -0.1586041955E-06   0.0000000000E+00   0.9581769888E+00
   0.0000000000E+00   0.9998971281E+00   0.1028719116E-03   0.0000000000E+00  -0.2372611245E-04   0.2372611245E-04   0.0000000000E+00  -0.7914579912E-04   0.7914579912E-04   0.1022427986E+01   0.1410550906E+00   0.1410550906E+00  -0.1211807011E-01   0.1211807010E-01  -0.1471053821E-06   0.0000000000E+00   0.8828732959E+00
   0.0000000000E+00   0.1028719116E-03   0.9998971281E+00   0.0000000000E+00   0.2372611245E-04  -0.2372611245E-04   0.0000000000E+00   0.7914579912E-04  -0.7914579912E-04   0.1022427986E+01   0.1410550906E+00   0.1410550906E+00   0.1211807010E-01  -0.1211807011E-01  -0.1471053821E-06   0.0000000000E+00   0.8828732959E+00
   0.1001021188E+01   0.1803338249E-03   0.9998196662E+00   0.6631497245E-04   0.4073288192E-05  -0.4073288192E-05   0.9548733477E-03   0.1762605367E-03  -0.1762605367E-03   0.9633498286E+00   0.6412128818E-02   0.6412128817E-02   0.1142892988E-01  -0.1142892988E-01  -0.1586041955E-06   0.0000000000E+00   0.9581769888E+00
   0.1001021188E+01   0.9998196662E+00   0.9998196662E+00   0.6631497245E-04  -0.4073288192E-05  -0.4073288192E-05   0.9548733476E-03  -0.1762605367E-03  -0.1762605367E-03   0.9633498285E+00   0.6412128818E-02   0.6412128818E-02  -0.1142892988E-01  -0.1142892988E-01   0.1586047102E-06   0.0000000000E+00   0.9581769888E+00
   0.0000000000E+00   0.9998971281E+00   0.9998971281E+00   0.0000000000E+00  -0.2372611245E-04  -0.2372611245E-04   0.0000000000E+00  -0.7914579912E-04  -0.7914579912E-04   0.1022427986E+01   0.1410550906E+00   0.1410550906E+00  -0.1211807011E-01  -0.1211807011E-01   0.1471056149E-06   0.0000000000E+00   0.8828732959E+00
   0.2002200000E+01   0.2735549620E-03   0.2735549620E-03   0.1000000000E-03  -0.1218779102E-04  -0.1218779102E-04   0.2100000000E-02   0.2857427530E-03   0.2857427530E-03   0.8730318111E+00  -0.1126109028E+00  -0.1126109028E+00   0.1005647060E-01   0.1005647060E-01   0.1622009654E-06   0.0000000000E+00   0.9865681081E+00
   0.2002200000E+01   0.9997264450E+00   0.2735549620E-03   0.1000000000E-03   0.1218779102E-04  -0.1218779102E-04   0.2100000000E-02  -0.2857427530E-03   0.2857427530E-03   0.8730318111E+00  -0.1126109028E+00  -0.1126109028E+00  -0.1005647060E-01   0.1005647060E-01  -0.1622016723E-06   0.0000000000E+00   0.9865681080E+00
   0.2002200000E+01   0.2735549620E-03   0.9997264450E+00   0.1000000000E-03  -0.1218779102E-04   0.1218779102E-04   0.2100000000E-02   0.2857427530E-03  -0.2857427530E-03   0.8730318111E+00  -0.1126109028E+00  -0.1126109028E+00   0.1005647060E-01  -0.1005647060E-01  -0.1622016723E-06   0.0000000000E+00   0.9865681080E+00
   0.2002200000E+01   0.9997264450E+00   0.9997264450E+00   0.1000000000E-03   0.1218779102E-04   0.1218779102E-04   0.2100000000E-02  -0.2857427530E-03  -0.2857427530E-03   0.8730318111E+00  -0.1126109028E+00  -0.1126109028E+00  -0.1005647060E-01  -0.1005647060E-01   0.1622023792E-06   0.0000000000E+00   0.9865681080E+00
     1     2     3     4     5     6     7     8
     2     9    10     3     6    11    12     7
 VARIABLES = X,Y,Z,DU1,DU2,DU3,U1,U2,U3,S11,S22,S33,S12,S13,S23,Vf,SMISES
 ZONE, T="0.2300D+00" F=FEPOINT, I=   12 J=    2 ET=BRICK
   0.0000000000E+00   0.1292571264E-03   0.1292571264E-03   0.0000000000E+00   0.2638521485E-04   0.2638521485E-04   0.0000000000E+00   0.1028719116E-03   0.1028719116E-03   0.1075448183E+01   0.1301840997E+00   0.1301840997E+00   0.9537884296E-02   0.9537884296E-02   0.6699542723E-07   0.0000000000E+00   0.9461306054E+00
   0.1001085877E+01   0.1851778883E-03   0.1851778883E-03   0.6468914869E-04   0.4844063410E-05   0.4844063410E-05   0.1021188320E-02   0.1803338249E-03   0.1803338249E-03   0.1008816640E+01   0.2817568408E-01   0.2817568408E-01   0.8988804438E-02   0.8988804438E-02   0.8801809248E-07   0.0000000000E+00   0.9813857490E+00
   0.1001085877E+01   0.9998148221E+00   0.1851778883E-03   0.6468914869E-04  -0.4844063409E-05   0.4844063410E-05   0.1021188320E-02  -0.1803338249E-03   0.1803338249E-03   0.1008816640E+01   0.2817568408E-01   0.2817568408E-01  -0.8988804445E-02   0.8988804437E-02  -0.8801848314E-07   0.0000000000E+00   0.9813857489E+00
   0.0000000000E+00   0.9998707429E+00   0.1292571264E-03   0.0000000000E+00  -0.2638521485E-04   0.2638521485E-04   0.0000000000E+00  -0.1028719116E-03   0.1028719116E-03   0.1075448183E+01   0.1301840997E+00   0.1301840997E+00  -0.9537884298E-02   0.9537884296E-02  -0.6699568572E-07   0.0000000000E+00   0.9461306054E+00
   0.0000000000E+00   0.1292571264E-03   0.9998707429E+00   0.0000000000E+00   0.2638521485E-04  -0.2638521485E-04   0.0000000000E+00   0.1028719116E-03  -0.1028719116E-03   0.1075448183E+01   0.1301840997E+00   0.1301840997E+00   0.9537884296E-02  -0.9537884298E-02  -0.6699568574E-07   0.0000000000E+00   0.9461306054E+00
   0.1001085877E+01   0.1851778883E-03   0.9998148221E+00   0.6468914869E-04   0.4844063410E-05  -0.4844063409E-05   0.1021188320E-02   0.1803338249E-03  -0.1803338249E-03   0.1008816640E+01   0.2817568408E-01   0.2817568408E-01   0.8988804437E-02  -0.8988804445E-02  -0.8801848315E-07   0.0000000000E+00   0.9813857489E+00
   0.1001085877E+01   0.9998148221E+00   0.9998148221E+00   0.6468914869E-04  -0.4844063410E-05  -0.4844063410E-05   0.1021188320E-02  -0.1803338249E-03  -0.1803338249E-03   0.1008816640E+01   0.2817568408E-01   0.2817568408E-01  -0.8988804445E-02  -0.8988804445E-02   0.8801887383E-07   0.0000000000E+00   0.9813857489E+00
   0.0000000000E+00   0.9998707429E+00   0.9998707429E+00   0.0000000000E+00  -0.2638521485E-04  -0.2638521485E-04   0.0000000000E+00  -0.1028719116E-03  -0.1028719116E-03   0.1075448183E+01   0.1301840997E+00   0.1301840997E+00  -0.9537884298E-02  -0.9537884298E-02   0.6699594422E-07   0.0000000000E+00   0.9461306053E+00
   0.2002300000E+01   0.2604917775E-03   0.2604917775E-03   0.1000000000E-03  -0.1306318450E-04  -0.1306318450E-04   0.2200000000E-02   0.2735549620E-03   0.2735549620E-03   0.9184370249E+00  -0.6195869588E-01  -0.6195869588E-01   0.7854130534E-02   0.7854130534E-02   0.1055600194E-06   0.0000000000E+00   0.9809637863E+00
   0.2002300000E+01   0.9997395082E+00   0.2604917775E-03   0.1000000000E-03   0.1306318450E-04  -0.1306318450E-04   0.2200000000E-02  -0.2735549619E-03   0.2735549620E-03   0.9184370249E+00  -0.6195869588E-01  -0.6195869587E-01  -0.7854130535E-02   0.7854130533E-02  -0.1055604696E-06   0.0000000000E+00   0.9809637863E+00
   0.2002300000E+01   0.2604917775E-03   0.9997395082E+00   0.1000000000E-03  -0.1306318450E-04   0.1306318450E-04   0.2200000000E-02   0.2735549620E-03  -0.2735549619E-03   0.9184370249E+00  -0.6195869587E-01  -0.6195869588E-01   0.7854130533E-02  -0.7854130535E-02  -0.1055604696E-06   0.0000000000E+00   0.9809637863E+00
   0.2002300000E+01   0.9997395082E+00   0.9997395082E+00   0.1000000000E-03   0.1306318450E-04   0.1306318450E-04   0.2200000000E-02  -0.2735549619E-03  -0.2735549619E-03   0.9184370248E+00  -0.6195869587E-01  -0.6195869587E-01  -0.7854130535E-02  -0.7854130535E-02   0.1055609197E-06   0.0000000000E+00   0.9809637863E+00
     1     2     3     4     5     6     7     8
     2     9    10     3     6    11    12     7
 VARIABLES = X,Y,Z,DU1,DU2,DU3,U1,U2,U3,S11,S22,S33,S12,S13,S23,Vf,SMISES
 ZONE, T="0.2400D+00" F=FEPOINT, I=   12 J=    2 ET=BRICK
   0.0000000000E+00   0.1578965474E-03   0.1578965474E-03   0.0000000000E+00   0.2863942094E-04   0.2863942094E-04   0.0000000000E+00   0.1292571264E-03   0.1292571264E-03   0.1111960590E+01   0.1150791966E+00   0.1150791966E+00   0.6665819942E-02   0.6665819942E-02  -0.1362948211E-08   0.0000000000E+00   0.9972827203E+00
   0.1001149218E+01   0.1911849388E-03   0.1911849388E-03   0.6334099001E-04   0.6007050556E-05   0.6007050556E-05   0.1085877469E-02   0.1851778883E-03   0.1851778883E-03   0.1047757662E+01   0.4830529781E-01   0.4830529781E-01   0.6345000527E-02   0.6345000527E-02   0.2808227503E-07   0.0000000000E+00   0.9998158848E+00
   0.1001149218E+01   0.9998088151E+00   0.1911849388E-03   0.6334099001E-04  -0.6007050556E-05   0.6007050556E-05   0.1085877469E-02  -0.1851778883E-03   0.1851778883E-03   0.1047757662E+01   0.4830529780E-01   0.4830529780E-01  -0.6345000535E-02   0.6345000527E-02  -0.2808254494E-07   0.0000000000E+00   0.9998158848E+00
   0.0000000000E+00   0.9998421035E+00   0.1578965474E-03   0.0000000000E+00  -0.2863942094E-04   0.2863942094E-04   0.0000000000E+00  -0.1292571264E-03   0.1292571264E-03   0.1111960590E+01   0.1150791966E+00   0.1150791966E+00  -0.6665819944E-02   0.6665819942E-02   0.1362657128E-08   0.0000000000E+00   0.9972827203E+00
   0.0000000000E+00   0.1578965474E-03   0.9998421035E+00   0.0000000000E+00   0.2863942094E-04  -0.2863942094E-04   0.0000000000E+00   0.1292571264E-03  -0.1292571264E-03   0.1111960590E+01   0.1150791966E+00   0.1150791966E+00   0.6665819942E-02  -0.6665819944E-02   0.1362657111E-08   0.0000000000E+00   0.9972827203E+00
   0.1001149218E+01   0.1911849388E-03   0.9998088151E+00   0.6334099001E-04   0.6007050556E-05  -0.6007050556E-05   0.1085877469E-02   0.1851778883E-03  -0.1851778883E-03   0.1047757662E+01   0.4830529780E-01   0.4830529780E-01   0.6345000527E-02  -0.6345000535E-02  -0.2808254495E-07   0.0000000000E+00   0.9998158848E+00
   0.1001149218E+01   0.9998088151E+00   0.9998088151E+00   0.6334099001E-04  -0.6007050556E-05  -0.6007050556E-05   0.1085877469E-02  -0.1851778883E-03  -0.1851778883E-03   0.1047757662E+01   0.4830529780E-01   0.4830529780E-01  -0.6345000535E-02  -0.6345000535E-02   0.2808281487E-07   0.0000000000E+00   0.9998158847E+00
   0.0000000000E+00   0.9998421035E+00   0.9998421035E+00   0.0000000000E+00  -0.2863942094E-04  -0.2863942094E-04   0.0000000000E+00  -0.1292571264E-03  -0.1292571264E-03   0.1111960590E+01   0.1150791966E+00   0.1150791966E+00  -0.6665819944E-02  -0.6665819944E-02  -0.1362366034E-08   0.0000000000E+00   0.9972827202E+00
   0.2002400000E+01   0.2476518299E-03   0.2476518299E-03   0.1000000000E-03  -0.1283994757E-04  -0.1283994757E-04   0.2300000000E-02   0.2604917775E-03   0.2604917775E-03   0.9668238009E+00  -0.1010313426E-01  -0.1010313426E-01   0.5499665716E-02   0.5499665716E-02   0.5760366262E-07   0.0000000000E+00   0.9772072431E+00
   0.2002400000E+01   0.9997523482E+00   0.2476518299E-03   0.1000000000E-03   0.1283994757E-04  -0.1283994757E-04   0.2300000000E-02  -0.2604917774E-03   0.2604917775E-03   0.9668238009E+00  -0.1010313426E-01  -0.1010313426E-01  -0.5499665717E-02   0.5499665715E-02  -0.5760385520E-07   0.0000000000E+00   0.9772072431E+00
   0.2002400000E+01   0.2476518299E-03   0.9997523482E+00   0.1000000000E-03  -0.1283994757E-04   0.1283994757E-04   0.2300000000E-02   0.2604917775E-03  -0.2604917774E-03   0.9668238009E+00  -0.1010313426E-01  -0.1010313426E-01   0.5499665715E-02  -0.5499665717E-02  -0.5760385521E-07   0.0000000000E+00   0.9772072431E+00
   0.2002400000E+01   0.9997523482E+00   0.9997523482E+00   0.1000000000E-03   0.1283994757E-04   0.1283994757E-04   0.2300000000E-02  -0.2604917774E-03  -0.2604917774E-03   0.9668238009E+00  -0.1010313426E-01  -0.1010313426E-01  -0.5499665717E-02  -0.5499665717E-02   0.5760404781E-07   0.0000000000E+00   0.9772072430E+00
     1     2     3     4     5     6     7     8
     2     9    10     3     6    11    12     7
 VARIABLES = X,Y,Z,DU1,DU2,DU3,U1,U2,U3,S11,S22,S33,S12,S13,S23,Vf,SMISES
 ZONE, T="0.2500D+00" F=FEPOINT, I=   12 J=    2 ET=BRICK
   0.0000000000E+00   0.1883274348E-03   0.1883274348E-03   0.0000000000E+00   0.3043088747E-04   0.3043088747E-04   0.0000000000E+00   0.1578965474E-03   0.1578965474E-03   0.1131046935E+01   0.9664436191E-01   0.9664436191E-01   0.3680642944E-02   0.3680642944E-02  -0.4957372278E-07   0.0000000000E+00   0.1034520547E+01
   0.1001211634E+01   0.1986664575E-03   0.1986664575E-03   0.6241545816E-04   0.7481518641E-05   0.7481518641E-05   0.1149218459E-02   0.1911849388E-03   0.1911849388E-03   0.1079016118E+01   0.6520442779E-01   0.6520442779E-01   0.3627558477E-02   0.3627558477E-02  -0.1506245294E-07   0.0000000000E+00   0.1013929657E+01
   0.1001211634E+01   0.9998013335E+00   0.1986664575E-03   0.6241545816E-04  -0.7481518640E-05   0.7481518641E-05   0.1149218459E-02  -0.1911849388E-03   0.1911849388E-03   0.1079016118E+01   0.6520442779E-01   0.6520442779E-01  -0.3627558484E-02   0.3627558477E-02   0.1506229448E-07   0.0000000000E+00   0.1013929657E+01
   0.0000000000E+00   0.9998116726E+00   0.1883274348E-03   0.0000000000E+00  -0.3043088747E-04   0.3043088747E-04   0.0000000000E+00  -0.1578965474E-03   0.1578965474E-03   0.1131046935E+01   0.9664436190E-01   0.9664436191E-01  -0.3680642946E-02   0.3680642944E-02   0.4957339327E-07   0.0000000000E+00   0.1034520547E+01
   0.0000000000E+00   0.1883274348E-03   0.9998116726E+00   0.0000000000E+00   0.3043088747E-04  -0.3043088747E-04   0.0000000000E+00   0.1578965474E-03  -0.1578965474E-03   0.1131046935E+01   0.9664436191E-01   0.9664436190E-01   0.3680642944E-02  -0.3680642946E-02   0.4957339325E-07   0.0000000000E+00   0.1034520547E+01
   0.1001211634E+01   0.1986664575E-03   0.9998013335E+00   0.6241545816E-04   0.7481518641E-05  -0.7481518640E-05   0.1149218459E-02   0.1911849388E-03  -0.1911849388E-03   0.1079016118E+01   0.6520442779E-01   0.6520442779E-01   0.3627558477E-02  -0.3627558484E-02   0.1506229447E-07   0.0000000000E+00   0.1013929657E+01
   0.1001211634E+01   0.9998013335E+00   0.9998013335E+00   0.6241545816E-04  -0.7481518641E-05  -0.7481518641E-05   0.1149218459E-02  -0.1911849388E-03  -0.1911849388E-03   0.1079016118E+01   0.6520442779E-01   0.6520442779E-01  -0.3627558484E-02  -0.3627558484E-02  -0.1506213601E-07   0.0000000000E+00   0.1013929657E+01
   0.0000000000E+00   0.9998116726E+00   0.9998116726E+00   0.0000000000E+00  -0.3043088747E-04  -0.3043088747E-04   0.0000000000E+00  -0.1578965474E-03  -0.1578965474E-03   0.1131046935E+01   0.9664436190E-01   0.9664436190E-01  -0.3680642946E-02  -0.3680642946E-02  -0.4957306375E-07   0.0000000000E+00   0.1034520547E+01
   0.2002500000E+01   0.2360584733E-03   0.2360584733E-03   0.1000000000E-03  -0.1159335659E-04  -0.1159335659E-04   0.2400000000E-02   0.2476518299E-03   0.2476518299E-03   0.1015252657E+01   0.3963081564E-01   0.3963081564E-01   0.3076163715E-02   0.3076163715E-02   0.2267673958E-07   0.0000000000E+00   0.9757107774E+00
   0.2002500000E+01   0.9997639415E+00   0.2360584733E-03   0.1000000000E-03   0.1159335659E-04  -0.1159335659E-04   0.2400000000E-02  -0.2476518299E-03   0.2476518299E-03   0.1015252657E+01   0.3963081563E-01   0.3963081563E-01  -0.3076163716E-02   0.3076163715E-02  -0.2267668396E-07   0.0000000000E+00   0.9757107774E+00
   0.2002500000E+01   0.2360584733E-03   0.9997639415E+00   0.1000000000E-03  -0.1159335659E-04   0.1159335659E-04   0.2400000000E-02   0.2476518299E-03  -0.2476518299E-03   0.1015252657E+01   0.3963081563E-01   0.3963081563E-01   0.3076163715E-02  -0.3076163716E-02  -0.2267668398E-07   0.0000000000E+00   0.9757107774E+00
   0.2002500000E+01   0.9997639415E+00   0.9997639415E+00   0.1000000000E-03   0.1159335659E-04   0.1159335659E-04   0.2400000000E-02  -0.2476518299E-03  -0.2476518299E-03   0.1015252657E+01   0.3963081563E-01   0.3963081563E-01  -0.3076163716E-02  -0.3076163716E-02   0.2267662837E-07   0.0000000000E+00   0.9757107774E+00
     1     2     3     4     5     6     7     8
     2     9    10     3     6    11    12     7
 VARIABLES = X,Y,Z,DU1,DU2,DU3,U1,U2,U3,S11,S22,S33,S12,S13,S23,Vf,SMISES
 ZONE, T="0.2600D+00" F=FEPOINT, I=   12 J=    2 ET=BRICK
   0.0000000000E+00   0.2200261509E-03   0.2200261509E-03   0.0000000000E+00   0.3169871608E-04   0.3169871608E-04   0.0000000000E+00   0.1883274348E-03   0.1883274348E-03   0.1134660519E+01   0.7496816595E-01   0.7496816595E-01   0.7638084759E-03   0.7638084759E-03  -0.7378793092E-07   0.0000000000E+00   0.1059697399E+01
   0.1001273630E+01   0.2078227541E-03   0.2078227541E-03   0.6199628906E-04   0.9156296672E-05   0.9156296672E-05   0.1211633917E-02   0.1986664575E-03   0.1986664575E-03   0.1102150664E+01   0.7735212793E-01   0.7735212793E-01   0.9609118547E-03   0.9609118547E-03  -0.3852028550E-07   0.0000000000E+00   0.1024808781E+01
   0.1001273630E+01   0.9997921772E+00   0.2078227541E-03   0.6199628906E-04  -0.9156296672E-05   0.9156296673E-05   0.1211633917E-02  -0.1986664575E-03   0.1986664575E-03   0.1102150664E+01   0.7735212793E-01   0.7735212793E-01  -0.9609118615E-03   0.9609118547E-03   0.3852022425E-07   0.0000000000E+00   0.1024808781E+01
   0.0000000000E+00   0.9997799738E+00   0.2200261509E-03   0.0000000000E+00  -0.3169871608E-04   0.3169871608E-04   0.0000000000E+00  -0.1883274348E-03   0.1883274348E-03   0.1134660519E+01   0.7496816595E-01   0.7496816595E-01  -0.7638084777E-03   0.7638084760E-03   0.7378755840E-07   0.0000000000E+00   0.1059697399E+01
   0.0000000000E+00   0.2200261509E-03   0.9997799738E+00   0.0000000000E+00   0.3169871608E-04  -0.3169871608E-04   0.0000000000E+00   0.1883274348E-03  -0.1883274348E-03   0.1134660519E+01   0.7496816595E-01   0.7496816595E-01   0.7638084760E-03  -0.7638084777E-03   0.7378755838E-07   0.0000000000E+00   0.1059697399E+01
   0.1001273630E+01   0.2078227541E-03   0.9997921772E+00   0.6199628906E-04   0.9156296673E-05  -0.9156296672E-05   0.1211633917E-02   0.1986664575E-03  -0.1986664575E-03   0.1102150664E+01   0.7735212793E-01   0.7735212793E-01   0.9609118547E-03  -0.9609118615E-03   0.3852022424E-07   0.0000000000E+00   0.1024808781E+01
   0.1001273630E+01   0.9997921772E+00   0.9997921772E+00   0.6199628906E-04  -0.9156296672E-05  -0.9156296672E-05   0.1211633917E-02  -0.1986664575E-03  -0.1986664575E-03   0.1102150664E+01   0.7735212792E-01   0.7735212792E-01  -0.9609118615E-03  -0.9609118615E-03  -0.3852016298E-07   0.0000000000E+00   0.1024808781E+01
   0.0000000000E+00   0.9997799738E+00   0.9997799738E+00   0.0000000000E+00  -0.3169871608E-04  -0.3169871608E-04   0.0000000000E+00  -0.1883274348E-03  -0.1883274348E-03   0.1134660519E+01   0.7496816595E-01   0.7496816595E-01  -0.7638084777E-03  -0.7638084777E-03  -0.7378718588E-07   0.0000000000E+00   0.1059697399E+01
   0.2002600000E+01   0.2265986593E-03   0.2265986593E-03   0.1000000000E-03  -0.9459813974E-05  -0.9459813974E-05   0.2500000000E-02   0.2360584733E-03   0.2360584733E-03   0.1060796308E+01   0.8415834058E-01   0.8415834058E-01   0.6704251207E-03   0.6704251207E-03   0.3118178400E-08   0.0000000000E+00   0.9766438686E+00
   0.2002600000E+01   0.9997734013E+00   0.2265986593E-03   0.1000000000E-03   0.9459813975E-05  -0.9459813973E-05   0.2500000000E-02  -0.2360584733E-03   0.2360584733E-03   0.1060796308E+01   0.8415834058E-01   0.8415834058E-01  -0.6704251221E-03   0.6704251206E-03  -0.3117893407E-08   0.0000000000E+00   0.9766438686E+00
   0.2002600000E+01   0.2265986593E-03   0.9997734013E+00   0.1000000000E-03  -0.9459813973E-05   0.9459813975E-05   0.2500000000E-02   0.2360584733E-03  -0.2360584733E-03   0.1060796308E+01   0.8415834058E-01   0.8415834058E-01   0.6704251206E-03  -0.6704251221E-03  -0.3117893424E-08   0.0000000000E+00   0.9766438686E+00
   0.2002600000E+01   0.9997734013E+00   0.9997734013E+00   0.1000000000E-03   0.9459813974E-05   0.9459813974E-05   0.2500000000E-02  -0.2360584733E-03  -0.2360584733E-03   0.1060796308E+01   0.8415834057E-01   0.8415834057E-01  -0.6704251221E-03  -0.6704251221E-03   0.3117608453E-08   0.0000000000E+00   0.9766438685E+00
     1     2     3     4     5     6     7     8
     2     9    10     3     6    11    12     7
 VARIABLES = X,Y,Z,DU1,DU2,DU3,U1,U2,U3,S11,S22,S33,S12,S13,S23,Vf,SMISES
 ZONE, T="0.2700D+00" F=FEPOINT, I=   12 J=    2 ET=BRICK
   0.0000000000E+00   0.2524106326E-03   0.2524106326E-03   0.0000000000E+00   0.3238448171E-04   0.3238448171E-04   0.0000000000E+00   0.2200261509E-03   0.2200261509E-03   0.1126120847E+01   0.5008510569E-01   0.5008510569E-01  -0.1941905378E-02  -0.1941905378E-02  -0.7486569588E-07   0.0000000000E+00   0.1076067412E+01
   0.1001335736E+01   0.2187243334E-03   0.2187243334E-03   0.6210599906E-04   0.1090157930E-04   0.1090157930E-04   0.1273630206E-02   0.2078227541E-03   0.2078227541E-03   0.1117148914E+01   0.8363026137E-01   0.8363026137E-01  -0.1547454468E-02  -0.1547454468E-02  -0.4265214819E-07   0.0000000000E+00   0.1033542755E+01
   0.1001335736E+01   0.9997812757E+00   0.2187243334E-03   0.6210599906E-04  -0.1090157930E-04   0.1090157930E-04   0.1273630206E-02  -0.2078227541E-03   0.2078227541E-03   0.1117148914E+01   0.8363026137E-01   0.8363026137E-01   0.1547454461E-02  -0.1547454467E-02   0.4265216657E-07   0.0000000000E+00   0.1033542755E+01
   0.0000000000E+00   0.9997475894E+00   0.2524106326E-03   0.0000000000E+00  -0.3238448171E-04   0.3238448171E-04   0.0000000000E+00  -0.2200261509E-03   0.2200261509E-03   0.1126120847E+01   0.5008510568E-01   0.5008510568E-01   0.1941905376E-02  -0.1941905378E-02   0.7486527758E-07   0.0000000000E+00   0.1076067412E+01
   0.0000000000E+00   0.2524106326E-03   0.9997475894E+00   0.0000000000E+00   0.3238448171E-04  -0.3238448171E-04   0.0000000000E+00   0.2200261509E-03  -0.2200261509E-03   0.1126120847E+01   0.5008510568E-01   0.5008510568E-01  -0.1941905378E-02   0.1941905376E-02   0.7486527755E-07   0.0000000000E+00   0.1076067412E+01
   0.1001335736E+01   0.2187243334E-03   0.9997812757E+00   0.6210599906E-04   0.1090157930E-04  -0.1090157930E-04   0.1273630206E-02   0.2078227541E-03  -0.2078227541E-03   0.1117148914E+01   0.8363026137E-01   0.8363026137E-01  -0.1547454467E-02   0.1547454461E-02   0.4265216656E-07   0.0000000000E+00   0.1033542755E+01
   0.1001335736E+01   0.9997812757E+00   0.9997812757E+00   0.6210599906E-04  -0.1090157930E-04  -0.1090157930E-04   0.1273630206E-02  -0.2078227541E-03  -0.2078227541E-03   0.1117148914E+01   0.8363026137E-01   0.8363026137E-01   0.1547454461E-02   0.1547454461E-02  -0.4265218494E-07   0.0000000000E+00   0.1033542755E+01
   0.0000000000E+00   0.9997475894E+00   0.9997475894E+00   0.0000000000E+00  -0.3238448171E-04  -0.3238448171E-04   0.0000000000E+00  -0.2200261509E-03  -0.2200261509E-03   0.1126120847E+01   0.5008510568E-01   0.5008510568E-01   0.1941905376E-02   0.1941905376E-02  -0.7486485929E-07   0.0000000000E+00   0.1076067411E+01
   0.2002700000E+01   0.2199739469E-03   0.2199739469E-03   0.1000000000E-03  -0.6624712396E-05  -0.6624712396E-05   0.2600000000E-02   0.2265986593E-03   0.2265986593E-03   0.1100774126E+01   0.1208768444E+00   0.1208768444E+00  -0.1630906699E-02  -0.1630906699E-02  -0.9631993672E-09   0.0000000000E+00   0.9799237259E+00
   0.2002700000E+01   0.9997800261E+00   0.2199739469E-03   0.1000000000E-03   0.6624712397E-05  -0.6624712395E-05   0.2600000000E-02  -0.2265986593E-03   0.2265986593E-03   0.1100774126E+01   0.1208768444E+00   0.1208768444E+00   0.1630906698E-02  -0.1630906699E-02   0.9636866829E-09   0.0000000000E+00   0.9799237258E+00
   0.2002700000E+01   0.2199739469E-03   0.9997800261E+00   0.1000000000E-03  -0.6624712395E-05   0.6624712397E-05   0.2600000000E-02   0.2265986593E-03  -0.2265986593E-03   0.1100774126E+01   0.1208768444E+00   0.1208768444E+00  -0.1630906699E-02   0.1630906698E-02   0.9636866661E-09   0.0000000000E+00   0.9799237258E+00
   0.2002700000E+01   0.9997800261E+00   0.9997800261E+00   0.1000000000E-03   0.6624712396E-05   0.6624712396E-05   0.2600000000E-02  -0.2265986593E-03  -0.2265986593E-03   0.1100774125E+01   0.1208768444E+00   0.1208768444E+00   0.1630906698E-02   0.1630906698E-02  -0.9641739593E-09   0.0000000000E+00   0.9799237258E+00
     1     2     3     4     5     6     7     8
     2     9    10     3     6    11    12     7
 VARIABLES = X,Y,Z,DU1,DU2,DU3,U1,U2,U3,S11,S22,S33,S12,S13,S23,Vf,SMISES
 ZONE, T="0.2800D+00" F=FEPOINT, I=   12 J=    2 ET=BRICK
   0.0000000000E+00   0.2848571546E-03   0.2848571546E-03   0.0000000000E+00   0.3244652201E-04   0.3244652201E-04   0.0000000000E+00   0.2524106326E-03   0.2524106326E-03   0.1108949854E+01   0.2251523734E-01   0.2251523734E-01  -0.4339083861E-02  -0.4339083861E-02  -0.5705765913E-07   0.0000000000E+00   0.1086590793E+01
   0.1001398451E+01   0.2313074365E-03   0.2313074365E-03   0.6271451171E-04   0.1258310303E-04   0.1258310303E-04   0.1335736205E-02   0.2187243334E-03   0.2187243334E-03   0.1124288294E+01   0.8351634724E-01   0.8351634724E-01  -0.3810136906E-02  -0.3810136906E-02  -0.3045978248E-07   0.0000000000E+00   0.1040901721E+01
   0.1001398451E+01   0.9997686926E+00   0.2313074365E-03   0.6271451171E-04  -0.1258310303E-04   0.1258310303E-04   0.1335736205E-02  -0.2187243334E-03   0.2187243334E-03   0.1124288294E+01   0.8351634724E-01   0.8351634724E-01   0.3810136901E-02  -0.3810136906E-02   0.3045986141E-07   0.0000000000E+00   0.1040901721E+01
   0.0000000000E+00   0.9997151428E+00   0.2848571546E-03   0.0000000000E+00  -0.3244652201E-04   0.3244652201E-04   0.0000000000E+00  -0.2524106326E-03   0.2524106326E-03   0.1108949854E+01   0.2251523734E-01   0.2251523734E-01   0.4339083860E-02  -0.4339083861E-02   0.5705719486E-07   0.0000000000E+00   0.1086590793E+01
   0.0000000000E+00   0.2848571546E-03   0.9997151428E+00   0.0000000000E+00   0.3244652201E-04  -0.3244652201E-04   0.0000000000E+00   0.2524106326E-03  -0.2524106326E-03   0.1108949854E+01   0.2251523734E-01   0.2251523734E-01  -0.4339083861E-02   0.4339083860E-02   0.5705719483E-07   0.0000000000E+00   0.1086590793E+01
   0.1001398451E+01   0.2313074365E-03   0.9997686926E+00   0.6271451171E-04   0.1258310303E-04  -0.1258310303E-04   0.1335736205E-02   0.2187243334E-03  -0.2187243334E-03   0.1124288294E+01   0.8351634724E-01   0.8351634724E-01  -0.3810136906E-02   0.3810136901E-02   0.3045986139E-07   0.0000000000E+00   0.1040901721E+01
   0.1001398451E+01   0.9997686926E+00   0.9997686926E+00   0.6271451171E-04  -0.1258310303E-04  -0.1258310303E-04   0.1335736205E-02  -0.2187243334E-03  -0.2187243334E-03   0.1124288294E+01   0.8351634723E-01   0.8351634723E-01   0.3810136900E-02   0.3810136900E-02  -0.3045994033E-07   0.0000000000E+00   0.1040901721E+01
   0.0000000000E+00   0.9997151428E+00   0.9997151428E+00   0.0000000000E+00  -0.3244652201E-04  -0.3244652201E-04   0.0000000000E+00  -0.2524106326E-03  -0.2524106326E-03   0.1108949854E+01   0.2251523734E-01   0.2251523734E-01   0.4339083860E-02   0.4339083860E-02  -0.5705673060E-07   0.0000000000E+00   0.1086590793E+01
   0.2002800000E+01   0.2166669908E-03   0.2166669908E-03   0.1000000000E-03  -0.3306956145E-05  -0.3306956145E-05   0.2700000000E-02   0.2199739469E-03   0.2199739469E-03   0.1132952281E+01   0.1478546832E+00   0.1478546832E+00  -0.3745951143E-02  -0.3745951143E-02   0.8431889167E-08   0.0000000000E+00   0.9852281632E+00
   0.2002800000E+01   0.9997833330E+00   0.2166669908E-03   0.1000000000E-03   0.3306956146E-05  -0.3306956144E-05   0.2700000000E-02  -0.2199739469E-03   0.2199739469E-03   0.1132952281E+01   0.1478546832E+00   0.1478546832E+00   0.3745951142E-02  -0.3745951143E-02  -0.8431232958E-08   0.0000000000E+00   0.9852281632E+00
   0.2002800000E+01   0.2166669908E-03   0.9997833330E+00   0.1000000000E-03  -0.3306956144E-05   0.3306956146E-05   0.2700000000E-02   0.2199739469E-03  -0.2199739469E-03   0.1132952281E+01   0.1478546832E+00   0.1478546832E+00  -0.3745951143E-02   0.3745951142E-02  -0.8431232975E-08   0.0000000000E+00   0.9852281632E+00
   0.2002800000E+01   0.9997833330E+00   0.9997833330E+00   0.1000000000E-03   0.3306956146E-05   0.3306956146E-05   0.2700000000E-02  -0.2199739469E-03  -0.2199739469E-03   0.1132952281E+01   0.1478546832E+00   0.1478546832E+00   0.3745951142E-02   0.3745951142E-02   0.8430576789E-08   0.0000000000E+00   0.9852281631E+00
     1     2     3     4     5     6     7     8
     2     9    10     3     6    11    12     7
 VARIABLES = X,Y,Z,DU1,DU2,DU3,U1,U2,U3,S11,S22,S33,S12,S13,S23,Vf,SMISES
 ZONE, T="0.2900D+00" F=FEPOINT, I=   12 J=    2 ET=BRICK
   0.0000000000E+00   0.3167296627E-03   0.3167296627E-03   0.0000000000E+00   0.3187250809E-04   0.3187250809E-04   0.0000000000E+00   0.2848571546E-03   0.2848571546E-03   0.1086415122E+01  -0.6620719092E-02  -0.6620719092E-02  -0.6367670934E-02  -0.6367670934E-02  -0.2641968457E-07   0.0000000000E+00   0.1093370008E+01
   0.1001462200E+01   0.2453829194E-03   0.2453829194E-03   0.6374973876E-04   0.1407548292E-04   0.1407548292E-04   0.1398450717E-02   0.2313074365E-03   0.2313074365E-03   0.1124128002E+01   0.7712538000E-01   0.7712538000E-01  -0.5760423790E-02  -0.5760423790E-02  -0.6687406588E-08   0.0000000000E+00   0.1047292891E+01
   0.1001462200E+01   0.9997546171E+00   0.2453829194E-03   0.6374973876E-04  -0.1407548292E-04   0.1407548292E-04   0.1398450717E-02  -0.2313074365E-03   0.2313074365E-03   0.1124128002E+01   0.7712538000E-01   0.7712538000E-01   0.5760423786E-02  -0.5760423790E-02   0.6687527176E-08   0.0000000000E+00   0.1047292891E+01
   0.0000000000E+00   0.9996832703E+00   0.3167296627E-03   0.0000000000E+00  -0.3187250809E-04   0.3187250809E-04   0.0000000000E+00  -0.2848571546E-03   0.2848571546E-03   0.1086415122E+01  -0.6620719092E-02  -0.6620719091E-02   0.6367670933E-02  -0.6367670933E-02   0.2641917739E-07   0.0000000000E+00   0.1093370008E+01
   0.0000000000E+00   0.3167296627E-03   0.9996832703E+00   0.0000000000E+00   0.3187250809E-04  -0.3187250809E-04   0.0000000000E+00   0.2848571546E-03  -0.2848571546E-03   0.1086415122E+01  -0.6620719091E-02  -0.6620719092E-02  -0.6367670933E-02   0.6367670933E-02   0.2641917737E-07   0.0000000000E+00   0.1093370008E+01
   0.1001462200E+01   0.2453829194E-03   0.9997546171E+00   0.6374973876E-04   0.1407548292E-04  -0.1407548292E-04   0.1398450717E-02   0.2313074365E-03  -0.2313074365E-03   0.1124128002E+01   0.7712538000E-01   0.7712538000E-01  -0.5760423790E-02   0.5760423786E-02   0.6687527161E-08   0.0000000000E+00   0.1047292891E+01
   0.1001462200E+01   0.9997546171E+00   0.9997546171E+00   0.6374973876E-04  -0.1407548292E-04  -0.1407548292E-04   0.1398450717E-02  -0.2313074365E-03  -0.2313074365E-03   0.1124128002E+01   0.7712538000E-01   0.7712538000E-01   0.5760423785E-02   0.5760423785E-02  -0.6687647759E-08   0.0000000000E+00   0.1047292891E+01
   0.0000000000E+00   0.9996832703E+00   0.9996832703E+00   0.0000000000E+00  -0.3187250809E-04  -0.3187250809E-04   0.0000000000E+00  -0.2848571546E-03  -0.2848571546E-03   0.1086415122E+01  -0.6620719091E-02  -0.6620719091E-02   0.6367670933E-02   0.6367670933E-02  -0.2641867023E-07   0.0000000000E+00   0.1093370008E+01
   0.2002900000E+01   0.2169251139E-03   0.2169251139E-03   0.1000000000E-03   0.2581231140E-06   0.2581231140E-06   0.2800000000E-02   0.2166669908E-03   0.2166669908E-03   0.1155695684E+01   0.1639440788E+00   0.1639440788E+00  -0.5602690263E-02  -0.5602690263E-02   0.2764976320E-07   0.0000000000E+00   0.9920391989E+00
   0.2002900000E+01   0.9997830749E+00   0.2169251139E-03   0.1000000000E-03  -0.2581231125E-06   0.2581231146E-06   0.2800000000E-02  -0.2166669908E-03   0.2166669908E-03   0.1155695684E+01   0.1639440788E+00   0.1639440788E+00   0.5602690263E-02  -0.5602690263E-02  -0.2764897569E-07   0.0000000000E+00   0.9920391988E+00
   0.2002900000E+01   0.2169251139E-03   0.9997830749E+00   0.1000000000E-03   0.2581231146E-06  -0.2581231125E-06   0.2800000000E-02   0.2166669908E-03  -0.2166669908E-03   0.1155695684E+01   0.1639440788E+00   0.1639440788E+00  -0.5602690263E-02   0.5602690263E-02  -0.2764897571E-07   0.0000000000E+00   0.9920391988E+00
   0.2002900000E+01   0.9997830749E+00   0.9997830749E+00   0.1000000000E-03  -0.2581231131E-06  -0.2581231131E-06   0.2800000000E-02  -0.2166669908E-03  -0.2166669908E-03   0.1155695684E+01   0.1639440788E+00   0.1639440788E+00   0.5602690263E-02   0.5602690263E-02   0.2764818823E-07   0.0000000000E+00   0.9920391988E+00
     1     2     3     4     5     6     7     8
     2     9    10     3     6    11    12     7
 VARIABLES = X,Y,Z,DU1,DU2,DU3,U1,U2,U3,S11,S22,S33,S12,S13,S23,Vf,SMISES
 ZONE, T="0.3000D+00" F=FEPOINT, I=   12 J=    2 ET=BRICK
   0.0000000000E+00   0.3474166087E-03   0.3474166087E-03   0.0000000000E+00   0.3068694594E-04   0.3068694594E-04   0.0000000000E+00   0.3167296627E-03   0.3167296627E-03   0.1061450928E+01  -0.3573586537E-01  -0.3573586537E-01  -0.7996677962E-02  -0.7996677962E-02   0.1054298572E-07   0.0000000000E+00   0.1097711724E+01
   0.1001527309E+01   0.2606562035E-03   0.2606562035E-03   0.6510819973E-04   0.1527328410E-04   0.1527328410E-04   0.1462200456E-02   0.2453829194E-03   0.2453829194E-03   0.1117534969E+01   0.6515180707E-01   0.6515180707E-01  -0.7352987101E-02  -0.7352987101E-02   0.2317000107E-07   0.0000000000E+00   0.1052851176E+01
   0.1001527309E+01   0.9997393438E+00   0.2606562035E-03   0.6510819973E-04  -0.1527328410E-04   0.1527328410E-04   0.1462200456E-02  -0.2453829194E-03   0.2453829194E-03   0.1117534969E+01   0.6515180707E-01   0.6515180707E-01   0.7352987097E-02  -0.7352987101E-02  -0.2316985594E-07   0.0000000000E+00   0.1052851176E+01
   0.0000000000E+00   0.9996525834E+00   0.3474166086E-03   0.0000000000E+00  -0.3068694594E-04   0.3068694594E-04   0.0000000000E+00  -0.3167296627E-03   0.3167296627E-03   0.1061450928E+01  -0.3573586537E-01  -0.3573586537E-01   0.7996677962E-02  -0.7996677962E-02  -0.1054352907E-07   0.0000000000E+00   0.1097711724E+01
   0.0000000000E+00   0.3474166086E-03   0.9996525834E+00   0.0000000000E+00   0.3068694594E-04  -0.3068694594E-04   0.0000000000E+00   0.3167296627E-03  -0.3167296627E-03   0.1061450928E+01  -0.3573586537E-01  -0.3573586537E-01  -0.7996677962E-02   0.7996677962E-02  -0.1054352909E-07   0.0000000000E+00   0.1097711724E+01
   0.1001527309E+01   0.2606562035E-03   0.9997393438E+00   0.6510819973E-04   0.1527328410E-04  -0.1527328410E-04   0.1462200456E-02   0.2453829194E-03  -0.2453829194E-03   0.1117534969E+01   0.6515180707E-01   0.6515180707E-01  -0.7352987101E-02   0.7352987097E-02  -0.2316985596E-07   0.0000000000E+00   0.1052851176E+01
   0.1001527309E+01   0.9997393438E+00   0.9997393438E+00   0.6510819973E-04  -0.1527328410E-04  -0.1527328410E-04   0.1462200456E-02  -0.2453829194E-03  -0.2453829194E-03   0.1117534969E+01   0.6515180707E-01   0.6515180707E-01   0.7352987097E-02   0.7352987097E-02   0.2316971081E-07   0.0000000000E+00   0.1052851176E+01
   0.0000000000E+00   0.9996525834E+00   0.9996525834E+00   0.0000000000E+00  -0.3068694594E-04  -0.3068694594E-04   0.0000000000E+00  -0.3167296627E-03  -0.3167296627E-03   0.1061450928E+01  -0.3573586537E-01  -0.3573586537E-01   0.7996677962E-02   0.7996677962E-02   0.1054407241E-07   0.0000000000E+00   0.1097711724E+01
   0.2003000000E+01   0.2207609282E-03   0.2207609282E-03   0.1000000000E-03   0.3835814347E-05   0.3835814347E-05   0.2900000000E-02   0.2169251139E-03   0.2169251139E-03   0.1168069150E+01   0.1688144099E+00   0.1688144099E+00  -0.7144052884E-02  -0.7144052884E-02   0.5210076047E-07   0.0000000000E+00   0.9997174574E+00
   0.2003000000E+01   0.9997792391E+00   0.2207609282E-03   0.1000000000E-03  -0.3835814345E-05   0.3835814348E-05   0.2900000000E-02  -0.2169251139E-03   0.2169251139E-03   0.1168069150E+01   0.1688144099E+00   0.1688144099E+00   0.7144052884E-02  -0.7144052884E-02  -0.5209988097E-07   0.0000000000E+00   0.9997174573E+00
   0.2003000000E+01   0.2207609282E-03   0.9997792391E+00   0.1000000000E-03   0.3835814348E-05  -0.3835814345E-05   0.2900000000E-02   0.2169251139E-03  -0.2169251139E-03   0.1168069150E+01   0.1688144099E+00   0.1688144099E+00  -0.7144052884E-02   0.7144052884E-02  -0.5209988099E-07   0.0000000000E+00   0.9997174573E+00
   0.2003000000E+01   0.9997792391E+00   0.9997792391E+00   0.1000000000E-03  -0.3835814346E-05  -0.3835814346E-05   0.2900000000E-02  -0.2169251139E-03  -0.2169251139E-03   0.1168069150E+01   0.1688144099E+00   0.1688144099E+00   0.7144052884E-02   0.7144052884E-02   0.5209900151E-07   0.0000000000E+00   0.9997174573E+00
     1     2     3     4     5     6     7     8
     2     9    10     3     6    11    12     7
 VARIABLES = X,Y,Z,DU1,DU2,DU3,U1,U2,U3,S11,S22,S33,S12,S13,S23,Vf,SMISES
 ZONE, T="0.3100D+00" F=FEPOINT, I=   12 J=    2 ET=BRICK
   0.0000000000E+00   0.3763700869E-03   0.3763700869E-03   0.0000000000E+00   0.2895347829E-04   0.2895347829E-04   0.0000000000E+00   0.3474166087E-03   0.3474166087E-03   0.1036671858E+01  -0.6299697141E-01  -0.6299697141E-01  -0.9218877246E-02  -0.9218877246E-02   0.4791355872E-07   0.0000000000E+00   0.1100364840E+01
   0.1001593974E+01   0.2767554323E-03   0.2767554323E-03   0.6666552168E-04   0.1609922878E-04   0.1609922878E-04   0.1527308655E-02   0.2606562035E-03   0.2606562035E-03   0.1105682055E+01   0.4875670820E-01   0.4875670820E-01  -0.8564583606E-02  -0.8564583606E-02   0.5381410208E-07   0.0000000000E+00   0.1057556041E+01
   0.1001593974E+01   0.9997232446E+00   0.2767554323E-03   0.6666552168E-04  -0.1609922878E-04   0.1609922878E-04   0.1527308655E-02  -0.2606562035E-03   0.2606562035E-03   0.1105682055E+01   0.4875670820E-01   0.4875670820E-01   0.8564583603E-02  -0.8564583606E-02  -0.5381394651E-07   0.0000000000E+00   0.1057556041E+01
   0.0000000000E+00   0.9996236299E+00   0.3763700869E-03   0.0000000000E+00  -0.2895347829E-04   0.2895347828E-04   0.0000000000E+00  -0.3474166087E-03   0.3474166086E-03   0.1036671858E+01  -0.6299697140E-01  -0.6299697140E-01   0.9218877246E-02  -0.9218877245E-02  -0.4791412783E-07   0.0000000000E+00   0.1100364840E+01
   0.0000000000E+00   0.3763700869E-03   0.9996236299E+00   0.0000000000E+00   0.2895347828E-04  -0.2895347829E-04   0.0000000000E+00   0.3474166086E-03  -0.3474166087E-03   0.1036671858E+01  -0.6299697140E-01  -0.6299697140E-01  -0.9218877245E-02   0.9218877246E-02  -0.4791412786E-07   0.0000000000E+00   0.1100364840E+01
   0.1001593974E+01   0.2767554323E-03   0.9997232446E+00   0.6666552168E-04   0.1609922878E-04  -0.1609922878E-04   0.1527308655E-02   0.2606562035E-03  -0.2606562035E-03   0.1105682055E+01   0.4875670820E-01   0.4875670820E-01  -0.8564583606E-02   0.8564583603E-02  -0.5381394653E-07   0.0000000000E+00   0.1057556041E+01
   0.1001593974E+01   0.9997232446E+00   0.9997232446E+00   0.6666552168E-04  -0.1609922878E-04  -0.1609922878E-04   0.1527308655E-02  -0.2606562035E-03  -0.2606562035E-03   0.1105682055E+01   0.4875670819E-01   0.4875670819E-01   0.8564583603E-02   0.8564583603E-02   0.5381379094E-07   0.0000000000E+00   0.1057556041E+01
   0.0000000000E+00   0.9996236299E+00   0.9996236299E+00   0.0000000000E+00  -0.2895347829E-04  -0.2895347829E-04   0.0000000000E+00  -0.3474166087E-03  -0.3474166087E-03   0.1036671858E+01  -0.6299697140E-01  -0.6299697140E-01   0.9218877245E-02   0.9218877245E-02   0.4791469695E-07   0.0000000000E+00   0.1100364840E+01
   0.2003100000E+01   0.2279685885E-03   0.2279685885E-03   0.1000000000E-03   0.7207660224E-05   0.7207660224E-05   0.3000000000E-02   0.2207609282E-03   0.2207609282E-03   0.1169885229E+01   0.1629138992E+00   0.1629138992E+00  -0.8332282333E-02  -0.8332282333E-02   0.7709754948E-07   0.0000000000E+00   0.1007595069E+01
   0.2003100000E+01   0.9997720314E+00   0.2279685885E-03   0.1000000000E-03  -0.7207660222E-05   0.7207660224E-05   0.3000000000E-02  -0.2207609282E-03   0.2207609282E-03   0.1169885229E+01   0.1629138992E+00   0.1629138992E+00   0.8332282334E-02  -0.8332282333E-02  -0.7709661646E-07   0.0000000000E+00   0.1007595069E+01
   0.2003100000E+01   0.2279685885E-03   0.9997720314E+00   0.1000000000E-03   0.7207660224E-05  -0.7207660222E-05   0.3000000000E-02   0.2207609282E-03  -0.2207609282E-03   0.1169885229E+01   0.1629138992E+00   0.1629138992E+00  -0.8332282333E-02   0.8332282334E-02  -0.7709661647E-07   0.0000000000E+00   0.1007595069E+01
   0.2003100000E+01   0.9997720314E+00   0.9997720314E+00   0.1000000000E-03  -0.7207660222E-05  -0.7207660222E-05   0.3000000000E-02  -0.2207609282E-03  -0.2207609282E-03   0.1169885229E+01   0.1629138992E+00   0.1629138992E+00   0.8332282333E-02   0.8332282333E-02   0.7709568347E-07   0.0000000000E+00   0.1007595069E+01
     1     2     3     4     5     6     7     8
     2     9    10     3     6    11    12     7
 VARIABLES = X,Y,Z,DU1,DU2,DU3,U1,U2,U3,S11,S22,S33,S12,S13,S23,Vf,SMISES
 ZONE, T="0.3200D+00" F=FEPOINT, I=   12 J=    2 ET=BRICK
   0.0000000000E+00   0.4031427579E-03   0.4031427579E-03   0.0000000000E+00   0.2677267094E-04   0.2677267094E-04   0.0000000000E+00   0.3763700869E-03   0.3763700869E-03   0.1014365710E+01  -0.8654952646E-01  -0.8654952646E-01  -0.1004738555E-01  -0.1004738555E-01   0.8107124688E-07   0.0000000000E+00   0.1101740984E+01
   0.1001662261E+01   0.2932647213E-03   0.2932647213E-03   0.6828679570E-04   0.1650928906E-04   0.1650928906E-04   0.1593974177E-02   0.2767554323E-03   0.2767554323E-03   0.1090000125E+01   0.2942750192E-01   0.2942750192E-01  -0.9393967890E-02  -0.9393967890E-02   0.8091235859E-07   0.0000000000E+00   0.1061327897E+01
   0.1001662261E+01   0.9997067353E+00   0.2932647213E-03   0.6828679570E-04  -0.1650928906E-04   0.1650928906E-04   0.1593974177E-02  -0.2767554323E-03   0.2767554323E-03   0.1090000125E+01   0.2942750192E-01   0.2942750192E-01   0.9393967888E-02  -0.9393967890E-02  -0.8091220283E-07   0.0000000000E+00   0.1061327897E+01
   0.0000000000E+00   0.9995968572E+00   0.4031427579E-03   0.0000000000E+00  -0.2677267094E-04   0.2677267094E-04   0.0000000000E+00  -0.3763700869E-03   0.3763700869E-03   0.1014365710E+01  -0.8654952646E-01  -0.8654952645E-01   0.1004738555E-01  -0.1004738555E-01  -0.8107182806E-07   0.0000000000E+00   0.1101740984E+01
   0.0000000000E+00   0.4031427579E-03   0.9995968572E+00   0.0000000000E+00   0.2677267094E-04  -0.2677267094E-04   0.0000000000E+00   0.3763700869E-03  -0.3763700869E-03   0.1014365710E+01  -0.8654952645E-01  -0.8654952646E-01  -0.1004738555E-01   0.1004738555E-01  -0.8107182810E-07   0.0000000000E+00   0.1101740984E+01
   0.1001662261E+01   0.2932647213E-03   0.9997067353E+00   0.6828679570E-04   0.1650928906E-04  -0.1650928906E-04   0.1593974177E-02   0.2767554323E-03  -0.2767554323E-03   0.1090000125E+01   0.2942750192E-01   0.2942750192E-01  -0.9393967890E-02   0.9393967888E-02  -0.8091220285E-07   0.0000000000E+00   0.1061327897E+01
   0.1001662261E+01   0.9997067353E+00   0.9997067353E+00   0.6828679571E-04  -0.1650928906E-04  -0.1650928906E-04   0.1593974177E-02  -0.2767554323E-03  -0.2767554323E-03   0.1090000125E+01   0.2942750191E-01   0.2942750191E-01   0.9393967888E-02   0.9393967888E-02   0.8091204707E-07   0.0000000000E+00   0.1061327897E+01
   0.0000000000E+00   0.9995968572E+00   0.9995968572E+00   0.0000000000E+00  -0.2677267094E-04  -0.2677267094E-04   0.0000000000E+00  -0.3763700869E-03  -0.3763700869E-03   0.1014365710E+01  -0.8654952645E-01  -0.8654952645E-01   0.1004738555E-01   0.1004738555E-01   0.8107240925E-07   0.0000000000E+00   0.1101740984E+01
   0.2003200000E+01   0.2381532441E-03   0.2381532441E-03   0.1000000000E-03   0.1018465567E-04   0.1018465567E-04   0.3100000000E-02   0.2279685885E-03   0.2279685885E-03   0.1161694076E+01   0.1473747625E+00   0.1473747625E+00  -0.9151799314E-02  -0.9151799314E-02   0.9864091573E-07   0.0000000000E+00   0.1015065743E+01
   0.2003200000E+01   0.9997618468E+00   0.2381532441E-03   0.1000000000E-03  -0.1018465567E-04   0.1018465567E-04   0.3100000000E-02  -0.2279685884E-03   0.2279685885E-03   0.1161694076E+01   0.1473747625E+00   0.1473747625E+00   0.9151799315E-02  -0.9151799314E-02  -0.9863996450E-07   0.0000000000E+00   0.1015065743E+01
   0.2003200000E+01   0.2381532441E-03   0.9997618468E+00   0.1000000000E-03   0.1018465567E-04  -0.1018465567E-04   0.3100000000E-02   0.2279685885E-03  -0.2279685884E-03   0.1161694076E+01   0.1473747625E+00   0.1473747625E+00  -0.9151799314E-02   0.9151799315E-02  -0.9863996452E-07   0.0000000000E+00   0.1015065743E+01
   0.2003200000E+01   0.9997618468E+00   0.9997618468E+00   0.1000000000E-03  -0.1018465567E-04  -0.1018465567E-04   0.3100000000E-02  -0.2279685884E-03  -0.2279685884E-03   0.1161694076E+01   0.1473747625E+00   0.1473747625E+00   0.9151799315E-02   0.9151799315E-02   0.9863901330E-07   0.0000000000E+00   0.1015065743E+01
     1     2     3     4     5     6     7     8
     2     9    10     3     6    11    12     7
 VARIABLES = X,Y,Z,DU1,DU2,DU3,U1,U2,U3,S11,S22,S33,S12,S13,S23,Vf,SMISES
 ZONE, T="0.3300D+00" F=FEPOINT, I=   12 J=    2 ET=BRICK
   0.0000000000E+00   0.4274188604E-03   0.4274188604E-03   0.0000000000E+00   0.2427610256E-04   0.2427610256E-04   0.0000000000E+00   0.4031427579E-03   0.4031427579E-03   0.9964492944E+00  -0.1047175753E+00  -0.1047175753E+00  -0.1051273965E-01  -0.1051273965E-01   0.1070587716E-06   0.0000000000E+00   0.1102070639E+01
   0.1001732098E+01   0.3097593544E-03   0.3097593544E-03   0.6983654632E-04   0.1649463301E-04   0.1649463301E-04   0.1662260973E-02   0.2932647213E-03   0.2932647213E-03   0.1072089388E+01   0.8826853140E-02   0.8826853140E-02  -0.9860500441E-02  -0.9860500441E-02   0.1015818937E-06   0.0000000000E+00   0.1064092228E+01
   0.1001732098E+01   0.9996902406E+00   0.3097593544E-03   0.6983654632E-04  -0.1649463301E-04   0.1649463301E-04   0.1662260973E-02  -0.2932647213E-03   0.2932647213E-03   0.1072089388E+01   0.8826853140E-02   0.8826853139E-02   0.9860500440E-02  -0.9860500441E-02  -0.1015817437E-06   0.0000000000E+00   0.1064092228E+01
   0.0000000000E+00   0.9995725811E+00   0.4274188604E-03   0.0000000000E+00  -0.2427610256E-04   0.2427610256E-04   0.0000000000E+00  -0.4031427579E-03   0.4031427579E-03   0.9964492944E+00  -0.1047175753E+00  -0.1047175753E+00   0.1051273965E-01  -0.1051273965E-01  -0.1070593486E-06   0.0000000000E+00   0.1102070639E+01
   0.0000000000E+00   0.4274188604E-03   0.9995725811E+00   0.0000000000E+00   0.2427610256E-04  -0.2427610256E-04   0.0000000000E+00   0.4031427579E-03  -0.4031427579E-03   0.9964492944E+00  -0.1047175753E+00  -0.1047175753E+00  -0.1051273965E-01   0.1051273965E-01  -0.1070593486E-06   0.0000000000E+00   0.1102070639E+01
   0.1001732098E+01   0.3097593544E-03   0.9996902406E+00   0.6983654632E-04   0.1649463301E-04  -0.1649463301E-04   0.1662260973E-02   0.2932647213E-03  -0.2932647213E-03   0.1072089388E+01   0.8826853139E-02   0.8826853140E-02  -0.9860500441E-02   0.9860500440E-02  -0.1015817437E-06   0.0000000000E+00   0.1064092228E+01
   0.1001732098E+01   0.9996902406E+00   0.9996902406E+00   0.6983654632E-04  -0.1649463301E-04  -0.1649463301E-04   0.1662260973E-02  -0.2932647213E-03  -0.2932647213E-03   0.1072089388E+01   0.8826853139E-02   0.8826853139E-02   0.9860500440E-02   0.9860500440E-02   0.1015815937E-06   0.0000000000E+00   0.1064092228E+01
   0.0000000000E+00   0.9995725811E+00   0.9995725811E+00   0.0000000000E+00  -0.2427610256E-04  -0.2427610256E-04   0.0000000000E+00  -0.4031427579E-03  -0.4031427579E-03   0.9964492943E+00  -0.1047175753E+00  -0.1047175753E+00   0.1051273965E-01   0.1051273965E-01   0.1070599256E-06   0.0000000000E+00   0.1102070639E+01
   0.2003300000E+01   0.2507706084E-03   0.2507706084E-03   0.1000000000E-03   0.1261736422E-04   0.1261736422E-04   0.3200000000E-02   0.2381532441E-03   0.2381532441E-03   0.1144713208E+01   0.1238794179E+00   0.1238794179E+00  -0.9609935189E-02  -0.9609935189E-02   0.1139905560E-06   0.0000000000E+00   0.1021651188E+01
   0.2003300000E+01   0.9997492294E+00   0.2507706084E-03   0.1000000000E-03  -0.1261736422E-04   0.1261736422E-04   0.3200000000E-02  -0.2381532441E-03   0.2381532441E-03   0.1144713208E+01   0.1238794179E+00   0.1238794179E+00   0.9609935191E-02  -0.9609935189E-02  -0.1139896167E-06   0.0000000000E+00   0.1021651188E+01
   0.2003300000E+01   0.2507706084E-03   0.9997492294E+00   0.1000000000E-03   0.1261736422E-04  -0.1261736422E-04   0.3200000000E-02   0.2381532441E-03  -0.2381532441E-03   0.1144713208E+01   0.1238794179E+00   0.1238794179E+00  -0.9609935189E-02   0.9609935191E-02  -0.1139896167E-06   0.0000000000E+00   0.1021651188E+01
   0.2003300000E+01   0.9997492294E+00   0.9997492294E+00   0.1000000000E-03  -0.1261736422E-04  -0.1261736422E-04   0.3200000000E-02  -0.2381532441E-03  -0.2381532441E-03   0.1144713208E+01   0.1238794179E+00   0.1238794179E+00   0.9609935190E-02   0.9609935190E-02   0.1139886775E-06   0.0000000000E+00   0.1021651188E+01
     1     2     3     4     5     6     7     8
     2     9    10     3     6    11    12     7
 VARIABLES = X,Y,Z,DU1,DU2,DU3,U1,U2,U3,S11,S22,S33,S12,S13,S23,Vf,SMISES
 ZONE, T="0.3400D+00" F=FEPOINT, I=   12 J=    2 ET=BRICK
   0.0000000000E+00   0.4490364731E-03   0.4490364731E-03   0.0000000000E+00   0.2161761270E-04   0.2161761270E-04   0.0000000000E+00   0.4274188604E-03   0.4274188604E-03   0.9844038830E+00  -0.1161671462E+00  -0.1161671462E+00  -0.1065976453E-01  -0.1065976453E-01   0.1246247607E-06   0.0000000000E+00   0.1101500739E+01
   0.1001803285E+01   0.3258399288E-03   0.3258399288E-03   0.7118791887E-04   0.1608057445E-04   0.1608057445E-04   0.1732097519E-02   0.3097593544E-03   0.3097593544E-03   0.1053604797E+01  -0.1135740553E-01  -0.1135740553E-01  -0.1000142589E-01  -0.1000142589E-01   0.1145423825E-06   0.0000000000E+00   0.1065814526E+01
   0.1001803285E+01   0.9996741601E+00   0.3258399288E-03   0.7118791887E-04  -0.1608057445E-04   0.1608057445E-04   0.1732097519E-02  -0.3097593543E-03   0.3097593544E-03   0.1053604797E+01  -0.1135740553E-01  -0.1135740553E-01   0.1000142589E-01  -0.1000142589E-01  -0.1145422399E-06   0.0000000000E+00   0.1065814526E+01
   0.0000000000E+00   0.9995509635E+00   0.4490364731E-03   0.0000000000E+00  -0.2161761270E-04   0.2161761270E-04   0.0000000000E+00  -0.4274188604E-03   0.4274188604E-03   0.9844038830E+00  -0.1161671461E+00  -0.1161671461E+00   0.1065976453E-01  -0.1065976453E-01  -0.1246253156E-06   0.0000000000E+00   0.1101500739E+01
   0.0000000000E+00   0.4490364731E-03   0.9995509635E+00   0.0000000000E+00   0.2161761270E-04  -0.2161761270E-04   0.0000000000E+00   0.4274188604E-03  -0.4274188604E-03   0.9844038830E+00  -0.1161671461E+00  -0.1161671461E+00  -0.1065976453E-01   0.1065976453E-01  -0.1246253156E-06   0.0000000000E+00   0.1101500739E+01
   0.1001803285E+01   0.3258399288E-03   0.9996741601E+00   0.7118791887E-04   0.1608057445E-04  -0.1608057445E-04   0.1732097519E-02   0.3097593544E-03  -0.3097593543E-03   0.1053604797E+01  -0.1135740553E-01  -0.1135740553E-01  -0.1000142589E-01   0.1000142589E-01  -0.1145422400E-06   0.0000000000E+00   0.1065814526E+01
   0.1001803285E+01   0.9996741601E+00   0.9996741601E+00   0.7118791887E-04  -0.1608057445E-04  -0.1608057445E-04   0.1732097519E-02  -0.3097593543E-03  -0.3097593543E-03   0.1053604797E+01  -0.1135740553E-01  -0.1135740553E-01   0.1000142589E-01   0.1000142589E-01   0.1145420974E-06   0.0000000000E+00   0.1065814526E+01
   0.0000000000E+00   0.9995509635E+00   0.9995509635E+00   0.0000000000E+00  -0.2161761270E-04  -0.2161761270E-04   0.0000000000E+00  -0.4274188604E-03  -0.4274188604E-03   0.9844038829E+00  -0.1161671461E+00  -0.1161671461E+00   0.1065976453E-01   0.1065976453E-01   0.1246258706E-06   0.0000000000E+00   0.1101500739E+01
   0.2003400000E+01   0.2651732248E-03   0.2651732248E-03   0.1000000000E-03   0.1440261645E-04   0.1440261645E-04   0.3300000000E-02   0.2507706084E-03   0.2507706084E-03   0.1120702629E+01   0.9450387668E-01   0.9450387668E-01  -0.9735362059E-02  -0.9735362059E-02   0.1219185645E-06   0.0000000000E+00   0.1027033019E+01
   0.2003400000E+01   0.9997348268E+00   0.2651732248E-03   0.1000000000E-03  -0.1440261645E-04   0.1440261645E-04   0.3300000000E-02  -0.2507706083E-03   0.2507706084E-03   0.1120702629E+01   0.9450387668E-01   0.9450387668E-01   0.9735362061E-02  -0.9735362058E-02  -0.1219176609E-06   0.0000000000E+00   0.1027033019E+01
   0.2003400000E+01   0.2651732248E-03   0.9997348268E+00   0.1000000000E-03   0.1440261645E-04  -0.1440261645E-04   0.3300000000E-02   0.2507706084E-03  -0.2507706083E-03   0.1120702629E+01   0.9450387668E-01   0.9450387668E-01  -0.9735362058E-02   0.9735362061E-02  -0.1219176610E-06   0.0000000000E+00   0.1027033019E+01
   0.2003400000E+01   0.9997348268E+00   0.9997348268E+00   0.1000000000E-03  -0.1440261645E-04  -0.1440261645E-04   0.3300000000E-02  -0.2507706083E-03  -0.2507706083E-03   0.1120702629E+01   0.9450387668E-01   0.9450387668E-01   0.9735362060E-02   0.9735362060E-02   0.1219167574E-06   0.0000000000E+00   0.1027033019E+01
     1     2     3     4     5     6     7     8
     2     9    10     3     6    11    12     7
 VARIABLES = X,Y,Z,DU1,DU2,DU3,U1,U2,U3,S11,S22,S33,S12,S13,S23,Vf,SMISES
 ZONE, T="0.3500D+00" F=FEPOINT, I=   12 J=    2 ET=BRICK
   0.0000000000E+00   0.4679990763E-03   0.4679990763E-03   0.0000000000E+00   0.1896260317E-04   0.1896260317E-04   0.0000000000E+00   0.4490364731E-03   0.4490364731E-03   0.9792119495E+00  -0.1200280484E+00  -0.1200280484E+00  -0.1054411000E-01  -0.1054411000E-01   0.1339982675E-06   0.0000000000E+00   0.1100150742E+01
   0.1001875516E+01   0.3411627697E-03   0.3411627697E-03   0.7223066854E-04   0.1532284086E-04   0.1532284086E-04   0.1803285438E-02   0.3258399288E-03   0.3258399288E-03   0.1036132495E+01  -0.2955180205E-01  -0.2955180205E-01  -0.9868156082E-02  -0.9868156082E-02   0.1199659443E-06   0.0000000000E+00   0.1066514035E+01
   0.1001875516E+01   0.9996588372E+00   0.3411627697E-03   0.7223066854E-04  -0.1532284086E-04   0.1532284086E-04   0.1803285438E-02  -0.3258399288E-03   0.3258399288E-03   0.1036132495E+01  -0.2955180205E-01  -0.2955180205E-01   0.9868156083E-02  -0.9868156082E-02  -0.1199658071E-06   0.0000000000E+00   0.1066514035E+01
   0.0000000000E+00   0.9995320009E+00   0.4679990763E-03   0.0000000000E+00  -0.1896260317E-04   0.1896260317E-04   0.0000000000E+00  -0.4490364731E-03   0.4490364731E-03   0.9792119495E+00  -0.1200280484E+00  -0.1200280484E+00   0.1054411000E-01  -0.1054411000E-01  -0.1339987820E-06   0.0000000000E+00   0.1100150742E+01
   0.0000000000E+00   0.4679990763E-03   0.9995320009E+00   0.0000000000E+00   0.1896260317E-04  -0.1896260317E-04   0.0000000000E+00   0.4490364731E-03  -0.4490364731E-03   0.9792119495E+00  -0.1200280484E+00  -0.1200280484E+00  -0.1054411000E-01   0.1054411000E-01  -0.1339987821E-06   0.0000000000E+00   0.1100150742E+01
   0.1001875516E+01   0.3411627697E-03   0.9996588372E+00   0.7223066854E-04   0.1532284086E-04  -0.1532284086E-04   0.1803285438E-02   0.3258399288E-03  -0.3258399288E-03   0.1036132495E+01  -0.2955180205E-01  -0.2955180205E-01  -0.9868156082E-02   0.9868156083E-02  -0.1199658071E-06   0.0000000000E+00   0.1066514035E+01
   0.1001875516E+01   0.9996588372E+00   0.9996588372E+00   0.7223066854E-04  -0.1532284086E-04  -0.1532284086E-04   0.1803285438E-02  -0.3258399288E-03  -0.3258399288E-03   0.1036132495E+01  -0.2955180205E-01  -0.2955180205E-01   0.9868156082E-02   0.9868156082E-02   0.1199656698E-06   0.0000000000E+00   0.1066514035E+01
   0.0000000000E+00   0.9995320009E+00   0.9995320009E+00   0.0000000000E+00  -0.1896260317E-04  -0.1896260317E-04   0.0000000000E+00  -0.4490364731E-03  -0.4490364731E-03   0.9792119495E+00  -0.1200280484E+00  -0.1200280484E+00   0.1054411000E-01   0.1054411000E-01   0.1339992966E-06   0.0000000000E+00   0.1100150742E+01
   0.2003500000E+01   0.2806599136E-03   0.2806599136E-03   0.1000000000E-03   0.1548668878E-04   0.1548668878E-04   0.3400000000E-02   0.2651732248E-03   0.2651732248E-03   0.1091799764E+01   0.6155108234E-01   0.6155108234E-01  -0.9574589110E-02  -0.9574589110E-02   0.1226327491E-06   0.0000000000E+00   0.1031052356E+01
   0.2003500000E+01   0.9997193401E+00   0.2806599136E-03   0.1000000000E-03  -0.1548668878E-04   0.1548668878E-04   0.3400000000E-02  -0.2651732248E-03   0.2651732248E-03   0.1091799764E+01   0.6155108234E-01   0.6155108234E-01   0.9574589113E-02  -0.9574589109E-02  -0.1226318976E-06   0.0000000000E+00   0.1031052356E+01
   0.2003500000E+01   0.2806599136E-03   0.9997193401E+00   0.1000000000E-03   0.1548668878E-04  -0.1548668878E-04   0.3400000000E-02   0.2651732248E-03  -0.2651732248E-03   0.1091799764E+01   0.6155108234E-01   0.6155108234E-01  -0.9574589109E-02   0.9574589113E-02  -0.1226318977E-06   0.0000000000E+00   0.1031052356E+01
   0.2003500000E+01   0.9997193401E+00   0.9997193401E+00   0.1000000000E-03  -0.1548668878E-04  -0.1548668878E-04   0.3400000000E-02  -0.2651732248E-03  -0.2651732248E-03   0.1091799764E+01   0.6155108234E-01   0.6155108234E-01   0.9574589112E-02   0.9574589112E-02   0.1226310462E-06   0.0000000000E+00   0.1031052356E+01
     1     2     3     4     5     6     7     8
     2     9    10     3     6    11    12     7
 VARIABLES = X,Y,Z,DU1,DU2,DU3,U1,U2,U3,S11,S22,S33,S12,S13,S23,Vf,SMISES
 ZONE, T="0.3600D+00" F=FEPOINT, I=   12 J=    2 ET=BRICK
   0.0000000000E+00   0.4844754007E-03   0.4844754007E-03   0.0000000000E+00   0.1647632440E-04   0.1647632440E-04   0.0000000000E+00   0.4679990763E-03   0.4679990763E-03   0.9813126412E+00  -0.1159708722E+00  -0.1159708722E+00  -0.1022860488E-01  -0.1022860488E-01   0.1364882119E-06   0.0000000000E+00   0.1098142106E+01
   0.1001948394E+01   0.3554643884E-03   0.3554643884E-03   0.7287759990E-04   0.1430161878E-04   0.1430161878E-04   0.1875516106E-02   0.3411627697E-03   0.3411627697E-03   0.1021072839E+01  -0.4441804922E-01  -0.4441804922E-01  -0.9522034470E-02  -0.9522034470E-02   0.1191110855E-06   0.0000000000E+00   0.1066264546E+01
   0.1001948394E+01   0.9996445356E+00   0.3554643884E-03   0.7287759990E-04  -0.1430161878E-04   0.1430161878E-04   0.1875516106E-02  -0.3411627697E-03   0.3411627697E-03   0.1021072839E+01  -0.4441804922E-01  -0.4441804922E-01   0.9522034471E-02  -0.9522034470E-02  -0.1191109482E-06   0.0000000000E+00   0.1066264546E+01
   0.0000000000E+00   0.9995155246E+00   0.4844754007E-03   0.0000000000E+00  -0.1647632440E-04   0.1647632440E-04   0.0000000000E+00  -0.4679990763E-03   0.4679990763E-03   0.9813126411E+00  -0.1159708722E+00  -0.1159708722E+00   0.1022860488E-01  -0.1022860488E-01  -0.1364886684E-06   0.0000000000E+00   0.1098142106E+01
   0.0000000000E+00   0.4844754007E-03   0.9995155246E+00   0.0000000000E+00   0.1647632440E-04  -0.1647632440E-04   0.0000000000E+00   0.4679990763E-03  -0.4679990763E-03   0.9813126411E+00  -0.1159708722E+00  -0.1159708722E+00  -0.1022860488E-01   0.1022860488E-01  -0.1364886684E-06   0.0000000000E+00   0.1098142106E+01
   0.1001948394E+01   0.3554643884E-03   0.9996445356E+00   0.7287759990E-04   0.1430161878E-04  -0.1430161878E-04   0.1875516106E-02   0.3411627697E-03  -0.3411627697E-03   0.1021072839E+01  -0.4441804922E-01  -0.4441804922E-01  -0.9522034470E-02   0.9522034471E-02  -0.1191109482E-06   0.0000000000E+00   0.1066264546E+01
   0.1001948394E+01   0.9996445356E+00   0.9996445356E+00   0.7287759990E-04  -0.1430161878E-04  -0.1430161878E-04   0.1875516106E-02  -0.3411627697E-03  -0.3411627697E-03   0.1021072839E+01  -0.4441804922E-01  -0.4441804922E-01   0.9522034471E-02   0.9522034471E-02   0.1191108110E-06   0.0000000000E+00   0.1066264546E+01
   0.0000000000E+00   0.9995155246E+00   0.9995155246E+00   0.0000000000E+00  -0.1647632440E-04  -0.1647632440E-04   0.0000000000E+00  -0.4679990763E-03  -0.4679990763E-03   0.9813126411E+00  -0.1159708722E+00  -0.1159708722E+00   0.1022860488E-01   0.1022860488E-01   0.1364891249E-06   0.0000000000E+00   0.1098142106E+01
   0.2003600000E+01   0.2965249613E-03   0.2965249613E-03   0.1000000000E-03   0.1586504768E-04   0.1586504768E-04   0.3500000000E-02   0.2806599136E-03   0.2806599136E-03   0.1060334235E+01   0.2738417443E-01   0.2738417443E-01  -0.9187257222E-02  -0.9187257222E-02   0.1174414761E-06   0.0000000000E+00   0.1033688098E+01
   0.2003600000E+01   0.9997034750E+00   0.2965249613E-03   0.1000000000E-03  -0.1586504767E-04   0.1586504768E-04   0.3500000000E-02  -0.2806599136E-03   0.2806599136E-03   0.1060334235E+01   0.2738417443E-01   0.2738417442E-01   0.9187257225E-02  -0.9187257222E-02  -0.1174406862E-06   0.0000000000E+00   0.1033688098E+01
   0.2003600000E+01   0.2965249613E-03   0.9997034750E+00   0.1000000000E-03   0.1586504768E-04  -0.1586504767E-04   0.3500000000E-02   0.2806599136E-03  -0.2806599136E-03   0.1060334235E+01   0.2738417442E-01   0.2738417443E-01  -0.9187257222E-02   0.9187257225E-02  -0.1174406862E-06   0.0000000000E+00   0.1033688098E+01
   0.2003600000E+01   0.9997034750E+00   0.9997034750E+00   0.1000000000E-03  -0.1586504767E-04  -0.1586504767E-04   0.3500000000E-02  -0.2806599136E-03  -0.2806599136E-03   0.1060334235E+01   0.2738417442E-01   0.2738417442E-01   0.9187257225E-02   0.9187257225E-02   0.1174398962E-06   0.0000000000E+00   0.1033688098E+01
     1     2     3     4     5     6     7     8
     2     9    10     3     6    11    12     7
 VARIABLES = X,Y,Z,DU1,DU2,DU3,U1,U2,U3,S11,S22,S33,S12,S13,S23,Vf,SMISES
 ZONE, T="0.3700D+00" F=FEPOINT, I=   12 J=    2 ET=BRICK
   0.0000000000E+00   0.4987874902E-03   0.4987874902E-03   0.0000000000E+00   0.1431208948E-04   0.1431208948E-04   0.0000000000E+00   0.4844754007E-03   0.4844754007E-03   0.9905873223E+00  -0.1042375819E+00  -0.1042375819E+00  -0.9779635924E-02  -0.9779635924E-02   0.1340147699E-06   0.0000000000E+00   0.1095611556E+01
   0.1002021463E+01   0.3685783469E-03   0.3685783469E-03   0.7306920716E-04   0.1311395843E-04   0.1311395843E-04   0.1948393706E-02   0.3554643884E-03   0.3554643884E-03   0.1009542445E+01  -0.5494827337E-01  -0.5494827337E-01  -0.9030021292E-02  -0.9030021292E-02   0.1138564609E-06   0.0000000000E+00   0.1065188525E+01
   0.1002021463E+01   0.9996314217E+00   0.3685783469E-03   0.7306920717E-04  -0.1311395843E-04   0.1311395843E-04   0.1948393706E-02  -0.3554643884E-03   0.3554643884E-03   0.1009542445E+01  -0.5494827337E-01  -0.5494827337E-01   0.9030021293E-02  -0.9030021291E-02  -0.1138563161E-06   0.0000000000E+00   0.1065188525E+01
   0.0000000000E+00   0.9995012125E+00   0.4987874902E-03   0.0000000000E+00  -0.1431208948E-04   0.1431208948E-04   0.0000000000E+00  -0.4844754007E-03   0.4844754007E-03   0.9905873223E+00  -0.1042375819E+00  -0.1042375819E+00   0.9779635928E-02  -0.9779635924E-02  -0.1340151525E-06   0.0000000000E+00   0.1095611556E+01
   0.0000000000E+00   0.4987874902E-03   0.9995012125E+00   0.0000000000E+00   0.1431208948E-04  -0.1431208948E-04   0.0000000000E+00   0.4844754007E-03  -0.4844754007E-03   0.9905873223E+00  -0.1042375819E+00  -0.1042375819E+00  -0.9779635924E-02   0.9779635928E-02  -0.1340151525E-06   0.0000000000E+00   0.1095611556E+01
   0.1002021463E+01   0.3685783469E-03   0.9996314217E+00   0.7306920717E-04   0.1311395843E-04  -0.1311395843E-04   0.1948393706E-02   0.3554643884E-03  -0.3554643884E-03   0.1009542445E+01  -0.5494827337E-01  -0.5494827337E-01  -0.9030021291E-02   0.9030021293E-02  -0.1138563161E-06   0.0000000000E+00   0.1065188525E+01
   0.1002021463E+01   0.9996314217E+00   0.9996314217E+00   0.7306920717E-04  -0.1311395843E-04  -0.1311395843E-04   0.1948393706E-02  -0.3554643884E-03  -0.3554643884E-03   0.1009542445E+01  -0.5494827337E-01  -0.5494827337E-01   0.9030021293E-02   0.9030021293E-02   0.1138561713E-06   0.0000000000E+00   0.1065188525E+01
   0.0000000000E+00   0.9995012125E+00   0.9995012125E+00   0.0000000000E+00  -0.1431208948E-04  -0.1431208948E-04   0.0000000000E+00  -0.4844754007E-03  -0.4844754007E-03   0.9905873223E+00  -0.1042375819E+00  -0.1042375819E+00   0.9779635927E-02   0.9779635927E-02   0.1340155351E-06   0.0000000000E+00   0.1095611556E+01
   0.2003700000E+01   0.3121038802E-03   0.3121038802E-03   0.1000000000E-03   0.1557891892E-04   0.1557891892E-04   0.3600000000E-02   0.2965249613E-03   0.2965249613E-03   0.1028642833E+01  -0.5731597160E-02  -0.5731597160E-02  -0.8641019067E-02  -0.8641019067E-02   0.1082824182E-06   0.0000000000E+00   0.1035026496E+01
   0.2003700000E+01   0.9996878961E+00   0.3121038802E-03   0.1000000000E-03  -0.1557891891E-04   0.1557891892E-04   0.3600000000E-02  -0.2965249612E-03   0.2965249613E-03   0.1028642833E+01  -0.5731597159E-02  -0.5731597160E-02   0.8641019071E-02  -0.8641019067E-02  -0.1082816924E-06   0.0000000000E+00   0.1035026496E+01
   0.2003700000E+01   0.3121038802E-03   0.9996878961E+00   0.1000000000E-03   0.1557891892E-04  -0.1557891891E-04   0.3600000000E-02   0.2965249613E-03  -0.2965249612E-03   0.1028642833E+01  -0.5731597160E-02  -0.5731597159E-02  -0.8641019067E-02   0.8641019071E-02  -0.1082816924E-06   0.0000000000E+00   0.1035026496E+01
   0.2003700000E+01   0.9996878961E+00   0.9996878961E+00   0.1000000000E-03  -0.1557891891E-04  -0.1557891891E-04   0.3600000000E-02  -0.2965249612E-03  -0.2965249612E-03   0.1028642833E+01  -0.5731597159E-02  -0.5731597159E-02   0.8641019070E-02   0.8641019070E-02   0.1082809666E-06   0.0000000000E+00   0.1035026496E+01
     1     2     3     4     5     6     7     8
     2     9    10     3     6    11    12     7
 VARIABLES = X,Y,Z,DU1,DU2,DU3,U1,U2,U3,S11,S22,S33,S12,S13,S23,Vf,SMISES
 ZONE, T="0.3800D+00" F=FEPOINT, I=   12 J=    2 ET=BRICK
   0.0000000000E+00   0.5113878184E-03   0.5113878184E-03   0.0000000000E+00   0.1260032821E-04   0.1260032821E-04   0.0000000000E+00   0.4987874902E-03   0.4987874902E-03   0.1006380772E+01  -0.8562607016E-01  -0.8562607016E-01  -0.9263712689E-02  -0.9263712689E-02   0.1286706759E-06   0.0000000000E+00   0.1092714524E+01
   0.1002094239E+01   0.3804435557E-03   0.3804435557E-03   0.7277637275E-04   0.1186520882E-04   0.1186520882E-04   0.2021462913E-02   0.3685783469E-03   0.3685783469E-03   0.1002303794E+01  -0.6052930568E-01  -0.6052930568E-01  -0.8460608817E-02  -0.8460608817E-02   0.1062469977E-06   0.0000000000E+00   0.1063448406E+01
   0.1002094239E+01   0.9996195564E+00   0.3804435557E-03   0.7277637275E-04  -0.1186520882E-04   0.1186520882E-04   0.2021462913E-02  -0.3685783469E-03   0.3685783469E-03   0.1002303794E+01  -0.6052930567E-01  -0.6052930567E-01   0.8460608819E-02  -0.8460608817E-02  -0.1062468368E-06   0.0000000000E+00   0.1063448406E+01
   0.0000000000E+00   0.9994886122E+00   0.5113878184E-03   0.0000000000E+00  -0.1260032821E-04   0.1260032821E-04   0.0000000000E+00  -0.4987874902E-03   0.4987874902E-03   0.1006380772E+01  -0.8562607015E-01  -0.8562607015E-01   0.9263712693E-02  -0.9263712689E-02  -0.1286709717E-06   0.0000000000E+00   0.1092714524E+01
   0.0000000000E+00   0.5113878184E-03   0.9994886122E+00   0.0000000000E+00   0.1260032821E-04  -0.1260032821E-04   0.0000000000E+00   0.4987874902E-03  -0.4987874902E-03   0.1006380772E+01  -0.8562607015E-01  -0.8562607015E-01  -0.9263712689E-02   0.9263712693E-02  -0.1286709717E-06   0.0000000000E+00   0.1092714524E+01
   0.1002094239E+01   0.3804435557E-03   0.9996195564E+00   0.7277637275E-04   0.1186520882E-04  -0.1186520882E-04   0.2021462913E-02   0.3685783469E-03  -0.3685783469E-03   0.1002303794E+01  -0.6052930567E-01  -0.6052930567E-01  -0.8460608817E-02   0.8460608819E-02  -0.1062468368E-06   0.0000000000E+00   0.1063448406E+01
   0.1002094239E+01   0.9996195564E+00   0.9996195564E+00   0.7277637275E-04  -0.1186520882E-04  -0.1186520882E-04   0.2021462913E-02  -0.3685783469E-03  -0.3685783469E-03   0.1002303794E+01  -0.6052930567E-01  -0.6052930567E-01   0.8460608819E-02   0.8460608819E-02   0.1062466759E-06   0.0000000000E+00   0.1063448405E+01
   0.0000000000E+00   0.9994886122E+00   0.9994886122E+00   0.0000000000E+00  -0.1260032821E-04  -0.1260032821E-04   0.0000000000E+00  -0.4987874902E-03  -0.4987874902E-03   0.1006380772E+01  -0.8562607015E-01  -0.8562607015E-01   0.9263712693E-02   0.9263712693E-02   0.1286712675E-06   0.0000000000E+00   0.1092714524E+01
   0.2003800000E+01   0.3268129946E-03   0.3268129946E-03   0.1000000000E-03   0.1470911439E-04   0.1470911439E-04   0.3700000000E-02   0.3121038802E-03   0.3121038802E-03   0.9989015308E+00  -0.3576989853E-01  -0.3576989853E-01  -0.8006610451E-02  -0.8006610451E-02   0.9724495207E-07   0.0000000000E+00   0.1035231229E+01
   0.2003800000E+01   0.9996731870E+00   0.3268129946E-03   0.1000000000E-03  -0.1470911439E-04   0.1470911439E-04   0.3700000000E-02  -0.3121038801E-03   0.3121038802E-03   0.9989015307E+00  -0.3576989853E-01  -0.3576989853E-01   0.8006610455E-02  -0.8006610451E-02  -0.9724428740E-07   0.0000000000E+00   0.1035231229E+01
   0.2003800000E+01   0.3268129946E-03   0.9996731870E+00   0.1000000000E-03   0.1470911439E-04  -0.1470911439E-04   0.3700000000E-02   0.3121038802E-03  -0.3121038801E-03   0.9989015307E+00  -0.3576989853E-01  -0.3576989853E-01  -0.8006610451E-02   0.8006610455E-02  -0.9724428742E-07   0.0000000000E+00   0.1035231229E+01
   0.2003800000E+01   0.9996731870E+00   0.9996731870E+00   0.1000000000E-03  -0.1470911439E-04  -0.1470911439E-04   0.3700000000E-02  -0.3121038801E-03  -0.3121038801E-03   0.9989015307E+00  -0.3576989853E-01  -0.3576989853E-01   0.8006610455E-02   0.8006610455E-02   0.9724362273E-07   0.0000000000E+00   0.1035231229E+01
     1     2     3     4     5     6     7     8
     2     9    10     3     6    11    12     7
 VARIABLES = X,Y,Z,DU1,DU2,DU3,U1,U2,U3,S11,S22,S33,S12,S13,S23,Vf,SMISES
 ZONE, T="0.3900D+00" F=FEPOINT, I=   12 J=    2 ET=BRICK
   0.0000000000E+00   0.5228271310E-03   0.5228271310E-03   0.0000000000E+00   0.1143931265E-04   0.1143931265E-04   0.0000000000E+00   0.5113878184E-03   0.5113878184E-03   0.1027558672E+01  -0.6143144657E-01  -0.6143144657E-01  -0.8744309055E-02  -0.8744309055E-02   0.1223840617E-06   0.0000000000E+00   0.1089622431E+01
   0.1002166240E+01   0.3911037565E-03   0.3911037565E-03   0.7200108590E-04   0.1066020077E-04   0.1066020077E-04   0.2094239286E-02   0.3804435557E-03   0.3804435557E-03   0.9997270817E+00  -0.6097270774E-01  -0.6097270774E-01  -0.7880132670E-02  -0.7880132670E-02   0.9813803052E-07   0.0000000000E+00   0.1061236745E+01
   0.1002166240E+01   0.9996088962E+00   0.3911037565E-03   0.7200108590E-04  -0.1066020077E-04   0.1066020077E-04   0.2094239286E-02  -0.3804435557E-03   0.3804435557E-03   0.9997270816E+00  -0.6097270774E-01  -0.6097270774E-01   0.7880132673E-02  -0.7880132670E-02  -0.9813784474E-07   0.0000000000E+00   0.1061236745E+01
   0.0000000000E+00   0.9994771729E+00   0.5228271310E-03   0.0000000000E+00  -0.1143931265E-04   0.1143931265E-04   0.0000000000E+00  -0.5113878184E-03   0.5113878184E-03   0.1027558672E+01  -0.6143144657E-01  -0.6143144657E-01   0.8744309059E-02  -0.8744309055E-02  -0.1223842614E-06   0.0000000000E+00   0.1089622431E+01
   0.0000000000E+00   0.5228271310E-03   0.9994771729E+00   0.0000000000E+00   0.1143931265E-04  -0.1143931265E-04   0.0000000000E+00   0.5113878184E-03  -0.5113878184E-03   0.1027558672E+01  -0.6143144657E-01  -0.6143144657E-01  -0.8744309055E-02   0.8744309059E-02  -0.1223842615E-06   0.0000000000E+00   0.1089622431E+01
   0.1002166240E+01   0.3911037565E-03   0.9996088962E+00   0.7200108590E-04   0.1066020077E-04  -0.1066020077E-04   0.2094239286E-02   0.3804435557E-03  -0.3804435557E-03   0.9997270816E+00  -0.6097270774E-01  -0.6097270774E-01  -0.7880132670E-02   0.7880132673E-02  -0.9813784475E-07   0.0000000000E+00   0.1061236745E+01
   0.1002166240E+01   0.9996088962E+00   0.9996088962E+00   0.7200108590E-04  -0.1066020077E-04  -0.1066020077E-04   0.2094239286E-02  -0.3804435557E-03  -0.3804435557E-03   0.9997270816E+00  -0.6097270774E-01  -0.6097270774E-01   0.7880132673E-02   0.7880132673E-02   0.9813765894E-07   0.0000000000E+00   0.1061236745E+01
   0.0000000000E+00   0.9994771729E+00   0.9994771729E+00   0.0000000000E+00  -0.1143931265E-04  -0.1143931265E-04   0.0000000000E+00  -0.5113878184E-03  -0.5113878184E-03   0.1027558672E+01  -0.6143144657E-01  -0.6143144657E-01   0.8744309059E-02   0.8744309059E-02   0.1223844613E-06   0.0000000000E+00   0.1089622431E+01
   0.2003900000E+01   0.3401807006E-03   0.3401807006E-03   0.1000000000E-03   0.1336770600E-04   0.1336770600E-04   0.3800000000E-02   0.3268129946E-03   0.3268129946E-03   0.9729862863E+00  -0.6105936665E-01  -0.6105936665E-01  -0.7353456607E-02  -0.7353456607E-02   0.8618899020E-07   0.0000000000E+00   0.1034518278E+01
   0.2003900000E+01   0.9996598193E+00   0.3401807006E-03   0.1000000000E-03  -0.1336770600E-04   0.1336770600E-04   0.3800000000E-02  -0.3268129945E-03   0.3268129946E-03   0.9729862863E+00  -0.6105936665E-01  -0.6105936665E-01   0.7353456611E-02  -0.7353456606E-02  -0.8618837930E-07   0.0000000000E+00   0.1034518278E+01
   0.2003900000E+01   0.3401807006E-03   0.9996598193E+00   0.1000000000E-03   0.1336770600E-04  -0.1336770600E-04   0.3800000000E-02   0.3268129946E-03  -0.3268129945E-03   0.9729862863E+00  -0.6105936665E-01  -0.6105936665E-01  -0.7353456606E-02   0.7353456611E-02  -0.8618837932E-07   0.0000000000E+00   0.1034518278E+01
   0.2003900000E+01   0.9996598193E+00   0.9996598193E+00   0.1000000000E-03  -0.1336770600E-04  -0.1336770600E-04   0.3800000000E-02  -0.3268129945E-03  -0.3268129945E-03   0.9729862863E+00  -0.6105936665E-01  -0.6105936665E-01   0.7353456611E-02   0.7353456611E-02   0.8618776841E-07   0.0000000000E+00   0.1034518278E+01
     1     2     3     4     5     6     7     8
     2     9    10     3     6    11    12     7
 VARIABLES = X,Y,Z,DU1,DU2,DU3,U1,U2,U3,S11,S22,S33,S12,S13,S23,Vf,SMISES
 ZONE, T="0.4000D+00" F=FEPOINT, I=   12 J=    2 ET=BRICK
   0.0000000000E+00   0.5337153823E-03   0.5337153823E-03   0.0000000000E+00   0.1088825126E-04   0.1088825126E-04   0.0000000000E+00   0.5228271310E-03   0.5228271310E-03   0.1052597971E+01  -0.3334943167E-01  -0.3334943167E-01  -0.8279020572E-02  -0.8279020572E-02   0.1167195576E-06   0.0000000000E+00   0.1086515814E+01
   0.1002237016E+01   0.4006986458E-03   0.4006986458E-03   0.7077524278E-04   0.9594889314E-05   0.9594889314E-05   0.2166240372E-02   0.3911037565E-03   0.3911037565E-03   0.1001785462E+01  -0.5650963391E-01  -0.5650963391E-01  -0.7349538521E-02  -0.7349538521E-02   0.9098425916E-07   0.0000000000E+00   0.1058765570E+01
   0.1002237016E+01   0.9995993014E+00   0.4006986458E-03   0.7077524278E-04  -0.9594889313E-05   0.9594889314E-05   0.2166240372E-02  -0.3911037564E-03   0.3911037565E-03   0.1001785462E+01  -0.5650963391E-01  -0.5650963391E-01   0.7349538525E-02  -0.7349538521E-02  -0.9098404076E-07   0.0000000000E+00   0.1058765570E+01
   0.0000000000E+00   0.9994662846E+00   0.5337153823E-03   0.0000000000E+00  -0.1088825126E-04   0.1088825126E-04   0.0000000000E+00  -0.5228271311E-03   0.5228271310E-03   0.1052597971E+01  -0.3334943167E-01  -0.3334943167E-01   0.8279020576E-02  -0.8279020571E-02  -0.1167196567E-06   0.0000000000E+00   0.1086515814E+01
   0.0000000000E+00   0.5337153823E-03   0.9994662846E+00   0.0000000000E+00   0.1088825126E-04  -0.1088825126E-04   0.0000000000E+00   0.5228271310E-03  -0.5228271311E-03   0.1052597971E+01  -0.3334943167E-01  -0.3334943167E-01  -0.8279020571E-02   0.8279020576E-02  -0.1167196568E-06   0.0000000000E+00   0.1086515814E+01
   0.1002237016E+01   0.4006986458E-03   0.9995993014E+00   0.7077524278E-04   0.9594889314E-05  -0.9594889313E-05   0.2166240372E-02   0.3911037565E-03  -0.3911037564E-03   0.1001785462E+01  -0.5650963391E-01  -0.5650963391E-01  -0.7349538521E-02   0.7349538525E-02  -0.9098404077E-07   0.0000000000E+00   0.1058765570E+01
   0.1002237016E+01   0.9995993014E+00   0.9995993014E+00   0.7077524278E-04  -0.9594889313E-05  -0.9594889313E-05   0.2166240372E-02  -0.3911037564E-03  -0.3911037564E-03   0.1001785462E+01  -0.5650963391E-01  -0.5650963391E-01   0.7349538524E-02   0.7349538524E-02   0.9098382235E-07   0.0000000000E+00   0.1058765570E+01
   0.0000000000E+00   0.9994662846E+00   0.9994662846E+00   0.0000000000E+00  -0.1088825126E-04  -0.1088825126E-04   0.0000000000E+00  -0.5228271311E-03  -0.5228271311E-03   0.1052597971E+01  -0.3334943166E-01  -0.3334943166E-01   0.8279020576E-02   0.8279020576E-02   0.1167197559E-06   0.0000000000E+00   0.1086515814E+01
   0.2004000000E+01   0.3518689550E-03   0.3518689550E-03   0.1000000000E-03   0.1168825439E-04   0.1168825439E-04   0.3900000000E-02   0.3401807006E-03   0.3401807006E-03   0.9523695517E+00  -0.8036813562E-01  -0.8036813562E-01  -0.6745937333E-02  -0.6745937333E-02   0.7651845744E-07   0.0000000000E+00   0.1033136093E+01
   0.2004000000E+01   0.9996481310E+00   0.3518689550E-03   0.1000000000E-03  -0.1168825439E-04   0.1168825439E-04   0.3900000000E-02  -0.3401807005E-03   0.3401807006E-03   0.9523695517E+00  -0.8036813562E-01  -0.8036813562E-01   0.6745937338E-02  -0.6745937332E-02  -0.7651788999E-07   0.0000000000E+00   0.1033136093E+01
   0.2004000000E+01   0.3518689550E-03   0.9996481310E+00   0.1000000000E-03   0.1168825439E-04  -0.1168825439E-04   0.3900000000E-02   0.3401807006E-03  -0.3401807005E-03   0.9523695517E+00  -0.8036813562E-01  -0.8036813562E-01  -0.6745937332E-02   0.6745937338E-02  -0.7651789001E-07   0.0000000000E+00   0.1033136093E+01
   0.2004000000E+01   0.9996481310E+00   0.9996481310E+00   0.1000000000E-03  -0.1168825439E-04  -0.1168825439E-04   0.3900000000E-02  -0.3401807005E-03  -0.3401807005E-03   0.9523695516E+00  -0.8036813562E-01  -0.8036813562E-01   0.6745937337E-02   0.6745937337E-02   0.7651732254E-07   0.0000000000E+00   0.1033136093E+01
     1     2     3     4     5     6     7     8
     2     9    10     3     6    11    12     7
 VARIABLES = X,Y,Z,DU1,DU2,DU3,U1,U2,U3,S11,S22,S33,S12,S13,S23,Vf,SMISES
 ZONE, T="0.4100D+00" F=FEPOINT, I=   12 J=    2 ET=BRICK
   0.0000000000E+00   0.5446786486E-03   0.5446786486E-03   0.0000000000E+00   0.1096326625E-04   0.1096326625E-04   0.0000000000E+00   0.5337153823E-03   0.5337153823E-03   0.1079703557E+01  -0.3349720675E-02  -0.3349720675E-02  -0.7917059783E-02  -0.7917059783E-02   0.1128190488E-06   0.0000000000E+00   0.1083574468E+01
   0.1002306173E+01   0.4094477516E-03   0.4094477516E-03   0.6915768441E-04   0.8749105850E-05   0.8749105850E-05   0.2237015615E-02   0.4006986458E-03   0.4006986458E-03   0.1008081767E+01  -0.4775227767E-01  -0.4775227767E-01  -0.6921610314E-02  -0.6921610314E-02   0.8578015161E-07   0.0000000000E+00   0.1056254656E+01
   0.1002306173E+01   0.9995905522E+00   0.4094477516E-03   0.6915768441E-04  -0.8749105850E-05   0.8749105850E-05   0.2237015615E-02  -0.4006986458E-03   0.4006986458E-03   0.1008081767E+01  -0.4775227767E-01  -0.4775227767E-01   0.6921610317E-02  -0.6921610313E-02  -0.8577989469E-07   0.0000000000E+00   0.1056254655E+01
   0.0000000000E+00   0.9994553214E+00   0.5446786485E-03   0.0000000000E+00  -0.1096326625E-04   0.1096326625E-04   0.0000000000E+00  -0.5337153823E-03   0.5337153823E-03   0.1079703557E+01  -0.3349720675E-02  -0.3349720675E-02   0.7917059787E-02  -0.7917059782E-02  -0.1128190475E-06   0.0000000000E+00   0.1083574468E+01
   0.0000000000E+00   0.5446786485E-03   0.9994553214E+00   0.0000000000E+00   0.1096326625E-04  -0.1096326625E-04   0.0000000000E+00   0.5337153823E-03  -0.5337153823E-03   0.1079703557E+01  -0.3349720675E-02  -0.3349720675E-02  -0.7917059782E-02   0.7917059787E-02  -0.1128190476E-06   0.0000000000E+00   0.1083574468E+01
   0.1002306173E+01   0.4094477516E-03   0.9995905522E+00   0.6915768441E-04   0.8749105850E-05  -0.8749105850E-05   0.2237015615E-02   0.4006986458E-03  -0.4006986458E-03   0.1008081767E+01  -0.4775227767E-01  -0.4775227767E-01  -0.6921610313E-02   0.6921610317E-02  -0.8577989471E-07   0.0000000000E+00   0.1056254655E+01
   0.1002306173E+01   0.9995905522E+00   0.9995905522E+00   0.6915768441E-04  -0.8749105850E-05  -0.8749105850E-05   0.2237015615E-02  -0.4006986458E-03  -0.4006986458E-03   0.1008081767E+01  -0.4775227767E-01  -0.4775227767E-01   0.6921610317E-02   0.6921610317E-02   0.8577963777E-07   0.0000000000E+00   0.1056254655E+01
   0.0000000000E+00   0.9994553214E+00   0.9994553214E+00   0.0000000000E+00  -0.1096326625E-04  -0.1096326625E-04   0.0000000000E+00  -0.5337153823E-03  -0.5337153823E-03   0.1079703557E+01  -0.3349720675E-02  -0.3349720675E-02   0.7917059787E-02   0.7917059787E-02   0.1128190463E-06   0.0000000000E+00   0.1083574468E+01
   0.2004100000E+01   0.3616843185E-03   0.3616843185E-03   0.1000000000E-03   0.9815363528E-05   0.9815363528E-05   0.4000000000E-02   0.3518689550E-03   0.3518689550E-03   0.9380553887E+00  -0.9295254078E-01  -0.9295254078E-01  -0.6240306561E-02  -0.6240306561E-02   0.6912074114E-07   0.0000000000E+00   0.1031349537E+01
   0.2004100000E+01   0.9996383157E+00   0.3616843185E-03   0.1000000000E-03  -0.9815363527E-05   0.9815363528E-05   0.4000000000E-02  -0.3518689549E-03   0.3518689550E-03   0.9380553887E+00  -0.9295254077E-01  -0.9295254078E-01   0.6240306566E-02  -0.6240306561E-02  -0.6912020532E-07   0.0000000000E+00   0.1031349537E+01
   0.2004100000E+01   0.3616843185E-03   0.9996383157E+00   0.1000000000E-03   0.9815363528E-05  -0.9815363527E-05   0.4000000000E-02   0.3518689550E-03  -0.3518689549E-03   0.9380553887E+00  -0.9295254078E-01  -0.9295254077E-01  -0.6240306561E-02   0.6240306566E-02  -0.6912020534E-07   0.0000000000E+00   0.1031349537E+01
   0.2004100000E+01   0.9996383157E+00   0.9996383157E+00   0.1000000000E-03  -0.9815363527E-05  -0.9815363527E-05   0.4000000000E-02  -0.3518689549E-03  -0.3518689549E-03   0.9380553886E+00  -0.9295254077E-01  -0.9295254077E-01   0.6240306566E-02   0.6240306566E-02   0.6911966950E-07   0.0000000000E+00   0.1031349537E+01
     1     2     3     4     5     6     7     8
     2     9    10     3     6    11    12     7
 VARIABLES = X,Y,Z,DU1,DU2,DU3,U1,U2,U3,S11,S22,S33,S12,S13,S23,Vf,SMISES
 ZONE, T="0.4200D+00" F=FEPOINT, I=   12 J=    2 ET=BRICK
   0.0000000000E+00   0.5563151958E-03   0.5563151958E-03   0.0000000000E+00   0.1163654726E-04   0.1163654726E-04   0.0000000000E+00   0.5446786486E-03   0.5446786486E-03   0.1106942482E+01   0.2647072006E-01   0.2647072006E-01  -0.7697126518E-02  -0.7697126518E-02   0.1114538862E-06   0.0000000000E+00   0.1080965571E+01
   0.1002373403E+01   0.4176287101E-03   0.4176287101E-03   0.6722971541E-04   0.8180958500E-05   0.8180958500E-05   0.2306173299E-02   0.4094477516E-03   0.4094477516E-03   0.1017902362E+01  -0.3562624020E-01  -0.3562624020E-01  -0.6638661321E-02  -0.6638661321E-02   0.8312451150E-07   0.0000000000E+00   0.1053918463E+01
   0.1002373403E+01   0.9995823713E+00   0.4176287101E-03   0.6722971541E-04  -0.8180958500E-05   0.8180958500E-05   0.2306173299E-02  -0.4094477516E-03   0.4094477516E-03   0.1017902362E+01  -0.3562624020E-01  -0.3562624020E-01   0.6638661325E-02  -0.6638661320E-02  -0.8312421272E-07   0.0000000000E+00   0.1053918463E+01
   0.0000000000E+00   0.9994436848E+00   0.5563151958E-03   0.0000000000E+00  -0.1163654726E-04   0.1163654726E-04   0.0000000000E+00  -0.5446786486E-03   0.5446786485E-03   0.1106942482E+01   0.2647072006E-01   0.2647072006E-01   0.7697126523E-02  -0.7697126518E-02  -0.1114537895E-06   0.0000000000E+00   0.1080965571E+01
   0.0000000000E+00   0.5563151958E-03   0.9994436848E+00   0.0000000000E+00   0.1163654726E-04  -0.1163654726E-04   0.0000000000E+00   0.5446786485E-03  -0.5446786486E-03   0.1106942482E+01   0.2647072006E-01   0.2647072006E-01  -0.7697126518E-02   0.7697126523E-02  -0.1114537896E-06   0.0000000000E+00   0.1080965571E+01
   0.1002373403E+01   0.4176287101E-03   0.9995823713E+00   0.6722971541E-04   0.8180958500E-05  -0.8180958500E-05   0.2306173299E-02   0.4094477516E-03  -0.4094477516E-03   0.1017902362E+01  -0.3562624020E-01  -0.3562624020E-01  -0.6638661320E-02   0.6638661325E-02  -0.8312421273E-07   0.0000000000E+00   0.1053918463E+01
   0.1002373403E+01   0.9995823713E+00   0.9995823713E+00   0.6722971541E-04  -0.8180958500E-05  -0.8180958500E-05   0.2306173299E-02  -0.4094477516E-03  -0.4094477516E-03   0.1017902362E+01  -0.3562624020E-01  -0.3562624020E-01   0.6638661324E-02   0.6638661324E-02   0.8312391393E-07   0.0000000000E+00   0.1053918463E+01
   0.0000000000E+00   0.9994436848E+00   0.9994436848E+00   0.0000000000E+00  -0.1163654726E-04  -0.1163654726E-04   0.0000000000E+00  -0.5446786486E-03  -0.5446786486E-03   0.1106942481E+01   0.2647072006E-01   0.2647072006E-01   0.7697126523E-02   0.7697126523E-02   0.1114536930E-06   0.0000000000E+00   0.1080965570E+01
   0.2004200000E+01   0.3695786510E-03   0.3695786510E-03   0.1000000000E-03   0.7894332519E-05   0.7894332519E-05   0.4100000000E-02   0.3616843185E-03   0.3616843185E-03   0.9305529364E+00  -0.9856854777E-01  -0.9856854777E-01  -0.5882219837E-02  -0.5882219837E-02   0.6444437748E-07   0.0000000000E+00   0.1029425630E+01
   0.2004200000E+01   0.9996304213E+00   0.3695786510E-03   0.1000000000E-03  -0.7894332518E-05   0.7894332519E-05   0.4100000000E-02  -0.3616843184E-03   0.3616843185E-03   0.9305529363E+00  -0.9856854777E-01  -0.9856854777E-01   0.5882219842E-02  -0.5882219837E-02  -0.6444386135E-07   0.0000000000E+00   0.1029425630E+01
   0.2004200000E+01   0.3695786510E-03   0.9996304213E+00   0.1000000000E-03   0.7894332519E-05  -0.7894332518E-05   0.4100000000E-02   0.3616843185E-03  -0.3616843184E-03   0.9305529363E+00  -0.9856854777E-01  -0.9856854777E-01  -0.5882219837E-02   0.5882219842E-02  -0.6444386136E-07   0.0000000000E+00   0.1029425630E+01
   0.2004200000E+01   0.9996304213E+00   0.9996304213E+00   0.1000000000E-03  -0.7894332518E-05  -0.7894332518E-05   0.4100000000E-02  -0.3616843185E-03  -0.3616843185E-03   0.9305529363E+00  -0.9856854776E-01  -0.9856854776E-01   0.5882219842E-02   0.5882219842E-02   0.6444334520E-07   0.0000000000E+00   0.1029425630E+01
     1     2     3     4     5     6     7     8
     2     9    10     3     6    11    12     7
 VARIABLES = X,Y,Z,DU1,DU2,DU3,U1,U2,U3,S11,S22,S33,S12,S13,S23,Vf,SMISES
 ZONE, T="0.4300D+00" F=FEPOINT, I=   12 J=    2 ET=BRICK
   0.0000000000E+00   0.5691539254E-03   0.5691539254E-03   0.0000000000E+00   0.1283872957E-04   0.1283872957E-04   0.0000000000E+00   0.5563151958E-03   0.5563151958E-03   0.1132385691E+01   0.5404299448E-01   0.5404299448E-01  -0.7645723782E-02  -0.7645723782E-02   0.1131407406E-06   0.0000000000E+00   0.1078830882E+01
   0.1002438492E+01   0.4255519742E-03   0.4255519742E-03   0.6508942132E-04   0.7923264061E-05   0.7923264061E-05   0.2373403015E-02   0.4176287101E-03   0.4176287101E-03   0.1030292014E+01  -0.2128043026E-01  -0.2128043026E-01  -0.6530715779E-02  -0.6530715779E-02   0.8335905429E-07   0.0000000000E+00   0.1051951908E+01
   0.1002438492E+01   0.9995744480E+00   0.4255519742E-03   0.6508942132E-04  -0.7923264060E-05   0.7923264061E-05   0.2373403015E-02  -0.4176287101E-03   0.4176287101E-03   0.1030292014E+01  -0.2128043026E-01  -0.2128043026E-01   0.6530715783E-02  -0.6530715779E-02  -0.8335871331E-07   0.0000000000E+00   0.1051951908E+01
   0.0000000000E+00   0.9994308461E+00   0.5691539254E-03   0.0000000000E+00  -0.1283872957E-04   0.1283872957E-04   0.0000000000E+00  -0.5563151958E-03   0.5563151958E-03   0.1132385691E+01   0.5404299448E-01   0.5404299448E-01   0.7645723787E-02  -0.7645723782E-02  -0.1131405586E-06   0.0000000000E+00   0.1078830882E+01
   0.0000000000E+00   0.5691539254E-03   0.9994308461E+00   0.0000000000E+00   0.1283872957E-04  -0.1283872957E-04   0.0000000000E+00   0.5563151958E-03  -0.5563151958E-03   0.1132385691E+01   0.5404299448E-01   0.5404299448E-01  -0.7645723782E-02   0.7645723787E-02  -0.1131405586E-06   0.0000000000E+00   0.1078830882E+01
   0.1002438492E+01   0.4255519742E-03   0.9995744480E+00   0.6508942132E-04   0.7923264061E-05  -0.7923264060E-05   0.2373403015E-02   0.4176287101E-03  -0.4176287101E-03   0.1030292014E+01  -0.2128043026E-01  -0.2128043026E-01  -0.6530715779E-02   0.6530715783E-02  -0.8335871332E-07   0.0000000000E+00   0.1051951908E+01
   0.1002438492E+01   0.9995744480E+00   0.9995744480E+00   0.6508942132E-04  -0.7923264061E-05  -0.7923264061E-05   0.2373403015E-02  -0.4176287101E-03  -0.4176287101E-03   0.1030292014E+01  -0.2128043026E-01  -0.2128043026E-01   0.6530715783E-02   0.6530715783E-02   0.8335837233E-07   0.0000000000E+00   0.1051951908E+01
   0.0000000000E+00   0.9994308461E+00   0.9994308461E+00   0.0000000000E+00  -0.1283872957E-04  -0.1283872957E-04   0.0000000000E+00  -0.5563151958E-03  -0.5563151958E-03   0.1132385691E+01   0.5404299448E-01   0.5404299448E-01   0.7645723787E-02   0.7645723787E-02   0.1131403766E-06   0.0000000000E+00   0.1078830882E+01
   0.2004300000E+01   0.3756402670E-03   0.3756402670E-03   0.1000000000E-03   0.6061616033E-05   0.6061616033E-05   0.4200000000E-02   0.3695786510E-03   0.3695786510E-03   0.9298855157E+00  -0.9744744409E-01  -0.9744744409E-01  -0.5704838719E-02  -0.5704838719E-02   0.6266127848E-07   0.0000000000E+00   0.1027619527E+01
   0.2004300000E+01   0.9996243597E+00   0.3756402670E-03   0.1000000000E-03  -0.6061616032E-05   0.6061616033E-05   0.4200000000E-02  -0.3695786510E-03   0.3695786510E-03   0.9298855157E+00  -0.9744744409E-01  -0.9744744409E-01   0.5704838724E-02  -0.5704838719E-02  -0.6266077117E-07   0.0000000000E+00   0.1027619527E+01
   0.2004300000E+01   0.3756402670E-03   0.9996243597E+00   0.1000000000E-03   0.6061616033E-05  -0.6061616032E-05   0.4200000000E-02   0.3695786510E-03  -0.3695786510E-03   0.9298855157E+00  -0.9744744409E-01  -0.9744744409E-01  -0.5704838719E-02   0.5704838724E-02  -0.6266077119E-07   0.0000000000E+00   0.1027619527E+01
   0.2004300000E+01   0.9996243597E+00   0.9996243597E+00   0.1000000000E-03  -0.6061616032E-05  -0.6061616032E-05   0.4200000000E-02  -0.3695786510E-03  -0.3695786510E-03   0.9298855157E+00  -0.9744744409E-01  -0.9744744409E-01   0.5704838724E-02   0.5704838724E-02   0.6266026386E-07   0.0000000000E+00   0.1027619526E+01
     1     2     3     4     5     6     7     8
     2     9    10     3     6    11    12     7
 VARIABLES = X,Y,Z,DU1,DU2,DU3,U1,U2,U3,S11,S22,S33,S12,S13,S23,Vf,SMISES
 ZONE, T="0.4400D+00" F=FEPOINT, I=   12 J=    2 ET=BRICK
   0.0000000000E+00   0.5836182202E-03   0.5836182202E-03   0.0000000000E+00   0.1446429481E-04   0.1446429481E-04   0.0000000000E+00   0.5691539254E-03   0.5691539254E-03   0.1154246959E+01   0.7747818195E-01   0.7747818195E-01  -0.7776025015E-02  -0.7776025015E-02   0.1182661405E-06   0.0000000000E+00   0.1077274462E+01
   0.1002501338E+01   0.4335341855E-03   0.4335341855E-03   0.6284516011E-04   0.7982211309E-05   0.7982211309E-05   0.2438492436E-02   0.4255519742E-03   0.4255519742E-03   0.1044142616E+01  -0.5982828073E-02  -0.5982828073E-02  -0.6614246442E-02  -0.6614246442E-02   0.8672145703E-07   0.0000000000E+00   0.1050515749E+01
   0.1002501338E+01   0.9995664658E+00   0.4335341855E-03   0.6284516011E-04  -0.7982211309E-05   0.7982211309E-05   0.2438492436E-02  -0.4255519742E-03   0.4255519742E-03   0.1044142616E+01  -0.5982828073E-02  -0.5982828073E-02   0.6614246446E-02  -0.6614246442E-02  -0.8672107674E-07   0.0000000000E+00   0.1050515749E+01
   0.0000000000E+00   0.9994163818E+00   0.5836182202E-03   0.0000000000E+00  -0.1446429481E-04   0.1446429481E-04   0.0000000000E+00  -0.5691539254E-03   0.5691539254E-03   0.1154246959E+01   0.7747818195E-01   0.7747818195E-01   0.7776025020E-02  -0.7776025015E-02  -0.1182658870E-06   0.0000000000E+00   0.1077274462E+01
   0.0000000000E+00   0.5836182202E-03   0.9994163818E+00   0.0000000000E+00   0.1446429481E-04  -0.1446429481E-04   0.0000000000E+00   0.5691539254E-03  -0.5691539254E-03   0.1154246959E+01   0.7747818195E-01   0.7747818195E-01  -0.7776025015E-02   0.7776025020E-02  -0.1182658870E-06   0.0000000000E+00   0.1077274462E+01
   0.1002501338E+01   0.4335341855E-03   0.9995664658E+00   0.6284516011E-04   0.7982211309E-05  -0.7982211309E-05   0.2438492436E-02   0.4255519742E-03  -0.4255519742E-03   0.1044142616E+01  -0.5982828073E-02  -0.5982828073E-02  -0.6614246442E-02   0.6614246446E-02  -0.8672107675E-07   0.0000000000E+00   0.1050515749E+01
   0.1002501338E+01   0.9995664658E+00   0.9995664658E+00   0.6284516011E-04  -0.7982211309E-05  -0.7982211309E-05   0.2438492436E-02  -0.4255519742E-03  -0.4255519742E-03   0.1044142616E+01  -0.5982828073E-02  -0.5982828073E-02   0.6614246446E-02   0.6614246446E-02   0.8672069646E-07   0.0000000000E+00   0.1050515749E+01
   0.0000000000E+00   0.9994163818E+00   0.9994163818E+00   0.0000000000E+00  -0.1446429481E-04  -0.1446429481E-04   0.0000000000E+00  -0.5691539254E-03  -0.5691539254E-03   0.1154246959E+01   0.7747818195E-01   0.7747818195E-01   0.7776025020E-02   0.7776025020E-02   0.1182656335E-06   0.0000000000E+00   0.1077274462E+01
   0.2004400000E+01   0.3800769593E-03   0.3800769593E-03   0.1000000000E-03   0.4436692241E-05   0.4436692241E-05   0.4300000000E-02   0.3756402670E-03   0.3756402670E-03   0.9356307933E+00  -0.9024009796E-01  -0.9024009796E-01  -0.5727522793E-02  -0.5727522793E-02   0.6384898025E-07   0.0000000000E+00   0.1026160060E+01
   0.2004400000E+01   0.9996199230E+00   0.3800769593E-03   0.1000000000E-03  -0.4436692240E-05   0.4436692241E-05   0.4300000000E-02  -0.3756402670E-03   0.3756402670E-03   0.9356307933E+00  -0.9024009796E-01  -0.9024009796E-01   0.5727522799E-02  -0.5727522793E-02  -0.6384847304E-07   0.0000000000E+00   0.1026160060E+01
   0.2004400000E+01   0.3800769593E-03   0.9996199230E+00   0.1000000000E-03   0.4436692241E-05  -0.4436692240E-05   0.4300000000E-02   0.3756402670E-03  -0.3756402670E-03   0.9356307933E+00  -0.9024009796E-01  -0.9024009796E-01  -0.5727522793E-02   0.5727522799E-02  -0.6384847305E-07   0.0000000000E+00   0.1026160060E+01
   0.2004400000E+01   0.9996199230E+00   0.9996199230E+00   0.1000000000E-03  -0.4436692240E-05  -0.4436692240E-05   0.4300000000E-02  -0.3756402670E-03  -0.3756402670E-03   0.9356307932E+00  -0.9024009796E-01  -0.9024009796E-01   0.5727522799E-02   0.5727522799E-02   0.6384796582E-07   0.0000000000E+00   0.1026160060E+01
     1     2     3     4     5     6     7     8
     2     9    10     3     6    11    12     7
 VARIABLES = X,Y,Z,DU1,DU2,DU3,U1,U2,U3,S11,S22,S33,S12,S13,S23,Vf,SMISES
 ZONE, T="0.4500D+00" F=FEPOINT, I=   12 J=    2 ET=BRICK
   0.0000000000E+00   0.5999977774E-03   0.5999977774E-03   0.0000000000E+00   0.1637955721E-04   0.1637955721E-04   0.0000000000E+00   0.5836182202E-03   0.5836182202E-03   0.1171009195E+01   0.9520403381E-01   0.9520403381E-01  -0.8087418167E-02  -0.8087418167E-02   0.1271707308E-06   0.0000000000E+00   0.1076352620E+01
   0.1002561946E+01   0.4418724442E-03   0.4418724442E-03   0.6060864102E-04   0.8338258700E-05   0.8338258700E-05   0.2501337596E-02   0.4335341855E-03   0.4335341855E-03   0.1058288224E+01   0.8988560438E-02   0.8988560438E-02  -0.6891563568E-02  -0.6891563568E-02   0.9345800628E-07   0.0000000000E+00   0.1049723114E+01
   0.1002561946E+01   0.9995581276E+00   0.4418724442E-03   0.6060864102E-04  -0.8338258700E-05   0.8338258700E-05   0.2501337596E-02  -0.4335341855E-03   0.4335341855E-03   0.1058288223E+01   0.8988560438E-02   0.8988560437E-02   0.6891563572E-02  -0.6891563568E-02  -0.9345759272E-07   0.0000000000E+00   0.1049723114E+01
   0.0000000000E+00   0.9994000022E+00   0.5999977774E-03   0.0000000000E+00  -0.1637955721E-04   0.1637955721E-04   0.0000000000E+00  -0.5836182202E-03   0.5836182202E-03   0.1171009195E+01   0.9520403381E-01   0.9520403381E-01   0.8087418172E-02  -0.8087418167E-02  -0.1271704231E-06   0.0000000000E+00   0.1076352620E+01
   0.0000000000E+00   0.5999977774E-03   0.9994000022E+00   0.0000000000E+00   0.1637955721E-04  -0.1637955721E-04   0.0000000000E+00   0.5836182202E-03  -0.5836182202E-03   0.1171009195E+01   0.9520403381E-01   0.9520403381E-01  -0.8087418167E-02   0.8087418172E-02  -0.1271704231E-06   0.0000000000E+00   0.1076352620E+01
   0.1002561946E+01   0.4418724442E-03   0.9995581276E+00   0.6060864102E-04   0.8338258700E-05  -0.8338258700E-05   0.2501337596E-02   0.4335341855E-03  -0.4335341855E-03   0.1058288223E+01   0.8988560437E-02   0.8988560438E-02  -0.6891563568E-02   0.6891563572E-02  -0.9345759273E-07   0.0000000000E+00   0.1049723114E+01
   0.1002561946E+01   0.9995581276E+00   0.9995581276E+00   0.6060864102E-04  -0.8338258700E-05  -0.8338258700E-05   0.2501337596E-02  -0.4335341855E-03  -0.4335341855E-03   0.1058288223E+01   0.8988560437E-02   0.8988560437E-02   0.6891563572E-02   0.6891563572E-02   0.9345717918E-07   0.0000000000E+00   0.1049723114E+01
   0.0000000000E+00   0.9994000022E+00   0.9994000022E+00   0.0000000000E+00  -0.1637955721E-04  -0.1637955721E-04   0.0000000000E+00  -0.5836182202E-03  -0.5836182202E-03   0.1171009195E+01   0.9520403381E-01   0.9520403381E-01   0.8087418171E-02   0.8087418171E-02   0.1271701155E-06   0.0000000000E+00   0.1076352620E+01
   0.2004500000E+01   0.3831927441E-03   0.3831927441E-03   0.1000000000E-03   0.3115784786E-05   0.3115784786E-05   0.4400000000E-02   0.3800769593E-03   0.3800769593E-03   0.9469861332E+00  -0.7793635359E-01  -0.7793635359E-01  -0.5955161952E-02  -0.5955161952E-02   0.6813259046E-07   0.0000000000E+00   0.1025235217E+01
   0.2004500000E+01   0.9996168073E+00   0.3831927441E-03   0.1000000000E-03  -0.3115784786E-05   0.3115784786E-05   0.4400000000E-02  -0.3800769592E-03   0.3800769593E-03   0.9469861331E+00  -0.7793635359E-01  -0.7793635359E-01   0.5955161958E-02  -0.5955161952E-02  -0.6813207747E-07   0.0000000000E+00   0.1025235217E+01
   0.2004500000E+01   0.3831927441E-03   0.9996168073E+00   0.1000000000E-03   0.3115784786E-05  -0.3115784786E-05   0.4400000000E-02   0.3800769593E-03  -0.3800769592E-03   0.9469861331E+00  -0.7793635359E-01  -0.7793635359E-01  -0.5955161952E-02   0.5955161958E-02  -0.6813207748E-07   0.0000000000E+00   0.1025235217E+01
   0.2004500000E+01   0.9996168073E+00   0.9996168073E+00   0.1000000000E-03  -0.3115784786E-05  -0.3115784786E-05   0.4400000000E-02  -0.3800769592E-03  -0.3800769592E-03   0.9469861331E+00  -0.7793635359E-01  -0.7793635359E-01   0.5955161958E-02   0.5955161958E-02   0.6813156446E-07   0.0000000000E+00   0.1025235217E+01
     1     2     3     4     5     6     7     8
     2     9    10     3     6    11    12     7
 VARIABLES = X,Y,Z,DU1,DU2,DU3,U1,U2,U3,S11,S22,S33,S12,S13,S23,Vf,SMISES
 ZONE, T="0.4600D+00" F=FEPOINT, I=   12 J=    2 ET=BRICK
   0.0000000000E+00   0.6184303776E-03   0.6184303776E-03   0.0000000000E+00   0.1843260018E-04   0.1843260018E-04   0.0000000000E+00   0.5999977774E-03   0.5999977774E-03   0.1181529533E+01   0.1060759806E+00   0.1060759806E+00  -0.8565842738E-02  -0.8565842738E-02   0.1401619511E-06   0.0000000000E+00   0.1076067868E+01
   0.1002620434E+01   0.4508215228E-03   0.4508215228E-03   0.5848801974E-04   0.8949078590E-05   0.8949078590E-05   0.2561946237E-02   0.4418724442E-03   0.4418724442E-03   0.1071599124E+01   0.2245009489E-01   0.2245009489E-01  -0.7350959352E-02  -0.7350959352E-02   0.1038581624E-06   0.0000000000E+00   0.1049629153E+01
   0.1002620434E+01   0.9995491785E+00   0.4508215228E-03   0.5848801974E-04  -0.8949078589E-05   0.8949078590E-05   0.2561946237E-02  -0.4418724442E-03   0.4418724442E-03   0.1071599124E+01   0.2245009489E-01   0.2245009489E-01   0.7350959356E-02  -0.7350959351E-02  -0.1038577244E-06   0.0000000000E+00   0.1049629153E+01
   0.0000000000E+00   0.9993815696E+00   0.6184303776E-03   0.0000000000E+00  -0.1843260018E-04   0.1843260018E-04   0.0000000000E+00  -0.5999977774E-03   0.5999977774E-03   0.1181529533E+01   0.1060759805E+00   0.1060759805E+00   0.8565842743E-02  -0.8565842738E-02  -0.1401616087E-06   0.0000000000E+00   0.1076067867E+01
   0.0000000000E+00   0.6184303776E-03   0.9993815696E+00   0.0000000000E+00   0.1843260018E-04  -0.1843260018E-04   0.0000000000E+00   0.5999977774E-03  -0.5999977774E-03   0.1181529533E+01   0.1060759805E+00   0.1060759805E+00  -0.8565842738E-02   0.8565842743E-02  -0.1401616087E-06   0.0000000000E+00   0.1076067867E+01
   0.1002620434E+01   0.4508215228E-03   0.9995491785E+00   0.5848801974E-04   0.8949078590E-05  -0.8949078589E-05   0.2561946237E-02   0.4418724442E-03  -0.4418724442E-03   0.1071599124E+01   0.2245009489E-01   0.2245009489E-01  -0.7350959351E-02   0.7350959356E-02  -0.1038577244E-06   0.0000000000E+00   0.1049629153E+01
   0.1002620434E+01   0.9995491785E+00   0.9995491785E+00   0.5848801974E-04  -0.8949078590E-05  -0.8949078590E-05   0.2561946237E-02  -0.4418724442E-03  -0.4418724442E-03   0.1071599124E+01   0.2245009489E-01   0.2245009489E-01   0.7350959356E-02   0.7350959356E-02   0.1038572864E-06   0.0000000000E+00   0.1049629153E+01
   0.0000000000E+00   0.9993815696E+00   0.9993815696E+00   0.0000000000E+00  -0.1843260018E-04  -0.1843260018E-04   0.0000000000E+00  -0.5999977774E-03  -0.5999977774E-03   0.1181529533E+01   0.1060759805E+00   0.1060759805E+00   0.8565842743E-02   0.8565842743E-02   0.1401612663E-06   0.0000000000E+00   0.1076067867E+01
   0.2004600000E+01   0.3853604529E-03   0.3853604529E-03   0.1000000000E-03   0.2167708845E-05   0.2167708845E-05   0.4500000000E-02   0.3831927441E-03   0.3831927441E-03   0.9628525233E+00  -0.6176769469E-01  -0.6176769469E-01  -0.6378225946E-02  -0.6378225946E-02   0.7574340103E-07   0.0000000000E+00   0.1024978837E+01
   0.2004600000E+01   0.9996146395E+00   0.3853604529E-03   0.1000000000E-03  -0.2167708845E-05   0.2167708845E-05   0.4500000000E-02  -0.3831927440E-03   0.3831927441E-03   0.9628525232E+00  -0.6176769469E-01  -0.6176769469E-01   0.6378225951E-02  -0.6378225945E-02  -0.7574287972E-07   0.0000000000E+00   0.1024978836E+01
   0.2004600000E+01   0.3853604529E-03   0.9996146395E+00   0.1000000000E-03   0.2167708845E-05  -0.2167708845E-05   0.4500000000E-02   0.3831927441E-03  -0.3831927440E-03   0.9628525232E+00  -0.6176769469E-01  -0.6176769469E-01  -0.6378225945E-02   0.6378225951E-02  -0.7574287973E-07   0.0000000000E+00   0.1024978836E+01
   0.2004600000E+01   0.9996146395E+00   0.9996146395E+00   0.1000000000E-03  -0.2167708845E-05  -0.2167708845E-05   0.4500000000E-02  -0.3831927440E-03  -0.3831927440E-03   0.9628525232E+00  -0.6176769468E-01  -0.6176769468E-01   0.6378225951E-02   0.6378225951E-02   0.7574235839E-07   0.0000000000E+00   0.1024978836E+01
     1     2     3     4     5     6     7     8
     2     9    10     3     6    11    12     7
 VARIABLES = X,Y,Z,DU1,DU2,DU3,U1,U2,U3,S11,S22,S33,S12,S13,S23,Vf,SMISES
 ZONE, T="0.4700D+00" F=FEPOINT, I=   12 J=    2 ET=BRICK
   0.0000000000E+00   0.6388947616E-03   0.6388947616E-03   0.0000000000E+00   0.2046438397E-04   0.2046438397E-04   0.0000000000E+00   0.6184303776E-03   0.6184303776E-03   0.1185116255E+01   0.1094541862E+00   0.1094541862E+00  -0.9184990518E-02  -0.9184990518E-02   0.1574490870E-06   0.0000000000E+00   0.1076368229E+01
   0.1002677016E+01   0.4605757163E-03   0.4605757163E-03   0.5658142947E-04   0.9754193514E-05   0.9754193514E-05   0.2620434257E-02   0.4508215228E-03   0.4508215228E-03   0.1083068278E+01   0.3340354274E-01   0.3340354274E-01  -0.7967689506E-02  -0.7967689506E-02   0.1181992656E-06   0.0000000000E+00   0.1050225875E+01
   0.1002677016E+01   0.9995394243E+00   0.4605757163E-03   0.5658142947E-04  -0.9754193513E-05   0.9754193514E-05   0.2620434257E-02  -0.4508215228E-03   0.4508215228E-03   0.1083068278E+01   0.3340354274E-01   0.3340354274E-01   0.7967689510E-02  -0.7967689506E-02  -0.1181988142E-06   0.0000000000E+00   0.1050225875E+01
   0.0000000000E+00   0.9993611052E+00   0.6388947616E-03   0.0000000000E+00  -0.2046438397E-04   0.2046438397E-04   0.0000000000E+00  -0.6184303776E-03   0.6184303776E-03   0.1185116255E+01   0.1094541862E+00   0.1094541862E+00   0.9184990522E-02  -0.9184990517E-02  -0.1574487299E-06   0.0000000000E+00   0.1076368229E+01
   0.0000000000E+00   0.6388947616E-03   0.9993611052E+00   0.0000000000E+00   0.2046438397E-04  -0.2046438397E-04   0.0000000000E+00   0.6184303776E-03  -0.6184303776E-03   0.1185116255E+01   0.1094541862E+00   0.1094541862E+00  -0.9184990517E-02   0.9184990522E-02  -0.1574487299E-06   0.0000000000E+00   0.1076368229E+01
   0.1002677016E+01   0.4605757163E-03   0.9995394243E+00   0.5658142947E-04   0.9754193514E-05  -0.9754193513E-05   0.2620434257E-02   0.4508215228E-03  -0.4508215228E-03   0.1083068278E+01   0.3340354274E-01   0.3340354274E-01  -0.7967689506E-02   0.7967689510E-02  -0.1181988143E-06   0.0000000000E+00   0.1050225875E+01
   0.1002677016E+01   0.9995394243E+00   0.9995394243E+00   0.5658142947E-04  -0.9754193513E-05  -0.9754193513E-05   0.2620434257E-02  -0.4508215228E-03  -0.4508215228E-03   0.1083068278E+01   0.3340354273E-01   0.3340354273E-01   0.7967689510E-02   0.7967689510E-02   0.1181983629E-06   0.0000000000E+00   0.1050225875E+01
   0.0000000000E+00   0.9993611052E+00   0.9993611052E+00   0.0000000000E+00  -0.2046438397E-04  -0.2046438397E-04   0.0000000000E+00  -0.6184303776E-03  -0.6184303776E-03   0.1185116255E+01   0.1094541862E+00   0.1094541862E+00   0.9184990522E-02   0.9184990522E-02   0.1574483729E-06   0.0000000000E+00   0.1076368229E+01
   0.2004700000E+01   0.3869923807E-03   0.3869923807E-03   0.1000000000E-03   0.1631927755E-05   0.1631927755E-05   0.4600000000E-02   0.3853604529E-03   0.3853604529E-03   0.9819301869E+00  -0.4310204367E-01  -0.4310204367E-01  -0.6973604510E-02  -0.6973604510E-02   0.8697763014E-07   0.0000000000E+00   0.1025460490E+01
   0.2004700000E+01   0.9996130076E+00   0.3869923807E-03   0.1000000000E-03  -0.1631927755E-05   0.1631927755E-05   0.4600000000E-02  -0.3853604529E-03   0.3853604529E-03   0.9819301869E+00  -0.4310204367E-01  -0.4310204367E-01   0.6973604515E-02  -0.6973604510E-02  -0.8697710146E-07   0.0000000000E+00   0.1025460490E+01
   0.2004700000E+01   0.3869923807E-03   0.9996130076E+00   0.1000000000E-03   0.1631927755E-05  -0.1631927755E-05   0.4600000000E-02   0.3853604529E-03  -0.3853604529E-03   0.9819301869E+00  -0.4310204367E-01  -0.4310204367E-01  -0.6973604510E-02   0.6973604515E-02  -0.8697710146E-07   0.0000000000E+00   0.1025460490E+01
   0.2004700000E+01   0.9996130076E+00   0.9996130076E+00   0.1000000000E-03  -0.1631927755E-05  -0.1631927755E-05   0.4600000000E-02  -0.3853604529E-03  -0.3853604529E-03   0.9819301869E+00  -0.4310204367E-01  -0.4310204367E-01   0.6973604515E-02   0.6973604515E-02   0.8697657276E-07   0.0000000000E+00   0.1025460490E+01
     1     2     3     4     5     6     7     8
     2     9    10     3     6    11    12     7
 VARIABLES = X,Y,Z,DU1,DU2,DU3,U1,U2,U3,S11,S22,S33,S12,S13,S23,Vf,SMISES
 ZONE, T="0.4800D+00" F=FEPOINT, I=   12 J=    2 ET=BRICK
   0.0000000000E+00   0.6612149311E-03   0.6612149311E-03   0.0000000000E+00   0.2232016954E-04   0.2232016954E-04   0.0000000000E+00   0.6388947616E-03   0.6388947616E-03   0.1181572630E+01   0.1052413420E+00   0.1052413420E+00  -0.9908360301E-02  -0.9908360301E-02   0.1790212289E-06   0.0000000000E+00   0.1077152510E+01
   0.1002731987E+01   0.4712565406E-03   0.4712565406E-03   0.5497133337E-04   0.1068082429E-04   0.1068082429E-04   0.2677015686E-02   0.4605757163E-03   0.4605757163E-03   0.1091884362E+01   0.4110670090E-01   0.4110670090E-01  -0.8705817218E-02  -0.8705817218E-02   0.1366182178E-06   0.0000000000E+00   0.1051443640E+01
   0.1002731987E+01   0.9995287435E+00   0.4712565406E-03   0.5497133337E-04  -0.1068082429E-04   0.1068082429E-04   0.2677015686E-02  -0.4605757163E-03   0.4605757163E-03   0.1091884362E+01   0.4110670090E-01   0.4110670090E-01   0.8705817222E-02  -0.8705817217E-02  -0.1366177656E-06   0.0000000000E+00   0.1051443640E+01
   0.0000000000E+00   0.9993387851E+00   0.6612149311E-03   0.0000000000E+00  -0.2232016954E-04   0.2232016954E-04   0.0000000000E+00  -0.6388947616E-03   0.6388947616E-03   0.1181572629E+01   0.1052413420E+00   0.1052413420E+00   0.9908360306E-02  -0.9908360301E-02  -0.1790208768E-06   0.0000000000E+00   0.1077152510E+01
   0.0000000000E+00   0.6612149311E-03   0.9993387851E+00   0.0000000000E+00   0.2232016954E-04  -0.2232016954E-04   0.0000000000E+00   0.6388947616E-03  -0.6388947616E-03   0.1181572629E+01   0.1052413420E+00   0.1052413420E+00  -0.9908360301E-02   0.9908360306E-02  -0.1790208769E-06   0.0000000000E+00   0.1077152510E+01
   0.1002731987E+01   0.4712565406E-03   0.9995287435E+00   0.5497133337E-04   0.1068082429E-04  -0.1068082429E-04   0.2677015686E-02   0.4605757163E-03  -0.4605757163E-03   0.1091884362E+01   0.4110670090E-01   0.4110670090E-01  -0.8705817217E-02   0.8705817222E-02  -0.1366177656E-06   0.0000000000E+00   0.1051443640E+01
   0.1002731987E+01   0.9995287435E+00   0.9995287435E+00   0.5497133337E-04  -0.1068082429E-04  -0.1068082429E-04   0.2677015686E-02  -0.4605757163E-03  -0.4605757163E-03   0.1091884362E+01   0.4110670090E-01   0.4110670090E-01   0.8705817221E-02   0.8705817221E-02   0.1366173134E-06   0.0000000000E+00   0.1051443640E+01
   0.0000000000E+00   0.9993387851E+00   0.9993387851E+00   0.0000000000E+00  -0.2232016954E-04  -0.2232016954E-04   0.0000000000E+00  -0.6388947616E-03  -0.6388947616E-03   0.1181572629E+01   0.1052413420E+00   0.1052413420E+00   0.9908360305E-02   0.9908360305E-02   0.1790205248E-06   0.0000000000E+00   0.1077152510E+01
   0.2004800000E+01   0.3885111141E-03   0.3885111141E-03   0.1000000000E-03   0.1518733463E-05   0.1518733463E-05   0.4700000000E-02   0.3869923807E-03   0.3869923807E-03   0.1002819063E+01  -0.2333942507E-01  -0.2333942507E-01  -0.7706275732E-02  -0.7706275732E-02   0.1020686599E-06   0.0000000000E+00   0.1026680619E+01
   0.2004800000E+01   0.9996114889E+00   0.3885111141E-03   0.1000000000E-03  -0.1518733463E-05   0.1518733463E-05   0.4700000000E-02  -0.3869923806E-03   0.3869923807E-03   0.1002819063E+01  -0.2333942506E-01  -0.2333942506E-01   0.7706275737E-02  -0.7706275732E-02  -0.1020681281E-06   0.0000000000E+00   0.1026680619E+01
   0.2004800000E+01   0.3885111141E-03   0.9996114889E+00   0.1000000000E-03   0.1518733463E-05  -0.1518733463E-05   0.4700000000E-02   0.3869923807E-03  -0.3869923806E-03   0.1002819063E+01  -0.2333942506E-01  -0.2333942506E-01  -0.7706275732E-02   0.7706275737E-02  -0.1020681281E-06   0.0000000000E+00   0.1026680619E+01
   0.2004800000E+01   0.9996114889E+00   0.9996114889E+00   0.1000000000E-03  -0.1518733463E-05  -0.1518733463E-05   0.4700000000E-02  -0.3869923806E-03  -0.3869923806E-03   0.1002819063E+01  -0.2333942506E-01  -0.2333942506E-01   0.7706275737E-02   0.7706275737E-02   0.1020675964E-06   0.0000000000E+00   0.1026680619E+01
     1     2     3     4     5     6     7     8
     2     9    10     3     6    11    12     7
 VARIABLES = X,Y,Z,DU1,DU2,DU3,U1,U2,U3,S11,S22,S33,S12,S13,S23,Vf,SMISES
 ZONE, T="0.4900D+00" F=FEPOINT, I=   12 J=    2 ET=BRICK
   0.0000000000E+00   0.6850753334E-03   0.6850753334E-03   0.0000000000E+00   0.2386040232E-04   0.2386040232E-04   0.0000000000E+00   0.6612149311E-03   0.6612149311E-03   0.1171204917E+01   0.9387927316E-01   0.9387927316E-01  -0.1069205277E-01  -0.1069205277E-01   0.2045092727E-06   0.0000000000E+00   0.1078280996E+01
   0.1002785707E+01   0.4829069369E-03   0.4829069369E-03   0.5372002465E-04   0.1165039633E-04   0.1165039633E-04   0.2731987020E-02   0.4712565406E-03   0.4712565406E-03   0.1097486663E+01   0.4511881190E-01   0.4511881190E-01  -0.9520857350E-02  -0.9520857350E-02   0.1589509916E-06   0.0000000000E+00   0.1053159696E+01
   0.1002785707E+01   0.9995170931E+00   0.4829069369E-03   0.5372002465E-04  -0.1165039633E-04   0.1165039633E-04   0.2731987020E-02  -0.4712565406E-03   0.4712565406E-03   0.1097486663E+01   0.4511881190E-01   0.4511881190E-01   0.9520857354E-02  -0.9520857349E-02  -0.1589505516E-06   0.0000000000E+00   0.1053159696E+01
   0.0000000000E+00   0.9993149247E+00   0.6850753334E-03   0.0000000000E+00  -0.2386040232E-04   0.2386040232E-04   0.0000000000E+00  -0.6612149311E-03   0.6612149311E-03   0.1171204917E+01   0.9387927316E-01   0.9387927316E-01   0.1069205278E-01  -0.1069205277E-01  -0.2045089432E-06   0.0000000000E+00   0.1078280996E+01
   0.0000000000E+00   0.6850753334E-03   0.9993149247E+00   0.0000000000E+00   0.2386040232E-04  -0.2386040232E-04   0.0000000000E+00   0.6612149311E-03  -0.6612149311E-03   0.1171204917E+01   0.9387927316E-01   0.9387927316E-01  -0.1069205277E-01   0.1069205278E-01  -0.2045089432E-06   0.0000000000E+00   0.1078280996E+01
   0.1002785707E+01   0.4829069369E-03   0.9995170931E+00   0.5372002465E-04   0.1165039633E-04  -0.1165039633E-04   0.2731987020E-02   0.4712565406E-03  -0.4712565406E-03   0.1097486663E+01   0.4511881190E-01   0.4511881190E-01  -0.9520857349E-02   0.9520857354E-02  -0.1589505516E-06   0.0000000000E+00   0.1053159696E+01
   0.1002785707E+01   0.9995170931E+00   0.9995170931E+00   0.5372002465E-04  -0.1165039633E-04  -0.1165039633E-04   0.2731987020E-02  -0.4712565406E-03  -0.4712565406E-03   0.1097486663E+01   0.4511881190E-01   0.4511881190E-01   0.9520857353E-02   0.9520857353E-02   0.1589501115E-06   0.0000000000E+00   0.1053159696E+01
   0.0000000000E+00   0.9993149247E+00   0.9993149247E+00   0.0000000000E+00  -0.2386040232E-04  -0.2386040232E-04   0.0000000000E+00  -0.6612149311E-03  -0.6612149311E-03   0.1171204917E+01   0.9387927315E-01   0.9387927315E-01   0.1069205278E-01   0.1069205278E-01   0.2045086137E-06   0.0000000000E+00   0.1078280996E+01
   0.2004900000E+01   0.3903224306E-03   0.3903224306E-03   0.1000000000E-03   0.1811316482E-05   0.1811316482E-05   0.4800000000E-02   0.3885111141E-03   0.3885111141E-03   0.1024117629E+01  -0.3816259688E-02  -0.3816259688E-02  -0.8531774273E-02  -0.8531774273E-02   0.1210123852E-06   0.0000000000E+00   0.1028572505E+01
   0.2004900000E+01   0.9996096776E+00   0.3903224306E-03   0.1000000000E-03  -0.1811316482E-05   0.1811316482E-05   0.4800000000E-02  -0.3885111141E-03   0.3885111141E-03   0.1024117629E+01  -0.3816259687E-02  -0.3816259688E-02   0.8531774278E-02  -0.8531774273E-02  -0.1210118578E-06   0.0000000000E+00   0.1028572505E+01
   0.2004900000E+01   0.3903224306E-03   0.9996096776E+00   0.1000000000E-03   0.1811316482E-05  -0.1811316482E-05   0.4800000000E-02   0.3885111141E-03  -0.3885111141E-03   0.1024117629E+01  -0.3816259688E-02  -0.3816259687E-02  -0.8531774273E-02   0.8531774278E-02  -0.1210118578E-06   0.0000000000E+00   0.1028572505E+01
   0.2004900000E+01   0.9996096776E+00   0.9996096776E+00   0.1000000000E-03  -0.1811316482E-05  -0.1811316482E-05   0.4800000000E-02  -0.3885111141E-03  -0.3885111141E-03   0.1024117629E+01  -0.3816259687E-02  -0.3816259687E-02   0.8531774278E-02   0.8531774278E-02   0.1210113304E-06   0.0000000000E+00   0.1028572505E+01
     1     2     3     4     5     6     7     8
     2     9    10     3     6    11    12     7
 VARIABLES = X,Y,Z,DU1,DU2,DU3,U1,U2,U3,S11,S22,S33,S12,S13,S23,Vf,SMISES
 ZONE, T="0.5000D+00" F=FEPOINT, I=   12 J=    2 ET=BRICK
   0.0000000000E+00   0.7100456013E-03   0.7100456013E-03   0.0000000000E+00   0.2497026787E-04   0.2497026787E-04   0.0000000000E+00   0.6850753334E-03   0.6850753334E-03   0.1154794238E+01   0.7630585560E-01   0.7630585560E-01  -0.1148808531E-01  -0.1148808531E-01   0.2330815187E-06   0.0000000000E+00   0.1079590066E+01
   0.1002838574E+01   0.4954920704E-03   0.4954920704E-03   0.5286651873E-04   0.1258513348E-04   0.1258513348E-04   0.2785707044E-02   0.4829069369E-03   0.4829069369E-03   0.1099598275E+01   0.4531862715E-01   0.4531862715E-01  -0.1036305342E-01  -0.1036305342E-01   0.1845934391E-06   0.0000000000E+00   0.1055212678E+01
   0.1002838574E+01   0.9995045079E+00   0.4954920704E-03   0.5286651873E-04  -0.1258513348E-04   0.1258513348E-04   0.2785707044E-02  -0.4829069369E-03   0.4829069369E-03   0.1099598275E+01   0.4531862715E-01   0.4531862715E-01   0.1036305342E-01  -0.1036305342E-01  -0.1845930239E-06   0.0000000000E+00   0.1055212678E+01
   0.0000000000E+00   0.9992899544E+00   0.7100456013E-03   0.0000000000E+00  -0.2497026786E-04   0.2497026787E-04   0.0000000000E+00  -0.6850753334E-03   0.6850753334E-03   0.1154794238E+01   0.7630585560E-01   0.7630585560E-01   0.1148808531E-01  -0.1148808531E-01  -0.2330812262E-06   0.0000000000E+00   0.1079590066E+01
   0.0000000000E+00   0.7100456013E-03   0.9992899544E+00   0.0000000000E+00   0.2497026787E-04  -0.2497026786E-04   0.0000000000E+00   0.6850753334E-03  -0.6850753334E-03   0.1154794238E+01   0.7630585560E-01   0.7630585560E-01  -0.1148808531E-01   0.1148808531E-01  -0.2330812262E-06   0.0000000000E+00   0.1079590066E+01
   0.1002838574E+01   0.4954920704E-03   0.9995045079E+00   0.5286651873E-04   0.1258513348E-04  -0.1258513348E-04   0.2785707044E-02   0.4829069369E-03  -0.4829069369E-03   0.1099598275E+01   0.4531862715E-01   0.4531862715E-01  -0.1036305342E-01   0.1036305342E-01  -0.1845930239E-06   0.0000000000E+00   0.1055212678E+01
   0.1002838574E+01   0.9995045079E+00   0.9995045079E+00   0.5286651873E-04  -0.1258513348E-04  -0.1258513348E-04   0.2785707044E-02  -0.4829069369E-03  -0.4829069369E-03   0.1099598275E+01   0.4531862714E-01   0.4531862714E-01   0.1036305342E-01   0.1036305342E-01   0.1845926087E-06   0.0000000000E+00   0.1055212678E+01
   0.0000000000E+00   0.9992899544E+00   0.9992899544E+00   0.0000000000E+00  -0.2497026786E-04  -0.2497026786E-04   0.0000000000E+00  -0.6850753334E-03  -0.6850753334E-03   0.1154794238E+01   0.7630585560E-01   0.7630585560E-01   0.1148808531E-01   0.1148808531E-01   0.2330809338E-06   0.0000000000E+00   0.1079590065E+01
   0.2005000000E+01   0.3927918109E-03   0.3927918109E-03   0.1000000000E-03   0.2469380309E-05   0.2469380309E-05   0.4900000000E-02   0.3903224306E-03   0.3903224306E-03   0.1044513980E+01   0.1427556510E-01   0.1427556510E-01  -0.9399342277E-02  -0.9399342277E-02   0.1434010265E-06   0.0000000000E+00   0.1031011535E+01
   0.2005000000E+01   0.9996072082E+00   0.3927918109E-03   0.1000000000E-03  -0.2469380309E-05   0.2469380309E-05   0.4900000000E-02  -0.3903224306E-03   0.3903224306E-03   0.1044513980E+01   0.1427556510E-01   0.1427556510E-01   0.9399342281E-02  -0.9399342277E-02  -0.1434005131E-06   0.0000000000E+00   0.1031011535E+01
   0.2005000000E+01   0.3927918109E-03   0.9996072082E+00   0.1000000000E-03   0.2469380309E-05  -0.2469380309E-05   0.4900000000E-02   0.3903224306E-03  -0.3903224306E-03   0.1044513980E+01   0.1427556510E-01   0.1427556510E-01  -0.9399342277E-02   0.9399342281E-02  -0.1434005131E-06   0.0000000000E+00   0.1031011535E+01
   0.2005000000E+01   0.9996072082E+00   0.9996072082E+00   0.1000000000E-03  -0.2469380309E-05  -0.2469380309E-05   0.4900000000E-02  -0.3903224306E-03  -0.3903224306E-03   0.1044513980E+01   0.1427556510E-01   0.1427556510E-01   0.9399342281E-02   0.9399342281E-02   0.1433999997E-06   0.0000000000E+00   0.1031011535E+01
     1     2     3     4     5     6     7     8
     2     9    10     3     6    11    12     7
 VARIABLES = X,Y,Z,DU1,DU2,DU3,U1,U2,U3,S11,S22,S33,S12,S13,S23,Vf,SMISES
 ZONE, T="0.5100D+00" F=FEPOINT, I=   12 J=    2 ET=BRICK
   0.0000000000E+00   0.7356128620E-03   0.7356128620E-03   0.0000000000E+00   0.2556726067E-04   0.2556726067E-04   0.0000000000E+00   0.7100456013E-03   0.7100456013E-03   0.1133534492E+01   0.5387682584E-01   0.5387682584E-01  -0.1224792456E-01  -0.1224792456E-01   0.2634158586E-06   0.0000000000E+00   0.1080908523E+01
   0.1002890999E+01   0.5089062743E-03   0.5089062743E-03   0.5242498411E-04   0.1341420395E-04   0.1341420395E-04   0.2838573563E-02   0.4954920704E-03   0.4954920704E-03   0.1098235497E+01   0.4189558048E-01   0.4189558048E-01  -0.1118101947E-01  -0.1118101947E-01   0.2124339947E-06   0.0000000000E+00   0.1057420806E+01
   0.1002890999E+01   0.9994910937E+00   0.5089062743E-03   0.5242498411E-04  -0.1341420394E-04   0.1341420395E-04   0.2838573563E-02  -0.4954920704E-03   0.4954920704E-03   0.1098235497E+01   0.4189558048E-01   0.4189558047E-01   0.1118101947E-01  -0.1118101947E-01  -0.2124336157E-06   0.0000000000E+00   0.1057420806E+01
   0.0000000000E+00   0.9992643871E+00   0.7356128619E-03   0.0000000000E+00  -0.2556726067E-04   0.2556726067E-04   0.0000000000E+00  -0.7100456013E-03   0.7100456013E-03   0.1133534492E+01   0.5387682584E-01   0.5387682584E-01   0.1224792456E-01  -0.1224792456E-01  -0.2634156134E-06   0.0000000000E+00   0.1080908523E+01
   0.0000000000E+00   0.7356128619E-03   0.9992643871E+00   0.0000000000E+00   0.2556726067E-04  -0.2556726067E-04   0.0000000000E+00   0.7100456013E-03  -0.7100456013E-03   0.1133534492E+01   0.5387682584E-01   0.5387682584E-01  -0.1224792456E-01   0.1224792456E-01  -0.2634156135E-06   0.0000000000E+00   0.1080908523E+01
   0.1002890999E+01   0.5089062743E-03   0.9994910937E+00   0.5242498411E-04   0.1341420395E-04  -0.1341420394E-04   0.2838573563E-02   0.4954920704E-03  -0.4954920704E-03   0.1098235497E+01   0.4189558047E-01   0.4189558048E-01  -0.1118101947E-01   0.1118101947E-01  -0.2124336157E-06   0.0000000000E+00   0.1057420806E+01
   0.1002890999E+01   0.9994910937E+00   0.9994910937E+00   0.5242498411E-04  -0.1341420394E-04  -0.1341420394E-04   0.2838573563E-02  -0.4954920704E-03  -0.4954920704E-03   0.1098235497E+01   0.4189558047E-01   0.4189558047E-01   0.1118101947E-01   0.1118101947E-01   0.2124332367E-06   0.0000000000E+00   0.1057420806E+01
   0.0000000000E+00   0.9992643871E+00   0.9992643871E+00   0.0000000000E+00  -0.2556726067E-04  -0.2556726067E-04   0.0000000000E+00  -0.7100456013E-03  -0.7100456013E-03   0.1133534492E+01   0.5387682584E-01   0.5387682584E-01   0.1224792456E-01   0.1224792456E-01   0.2634153684E-06   0.0000000000E+00   0.1080908523E+01
   0.2005100000E+01   0.3962256977E-03   0.3962256977E-03   0.1000000000E-03   0.3433886752E-05   0.3433886752E-05   0.5000000000E-02   0.3927918109E-03   0.3927918109E-03   0.1062863733E+01   0.2995072007E-01   0.2995072007E-01  -0.1025554901E-01  -0.1025554901E-01   0.1683212699E-06   0.0000000000E+00   0.1033830797E+01
   0.2005100000E+01   0.9996037743E+00   0.3962256977E-03   0.1000000000E-03  -0.3433886752E-05   0.3433886752E-05   0.5000000000E-02  -0.3927918109E-03   0.3927918109E-03   0.1062863733E+01   0.2995072007E-01   0.2995072007E-01   0.1025554902E-01  -0.1025554901E-01  -0.1683207819E-06   0.0000000000E+00   0.1033830797E+01
   0.2005100000E+01   0.3962256977E-03   0.9996037743E+00   0.1000000000E-03   0.3433886752E-05  -0.3433886752E-05   0.5000000000E-02   0.3927918109E-03  -0.3927918109E-03   0.1062863733E+01   0.2995072007E-01   0.2995072007E-01  -0.1025554901E-01   0.1025554902E-01  -0.1683207819E-06   0.0000000000E+00   0.1033830797E+01
   0.2005100000E+01   0.9996037743E+00   0.9996037743E+00   0.1000000000E-03  -0.3433886752E-05  -0.3433886752E-05   0.5000000000E-02  -0.3927918109E-03  -0.3927918109E-03   0.1062863733E+01   0.2995072007E-01   0.2995072007E-01   0.1025554902E-01   0.1025554902E-01   0.1683202939E-06   0.0000000000E+00   0.1033830797E+01
     1     2     3     4     5     6     7     8
     2     9    10     3     6    11    12     7
 VARIABLES = X,Y,Z,DU1,DU2,DU3,U1,U2,U3,S11,S22,S33,S12,S13,S23,Vf,SMISES
 ZONE, T="0.5200D+00" F=FEPOINT, I=   12 J=    2 ET=BRICK
   0.0000000000E+00   0.7612191405E-03   0.7612191405E-03   0.0000000000E+00   0.2560627857E-04   0.2560627857E-04   0.0000000000E+00   0.7356128620E-03   0.7356128620E-03   0.1108941051E+01   0.2825952680E-01   0.2825952680E-01  -0.1292590135E-01  -0.1292590135E-01   0.2937718317E-06   0.0000000000E+00   0.1082073359E+01
   0.1002943383E+01   0.5229852342E-03   0.5229852342E-03   0.5238475286E-04   0.1407895987E-04   0.1407895987E-04   0.2890998547E-02   0.5089062743E-03   0.5089062743E-03   0.1093693155E+01   0.3531678213E-01   0.3531678213E-01  -0.1192541201E-01  -0.1192541201E-01   0.2408908717E-06   0.0000000000E+00   0.1059600889E+01
   0.1002943383E+01   0.9994770148E+00   0.5229852342E-03   0.5238475286E-04  -0.1407895987E-04   0.1407895987E-04   0.2890998547E-02  -0.5089062743E-03   0.5089062743E-03   0.1093693155E+01   0.3531678212E-01   0.3531678212E-01   0.1192541201E-01  -0.1192541201E-01  -0.2408905382E-06   0.0000000000E+00   0.1059600889E+01
   0.0000000000E+00   0.9992387809E+00   0.7612191405E-03   0.0000000000E+00  -0.2560627857E-04   0.2560627857E-04   0.0000000000E+00  -0.7356128620E-03   0.7356128619E-03   0.1108941051E+01   0.2825952680E-01   0.2825952680E-01   0.1292590135E-01  -0.1292590135E-01  -0.2937716396E-06   0.0000000000E+00   0.1082073359E+01
   0.0000000000E+00   0.7612191405E-03   0.9992387809E+00   0.0000000000E+00   0.2560627857E-04  -0.2560627857E-04   0.0000000000E+00   0.7356128619E-03  -0.7356128620E-03   0.1108941051E+01   0.2825952680E-01   0.2825952680E-01  -0.1292590135E-01   0.1292590135E-01  -0.2937716396E-06   0.0000000000E+00   0.1082073359E+01
   0.1002943383E+01   0.5229852342E-03   0.9994770148E+00   0.5238475286E-04   0.1407895987E-04  -0.1407895987E-04   0.2890998547E-02   0.5089062743E-03  -0.5089062743E-03   0.1093693155E+01   0.3531678212E-01   0.3531678212E-01  -0.1192541201E-01   0.1192541201E-01  -0.2408905382E-06   0.0000000000E+00   0.1059600889E+01
   0.1002943383E+01   0.9994770148E+00   0.9994770148E+00   0.5238475286E-04  -0.1407895987E-04  -0.1407895987E-04   0.2890998547E-02  -0.5089062743E-03  -0.5089062743E-03   0.1093693155E+01   0.3531678212E-01   0.3531678212E-01   0.1192541201E-01   0.1192541201E-01   0.2408902047E-06   0.0000000000E+00   0.1059600889E+01
   0.0000000000E+00   0.9992387809E+00   0.9992387809E+00   0.0000000000E+00  -0.2560627857E-04  -0.2560627857E-04   0.0000000000E+00  -0.7356128620E-03  -0.7356128620E-03   0.1108941051E+01   0.2825952680E-01   0.2825952680E-01   0.1292590135E-01   0.1292590135E-01   0.2937714475E-06   0.0000000000E+00   0.1082073359E+01
   0.2005200000E+01   0.4008581893E-03   0.4008581893E-03   0.1000000000E-03   0.4632491658E-05   0.4632491658E-05   0.5100000000E-02   0.3962256977E-03   0.3962256977E-03   0.1078250284E+01   0.4247152495E-01   0.4247152495E-01  -0.1104808241E-01  -0.1104808241E-01   0.1943571368E-06   0.0000000000E+00   0.1036840735E+01
   0.2005200000E+01   0.9995991418E+00   0.4008581893E-03   0.1000000000E-03  -0.4632491658E-05   0.4632491658E-05   0.5100000000E-02  -0.3962256976E-03   0.3962256977E-03   0.1078250284E+01   0.4247152494E-01   0.4247152494E-01   0.1104808242E-01  -0.1104808241E-01  -0.1943566862E-06   0.0000000000E+00   0.1036840735E+01
   0.2005200000E+01   0.4008581893E-03   0.9995991418E+00   0.1000000000E-03   0.4632491658E-05  -0.4632491658E-05   0.5100000000E-02   0.3962256977E-03  -0.3962256976E-03   0.1078250284E+01   0.4247152494E-01   0.4247152494E-01  -0.1104808241E-01   0.1104808242E-01  -0.1943566862E-06   0.0000000000E+00   0.1036840735E+01
   0.2005200000E+01   0.9995991418E+00   0.9995991418E+00   0.1000000000E-03  -0.4632491658E-05  -0.4632491658E-05   0.5100000000E-02  -0.3962256976E-03  -0.3962256976E-03   0.1078250284E+01   0.4247152494E-01   0.4247152494E-01   0.1104808242E-01   0.1104808242E-01   0.1943562357E-06   0.0000000000E+00   0.1036840735E+01
     1     2     3     4     5     6     7     8
     2     9    10     3     6    11    12     7
 VARIABLES = X,Y,Z,DU1,DU2,DU3,U1,U2,U3,S11,S22,S33,S12,S13,S23,Vf,SMISES
 ZONE, T="0.5300D+00" F=FEPOINT, I=   12 J=    2 ET=BRICK
   0.0000000000E+00   0.7863010937E-03   0.7863010937E-03   0.0000000000E+00   0.2508195316E-04   0.2508195316E-04   0.0000000000E+00   0.7612191405E-03   0.7612191405E-03   0.1082737263E+01   0.1307327288E-02   0.1307327288E-02  -0.1348219857E-01  -0.1348219857E-01   0.3221591688E-06   0.0000000000E+00   0.1082943098E+01
   0.1002996095E+01   0.5375221514E-03   0.5375221514E-03   0.5271184842E-04   0.1453691723E-04   0.1453691723E-04   0.2943383300E-02   0.5229852342E-03   0.5229852342E-03   0.1086507633E+01   0.2627422586E-01   0.2627422586E-01  -0.1255228669E-01  -0.1255228669E-01   0.2680585103E-06   0.0000000000E+00   0.1061585407E+01
   0.1002996095E+01   0.9994624778E+00   0.5375221514E-03   0.5271184842E-04  -0.1453691723E-04   0.1453691723E-04   0.2943383300E-02  -0.5229852342E-03   0.5229852342E-03   0.1086507633E+01   0.2627422586E-01   0.2627422586E-01   0.1255228669E-01  -0.1255228669E-01  -0.2680582291E-06   0.0000000000E+00   0.1061585407E+01
   0.0000000000E+00   0.9992136989E+00   0.7863010937E-03   0.0000000000E+00  -0.2508195316E-04   0.2508195316E-04   0.0000000000E+00  -0.7612191405E-03   0.7612191405E-03   0.1082737263E+01   0.1307327289E-02   0.1307327288E-02   0.1348219857E-01  -0.1348219857E-01  -0.3221590305E-06   0.0000000000E+00   0.1082943098E+01
   0.0000000000E+00   0.7863010937E-03   0.9992136989E+00   0.0000000000E+00   0.2508195316E-04  -0.2508195316E-04   0.0000000000E+00   0.7612191405E-03  -0.7612191405E-03   0.1082737263E+01   0.1307327288E-02   0.1307327289E-02  -0.1348219857E-01   0.1348219857E-01  -0.3221590305E-06   0.0000000000E+00   0.1082943098E+01
   0.1002996095E+01   0.5375221514E-03   0.9994624778E+00   0.5271184842E-04   0.1453691723E-04  -0.1453691723E-04   0.2943383300E-02   0.5229852342E-03  -0.5229852342E-03   0.1086507633E+01   0.2627422586E-01   0.2627422586E-01  -0.1255228669E-01   0.1255228669E-01  -0.2680582291E-06   0.0000000000E+00   0.1061585407E+01
   0.1002996095E+01   0.9994624778E+00   0.9994624778E+00   0.5271184842E-04  -0.1453691723E-04  -0.1453691723E-04   0.2943383300E-02  -0.5229852342E-03  -0.5229852342E-03   0.1086507633E+01   0.2627422586E-01   0.2627422586E-01   0.1255228669E-01   0.1255228669E-01   0.2680579480E-06   0.0000000000E+00   0.1061585407E+01
   0.0000000000E+00   0.9992136989E+00   0.9992136989E+00   0.0000000000E+00  -0.2508195316E-04  -0.2508195316E-04   0.0000000000E+00  -0.7612191405E-03  -0.7612191405E-03   0.1082737263E+01   0.1307327288E-02   0.1307327288E-02   0.1348219857E-01   0.1348219857E-01   0.3221588922E-06   0.0000000000E+00   0.1082943098E+01
   0.2005300000E+01   0.4068434290E-03   0.4068434290E-03   0.1000000000E-03   0.5985239631E-05   0.5985239631E-05   0.5200000000E-02   0.4008581893E-03   0.4008581893E-03   0.1090024294E+01   0.5136797906E-01   0.5136797906E-01  -0.1172937109E-01  -0.1172937109E-01   0.2197105542E-06   0.0000000000E+00   0.1039849823E+01
   0.2005300000E+01   0.9995931566E+00   0.4068434290E-03   0.1000000000E-03  -0.5985239630E-05   0.5985239630E-05   0.5200000000E-02  -0.4008581893E-03   0.4008581893E-03   0.1090024294E+01   0.5136797906E-01   0.5136797906E-01   0.1172937109E-01  -0.1172937109E-01  -0.2197101531E-06   0.0000000000E+00   0.1039849823E+01
   0.2005300000E+01   0.4068434290E-03   0.9995931566E+00   0.1000000000E-03   0.5985239630E-05  -0.5985239630E-05   0.5200000000E-02   0.4008581893E-03  -0.4008581893E-03   0.1090024294E+01   0.5136797906E-01   0.5136797906E-01  -0.1172937109E-01   0.1172937109E-01  -0.2197101531E-06   0.0000000000E+00   0.1039849823E+01
   0.2005300000E+01   0.9995931566E+00   0.9995931566E+00   0.1000000000E-03  -0.5985239630E-05  -0.5985239630E-05   0.5200000000E-02  -0.4008581893E-03  -0.4008581893E-03   0.1090024294E+01   0.5136797906E-01   0.5136797906E-01   0.1172937109E-01   0.1172937109E-01   0.2197097521E-06   0.0000000000E+00   0.1039849823E+01
     1     2     3     4     5     6     7     8
     2     9    10     3     6    11    12     7
 VARIABLES = X,Y,Z,DU1,DU2,DU3,U1,U2,U3,S11,S22,S33,S12,S13,S23,Vf,SMISES
 ZONE, T="0.5400D+00" F=FEPOINT, I=   12 J=    2 ET=BRICK
   0.0000000000E+00   0.8103292260E-03   0.8103292260E-03   0.0000000000E+00   0.2402813231E-04   0.2402813231E-04   0.0000000000E+00   0.7863010937E-03   0.7863010937E-03   0.1056727561E+01  -0.2507563578E-01  -0.2507563578E-01  -0.1388518103E-01  -0.1388518103E-01   0.3465740425E-06   0.0000000000E+00   0.1083407622E+01
   0.1003049447E+01   0.5522863954E-03   0.5522863954E-03   0.5335187520E-04   0.1476424391E-04   0.1476424391E-04   0.2996095149E-02   0.5375221514E-03   0.5375221514E-03   0.1077401440E+01   0.1561768036E-01   0.1561768036E-01  -0.1302584691E-01  -0.1302584691E-01   0.2919388540E-06   0.0000000000E+00   0.1063235786E+01
   0.1003049447E+01   0.9994477136E+00   0.5522863954E-03   0.5335187520E-04  -0.1476424391E-04   0.1476424391E-04   0.2996095149E-02  -0.5375221514E-03   0.5375221514E-03   0.1077401440E+01   0.1561768036E-01   0.1561768036E-01   0.1302584691E-01  -0.1302584691E-01  -0.2919386290E-06   0.0000000000E+00   0.1063235786E+01
   0.0000000000E+00   0.9991896708E+00   0.8103292260E-03   0.0000000000E+00  -0.2402813231E-04   0.2402813231E-04   0.0000000000E+00  -0.7863010937E-03   0.7863010937E-03   0.1056727561E+01  -0.2507563578E-01  -0.2507563578E-01   0.1388518104E-01  -0.1388518103E-01  -0.3465739540E-06   0.0000000000E+00   0.1083407622E+01
   0.0000000000E+00   0.8103292260E-03   0.9991896708E+00   0.0000000000E+00   0.2402813231E-04  -0.2402813231E-04   0.0000000000E+00   0.7863010937E-03  -0.7863010937E-03   0.1056727561E+01  -0.2507563578E-01  -0.2507563578E-01  -0.1388518103E-01   0.1388518104E-01  -0.3465739541E-06   0.0000000000E+00   0.1083407622E+01
   0.1003049447E+01   0.5522863954E-03   0.9994477136E+00   0.5335187520E-04   0.1476424391E-04  -0.1476424391E-04   0.2996095149E-02   0.5375221514E-03  -0.5375221514E-03   0.1077401440E+01   0.1561768036E-01   0.1561768036E-01  -0.1302584691E-01   0.1302584691E-01  -0.2919386290E-06   0.0000000000E+00   0.1063235786E+01
   0.1003049447E+01   0.9994477136E+00   0.9994477136E+00   0.5335187520E-04  -0.1476424391E-04  -0.1476424391E-04   0.2996095149E-02  -0.5375221514E-03  -0.5375221514E-03   0.1077401440E+01   0.1561768036E-01   0.1561768036E-01   0.1302584691E-01   0.1302584691E-01   0.2919384040E-06   0.0000000000E+00   0.1063235786E+01
   0.0000000000E+00   0.9991896708E+00   0.9991896708E+00   0.0000000000E+00  -0.2402813231E-04  -0.2402813231E-04   0.0000000000E+00  -0.7863010937E-03  -0.7863010937E-03   0.1056727561E+01  -0.2507563578E-01  -0.2507563578E-01   0.1388518103E-01   0.1388518103E-01   0.3465738657E-06   0.0000000000E+00   0.1083407622E+01
   0.2005400000E+01   0.4142535525E-03   0.4142535525E-03   0.1000000000E-03   0.7410123491E-05   0.7410123491E-05   0.5300000000E-02   0.4068434290E-03   0.4068434290E-03   0.1097821053E+01   0.5643812959E-01   0.5643812959E-01  -0.1225970694E-01  -0.1225970694E-01   0.2424211439E-06   0.0000000000E+00   0.1042683251E+01
   0.2005400000E+01   0.9995857464E+00   0.4142535525E-03   0.1000000000E-03  -0.7410123491E-05   0.7410123491E-05   0.5300000000E-02  -0.4068434289E-03   0.4068434290E-03   0.1097821053E+01   0.5643812959E-01   0.5643812959E-01   0.1225970694E-01  -0.1225970694E-01  -0.2424208036E-06   0.0000000000E+00   0.1042683251E+01
   0.2005400000E+01   0.4142535525E-03   0.9995857464E+00   0.1000000000E-03   0.7410123491E-05  -0.7410123491E-05   0.5300000000E-02   0.4068434290E-03  -0.4068434289E-03   0.1097821053E+01   0.5643812959E-01   0.5643812959E-01  -0.1225970694E-01   0.1225970694E-01  -0.2424208036E-06   0.0000000000E+00   0.1042683251E+01
   0.2005400000E+01   0.9995857464E+00   0.9995857464E+00   0.1000000000E-03  -0.7410123491E-05  -0.7410123491E-05   0.5300000000E-02  -0.4068434289E-03  -0.4068434289E-03   0.1097821053E+01   0.5643812959E-01   0.5643812959E-01   0.1225970694E-01   0.1225970694E-01   0.2424204633E-06   0.0000000000E+00   0.1042683251E+01
     1     2     3     4     5     6     7     8
     2     9    10     3     6    11    12     7
 VARIABLES = X,Y,Z,DU1,DU2,DU3,U1,U2,U3,S11,S22,S33,S12,S13,S23,Vf,SMISES
 ZONE, T="0.5500D+00" F=FEPOINT, I=   12 J=    2 ET=BRICK
   0.0000000000E+00   0.8328438585E-03   0.8328438585E-03   0.0000000000E+00   0.2251463251E-04   0.2251463251E-04   0.0000000000E+00   0.8103292260E-03   0.8103292260E-03   0.1032667015E+01  -0.4906954550E-01  -0.4906954550E-01  -0.1411294455E-01  -0.1411294455E-01   0.3652573990E-06   0.0000000000E+00   0.1083394177E+01
   0.1003103681E+01   0.5670430457E-03   0.5670430457E-03   0.5423403817E-04   0.1475665037E-04   0.1475665037E-04   0.3049447024E-02   0.5522863954E-03   0.5522863954E-03   0.1067214830E+01   0.4279282388E-02   0.4279282388E-02  -0.1332039198E-01  -0.1332039198E-01   0.3107111869E-06   0.0000000000E+00   0.1064451013E+01
   0.1003103681E+01   0.9994329570E+00   0.5670430457E-03   0.5423403817E-04  -0.1475665037E-04   0.1475665037E-04   0.3049447024E-02  -0.5522863953E-03   0.5522863954E-03   0.1067214830E+01   0.4279282388E-02   0.4279282387E-02   0.1332039198E-01  -0.1332039198E-01  -0.3107110190E-06   0.0000000000E+00   0.1064451013E+01
   0.0000000000E+00   0.9991671561E+00   0.8328438585E-03   0.0000000000E+00  -0.2251463251E-04   0.2251463251E-04   0.0000000000E+00  -0.8103292260E-03   0.8103292260E-03   0.1032667015E+01  -0.4906954550E-01  -0.4906954550E-01   0.1411294455E-01  -0.1411294455E-01  -0.3652573524E-06   0.0000000000E+00   0.1083394177E+01
   0.0000000000E+00   0.8328438585E-03   0.9991671561E+00   0.0000000000E+00   0.2251463251E-04  -0.2251463251E-04   0.0000000000E+00   0.8103292260E-03  -0.8103292260E-03   0.1032667015E+01  -0.4906954550E-01  -0.4906954550E-01  -0.1411294455E-01   0.1411294455E-01  -0.3652573524E-06   0.0000000000E+00   0.1083394177E+01
   0.1003103681E+01   0.5670430457E-03   0.9994329570E+00   0.5423403817E-04   0.1475665037E-04  -0.1475665037E-04   0.3049447024E-02   0.5522863954E-03  -0.5522863953E-03   0.1067214830E+01   0.4279282387E-02   0.4279282388E-02  -0.1332039198E-01   0.1332039198E-01  -0.3107110189E-06   0.0000000000E+00   0.1064451013E+01
   0.1003103681E+01   0.9994329570E+00   0.9994329570E+00   0.5423403817E-04  -0.1475665037E-04  -0.1475665037E-04   0.3049447024E-02  -0.5522863953E-03  -0.5522863953E-03   0.1067214830E+01   0.4279282387E-02   0.4279282387E-02   0.1332039198E-01   0.1332039198E-01   0.3107108510E-06   0.0000000000E+00   0.1064451012E+01
   0.0000000000E+00   0.9991671561E+00   0.9991671561E+00   0.0000000000E+00  -0.2251463251E-04  -0.2251463251E-04   0.0000000000E+00  -0.8103292260E-03  -0.8103292260E-03   0.1032667015E+01  -0.4906954550E-01  -0.4906954550E-01   0.1411294455E-01   0.1411294455E-01   0.3652573059E-06   0.0000000000E+00   0.1083394177E+01
   0.2005500000E+01   0.4230817239E-03   0.4230817239E-03   0.1000000000E-03   0.8828171394E-05   0.8828171394E-05   0.5400000000E-02   0.4142535525E-03   0.4142535525E-03   0.1101556331E+01   0.5773126704E-01   0.5773126704E-01  -0.1260960807E-01  -0.1260960807E-01   0.2606405628E-06   0.0000000000E+00   0.1045197356E+01
   0.2005500000E+01   0.9995769183E+00   0.4230817239E-03   0.1000000000E-03  -0.8828171394E-05   0.8828171394E-05   0.5400000000E-02  -0.4142535524E-03   0.4142535525E-03   0.1101556331E+01   0.5773126704E-01   0.5773126704E-01   0.1260960808E-01  -0.1260960807E-01  -0.2606402928E-06   0.0000000000E+00   0.1045197356E+01
   0.2005500000E+01   0.4230817239E-03   0.9995769183E+00   0.1000000000E-03   0.8828171394E-05  -0.8828171394E-05   0.5400000000E-02   0.4142535525E-03  -0.4142535524E-03   0.1101556331E+01   0.5773126704E-01   0.5773126704E-01  -0.1260960807E-01   0.1260960808E-01  -0.2606402928E-06   0.0000000000E+00   0.1045197356E+01
   0.2005500000E+01   0.9995769183E+00   0.9995769183E+00   0.1000000000E-03  -0.8828171394E-05  -0.8828171394E-05   0.5400000000E-02  -0.4142535524E-03  -0.4142535524E-03   0.1101556331E+01   0.5773126704E-01   0.5773126704E-01   0.1260960807E-01   0.1260960807E-01   0.2606400229E-06   0.0000000000E+00   0.1045197356E+01
     1     2     3     4     5     6     7     8
     2     9    10     3     6    11    12     7
 VARIABLES = X,Y,Z,DU1,DU2,DU3,U1,U2,U3,S11,S22,S33,S12,S13,S23,Vf,SMISES
 ZONE, T="0.5600D+00" F=FEPOINT, I=   12 J=    2 ET=BRICK
   0.0000000000E+00   0.8534854210E-03   0.8534854210E-03   0.0000000000E+00   0.2064156252E-04   0.2064156252E-04   0.0000000000E+00   0.8328438585E-03   0.8328438585E-03   0.1012137281E+01  -0.6906440589E-01  -0.6906440589E-01  -0.1415407050E-01  -0.1415407050E-01   0.3769253508E-06   0.0000000000E+00   0.1082869839E+01
   0.1003158957E+01   0.5815717475E-03   0.5815717475E-03   0.5527600379E-04   0.1452870173E-04   0.1452870173E-04   0.3103681062E-02   0.5670430457E-03   0.5670430457E-03   0.1056831024E+01  -0.6804032402E-02  -0.6804032402E-02  -0.1342139255E-01  -0.1342139255E-01   0.3229855051E-06   0.0000000000E+00   0.1065171684E+01
   0.1003158957E+01   0.9994184283E+00   0.5815717475E-03   0.5527600379E-04  -0.1452870173E-04   0.1452870173E-04   0.3103681062E-02  -0.5670430457E-03   0.5670430457E-03   0.1056831024E+01  -0.6804032401E-02  -0.6804032401E-02   0.1342139255E-01  -0.1342139255E-01  -0.3229853923E-06   0.0000000000E+00   0.1065171684E+01
   0.0000000000E+00   0.9991465146E+00   0.8534854210E-03   0.0000000000E+00  -0.2064156252E-04   0.2064156252E-04   0.0000000000E+00  -0.8328438585E-03   0.8328438585E-03   0.1012137281E+01  -0.6906440588E-01  -0.6906440588E-01   0.1415407050E-01  -0.1415407050E-01  -0.3769253345E-06   0.0000000000E+00   0.1082869839E+01
   0.0000000000E+00   0.8534854210E-03   0.9991465146E+00   0.0000000000E+00   0.2064156252E-04  -0.2064156252E-04   0.0000000000E+00   0.8328438585E-03  -0.8328438585E-03   0.1012137281E+01  -0.6906440588E-01  -0.6906440588E-01  -0.1415407050E-01   0.1415407050E-01  -0.3769253345E-06   0.0000000000E+00   0.1082869839E+01
   0.1003158957E+01   0.5815717475E-03   0.9994184283E+00   0.5527600379E-04   0.1452870173E-04  -0.1452870173E-04   0.3103681062E-02   0.5670430457E-03  -0.5670430457E-03   0.1056831024E+01  -0.6804032401E-02  -0.6804032401E-02  -0.1342139255E-01   0.1342139255E-01  -0.3229853922E-06   0.0000000000E+00   0.1065171684E+01
   0.1003158957E+01   0.9994184283E+00   0.9994184283E+00   0.5527600379E-04  -0.1452870173E-04  -0.1452870173E-04   0.3103681062E-02  -0.5670430457E-03  -0.5670430457E-03   0.1056831024E+01  -0.6804032401E-02  -0.6804032401E-02   0.1342139255E-01   0.1342139255E-01   0.3229852794E-06   0.0000000000E+00   0.1065171684E+01
   0.0000000000E+00   0.9991465146E+00   0.9991465146E+00   0.0000000000E+00  -0.2064156252E-04  -0.2064156252E-04   0.0000000000E+00  -0.8328438585E-03  -0.8328438585E-03   0.1012137281E+01  -0.6906440588E-01  -0.6906440588E-01   0.1415407050E-01   0.1415407050E-01   0.3769253182E-06   0.0000000000E+00   0.1082869839E+01
   0.2005600000E+01   0.4332495186E-03   0.4332495186E-03   0.1000000000E-03   0.1016779475E-04   0.1016779475E-04   0.5500000000E-02   0.4230817239E-03   0.4230817239E-03   0.1101403151E+01   0.5551714926E-01   0.5551714926E-01  -0.1276127273E-01  -0.1276127273E-01   0.2729032187E-06   0.0000000000E+00   0.1047288669E+01
   0.2005600000E+01   0.9995667505E+00   0.4332495186E-03   0.1000000000E-03  -0.1016779475E-04   0.1016779475E-04   0.5500000000E-02  -0.4230817238E-03   0.4230817239E-03   0.1101403151E+01   0.5551714926E-01   0.5551714926E-01   0.1276127273E-01  -0.1276127273E-01  -0.2729030267E-06   0.0000000000E+00   0.1047288669E+01
   0.2005600000E+01   0.4332495186E-03   0.9995667505E+00   0.1000000000E-03   0.1016779475E-04  -0.1016779475E-04   0.5500000000E-02   0.4230817239E-03  -0.4230817238E-03   0.1101403151E+01   0.5551714926E-01   0.5551714926E-01  -0.1276127273E-01   0.1276127273E-01  -0.2729030267E-06   0.0000000000E+00   0.1047288669E+01
   0.2005600000E+01   0.9995667505E+00   0.9995667505E+00   0.1000000000E-03  -0.1016779475E-04  -0.1016779475E-04   0.5500000000E-02  -0.4230817238E-03  -0.4230817238E-03   0.1101403151E+01   0.5551714926E-01   0.5551714926E-01   0.1276127273E-01   0.1276127273E-01   0.2729028347E-06   0.0000000000E+00   0.1047288669E+01
     1     2     3     4     5     6     7     8
     2     9    10     3     6    11    12     7
 VARIABLES = X,Y,Z,DU1,DU2,DU3,U1,U2,U3,S11,S22,S33,S12,S13,S23,Vf,SMISES
 ZONE, T="0.5700D+00" F=FEPOINT, I=   12 J=    2 ET=BRICK
   0.0000000000E+00   0.8720170988E-03   0.8720170988E-03   0.0000000000E+00   0.1853167779E-04   0.1853167779E-04   0.0000000000E+00   0.8534854210E-03   0.8534854210E-03   0.9964381565E+00  -0.8376751717E-01  -0.8376751717E-01  -0.1400765822E-01  -0.1400765822E-01   0.3809293934E-06   0.0000000000E+00   0.1081841050E+01
   0.1003215346E+01   0.5956834336E-03   0.5956834336E-03   0.5638927686E-04   0.1411168617E-04   0.1411168617E-04   0.3158957066E-02   0.5815717475E-03   0.5815717475E-03   0.1047101881E+01  -0.1676436183E-01  -0.1676436183E-01  -0.1332572930E-01  -0.1332572930E-01   0.3279898502E-06   0.0000000000E+00   0.1065380211E+01
   0.1003215346E+01   0.9994043166E+00   0.5956834336E-03   0.5638927686E-04  -0.1411168617E-04   0.1411168617E-04   0.3158957066E-02  -0.5815717474E-03   0.5815717475E-03   0.1047101881E+01  -0.1676436183E-01  -0.1676436183E-01   0.1332572930E-01  -0.1332572930E-01  -0.3279897881E-06   0.0000000000E+00   0.1065380211E+01
   0.0000000000E+00   0.9991279829E+00   0.8720170988E-03   0.0000000000E+00  -0.1853167779E-04   0.1853167779E-04   0.0000000000E+00  -0.8534854210E-03   0.8534854210E-03   0.9964381564E+00  -0.8376751717E-01  -0.8376751717E-01   0.1400765822E-01  -0.1400765822E-01  -0.3809293934E-06   0.0000000000E+00   0.1081841049E+01
   0.0000000000E+00   0.8720170988E-03   0.9991279829E+00   0.0000000000E+00   0.1853167779E-04  -0.1853167779E-04   0.0000000000E+00   0.8534854210E-03  -0.8534854210E-03   0.9964381564E+00  -0.8376751717E-01  -0.8376751717E-01  -0.1400765822E-01   0.1400765822E-01  -0.3809293934E-06   0.0000000000E+00   0.1081841049E+01
   0.1003215346E+01   0.5956834336E-03   0.9994043166E+00   0.5638927686E-04   0.1411168617E-04  -0.1411168617E-04   0.3158957066E-02   0.5815717475E-03  -0.5815717474E-03   0.1047101881E+01  -0.1676436183E-01  -0.1676436183E-01  -0.1332572930E-01   0.1332572930E-01  -0.3279897880E-06   0.0000000000E+00   0.1065380211E+01
   0.1003215346E+01   0.9994043166E+00   0.9994043166E+00   0.5638927686E-04  -0.1411168617E-04  -0.1411168617E-04   0.3158957066E-02  -0.5815717474E-03  -0.5815717474E-03   0.1047101881E+01  -0.1676436182E-01  -0.1676436182E-01   0.1332572930E-01   0.1332572930E-01   0.3279897259E-06   0.0000000000E+00   0.1065380211E+01
   0.0000000000E+00   0.9991279829E+00   0.9991279829E+00   0.0000000000E+00  -0.1853167779E-04  -0.1853167779E-04   0.0000000000E+00  -0.8534854210E-03  -0.8534854210E-03   0.9964381564E+00  -0.8376751716E-01  -0.8376751716E-01   0.1400765822E-01   0.1400765822E-01   0.3809293934E-06   0.0000000000E+00   0.1081841049E+01
   0.2005700000E+01   0.4446177269E-03   0.4446177269E-03   0.1000000000E-03   0.1136820830E-04   0.1136820830E-04   0.5600000000E-02   0.4332495186E-03   0.4332495186E-03   0.1097753439E+01   0.5024487649E-01   0.5024487649E-01  -0.1270909768E-01  -0.1270909768E-01   0.2783373358E-06   0.0000000000E+00   0.1048897599E+01
   0.2005700000E+01   0.9995553823E+00   0.4446177269E-03   0.1000000000E-03  -0.1136820830E-04   0.1136820830E-04   0.5600000000E-02  -0.4332495186E-03   0.4332495186E-03   0.1097753439E+01   0.5024487649E-01   0.5024487649E-01   0.1270909768E-01  -0.1270909768E-01  -0.2783372270E-06   0.0000000000E+00   0.1048897599E+01
   0.2005700000E+01   0.4446177269E-03   0.9995553823E+00   0.1000000000E-03   0.1136820830E-04  -0.1136820830E-04   0.5600000000E-02   0.4332495186E-03  -0.4332495186E-03   0.1097753439E+01   0.5024487649E-01   0.5024487649E-01  -0.1270909768E-01   0.1270909768E-01  -0.2783372270E-06   0.0000000000E+00   0.1048897599E+01
   0.2005700000E+01   0.9995553823E+00   0.9995553823E+00   0.1000000000E-03  -0.1136820830E-04  -0.1136820830E-04   0.5600000000E-02  -0.4332495186E-03  -0.4332495186E-03   0.1097753439E+01   0.5024487648E-01   0.5024487648E-01   0.1270909768E-01   0.1270909768E-01   0.2783371182E-06   0.0000000000E+00   0.1048897599E+01
     1     2     3     4     5     6     7     8
     2     9    10     3     6    11    12     7
 VARIABLES = X,Y,Z,DU1,DU2,DU3,U1,U2,U3,S11,S22,S33,S12,S13,S23,Vf,SMISES
 ZONE, T="0.5800D+00" F=FEPOINT, I=   12 J=    2 ET=BRICK
   0.0000000000E+00   0.8883384468E-03   0.8883384468E-03   0.0000000000E+00   0.1632134802E-04   0.1632134802E-04   0.0000000000E+00   0.8720170988E-03   0.8720170988E-03   0.9865024176E+00  -0.9228594634E-01  -0.9228594634E-01  -0.1368275754E-01  -0.1368275754E-01   0.3773206177E-06   0.0000000000E+00   0.1080350867E+01
   0.1003272831E+01   0.6092337098E-03   0.6092337098E-03   0.5748475224E-04   0.1355027618E-04   0.1355027618E-04   0.3215346343E-02   0.5956834336E-03   0.5956834336E-03   0.1038780345E+01  -0.2486759029E-01  -0.2486759029E-01  -0.1304120637E-01  -0.1304120637E-01   0.3256586011E-06   0.0000000000E+00   0.1065098091E+01
   0.1003272831E+01   0.9993907663E+00   0.6092337098E-03   0.5748475224E-04  -0.1355027617E-04   0.1355027618E-04   0.3215346343E-02  -0.5956834336E-03   0.5956834336E-03   0.1038780345E+01  -0.2486759029E-01  -0.2486759029E-01   0.1304120637E-01  -0.1304120637E-01  -0.3256585833E-06   0.0000000000E+00   0.1065098091E+01
   0.0000000000E+00   0.9991116616E+00   0.8883384468E-03   0.0000000000E+00  -0.1632134802E-04   0.1632134802E-04   0.0000000000E+00  -0.8720170988E-03   0.8720170988E-03   0.9865024176E+00  -0.9228594634E-01  -0.9228594634E-01   0.1368275754E-01  -0.1368275754E-01  -0.3773206187E-06   0.0000000000E+00   0.1080350867E+01
   0.0000000000E+00   0.8883384468E-03   0.9991116616E+00   0.0000000000E+00   0.1632134802E-04  -0.1632134802E-04   0.0000000000E+00   0.8720170988E-03  -0.8720170988E-03   0.9865024176E+00  -0.9228594634E-01  -0.9228594634E-01  -0.1368275754E-01   0.1368275754E-01  -0.3773206187E-06   0.0000000000E+00   0.1080350867E+01
   0.1003272831E+01   0.6092337098E-03   0.9993907663E+00   0.5748475224E-04   0.1355027618E-04  -0.1355027617E-04   0.3215346343E-02   0.5956834336E-03  -0.5956834336E-03   0.1038780345E+01  -0.2486759029E-01  -0.2486759029E-01  -0.1304120637E-01   0.1304120637E-01  -0.3256585833E-06   0.0000000000E+00   0.1065098091E+01
   0.1003272831E+01   0.9993907663E+00   0.9993907663E+00   0.5748475224E-04  -0.1355027617E-04  -0.1355027617E-04   0.3215346343E-02  -0.5956834336E-03  -0.5956834336E-03   0.1038780345E+01  -0.2486759029E-01  -0.2486759029E-01   0.1304120637E-01   0.1304120637E-01   0.3256585656E-06   0.0000000000E+00   0.1065098091E+01
   0.0000000000E+00   0.9991116616E+00   0.9991116616E+00   0.0000000000E+00  -0.1632134802E-04  -0.1632134802E-04   0.0000000000E+00  -0.8720170988E-03  -0.8720170988E-03   0.9865024175E+00  -0.9228594634E-01  -0.9228594634E-01   0.1368275754E-01   0.1368275754E-01   0.3773206197E-06   0.0000000000E+00   0.1080350867E+01
   0.2005800000E+01   0.4569995421E-03   0.4569995421E-03   0.1000000000E-03   0.1238181522E-04   0.1238181522E-04   0.5700000000E-02   0.4446177269E-03   0.4446177269E-03   0.1091169316E+01   0.4249524400E-01   0.4249524400E-01  -0.1245933916E-01  -0.1245933916E-01   0.2767761128E-06   0.0000000000E+00   0.1050007570E+01
   0.2005800000E+01   0.9995430005E+00   0.4569995421E-03   0.1000000000E-03  -0.1238181522E-04   0.1238181522E-04   0.5700000000E-02  -0.4446177269E-03   0.4446177269E-03   0.1091169316E+01   0.4249524400E-01   0.4249524400E-01   0.1245933916E-01  -0.1245933916E-01  -0.2767760899E-06   0.0000000000E+00   0.1050007570E+01
   0.2005800000E+01   0.4569995421E-03   0.9995430005E+00   0.1000000000E-03   0.1238181522E-04  -0.1238181522E-04   0.5700000000E-02   0.4446177269E-03  -0.4446177269E-03   0.1091169316E+01   0.4249524400E-01   0.4249524400E-01  -0.1245933916E-01   0.1245933916E-01  -0.2767760899E-06   0.0000000000E+00   0.1050007570E+01
   0.2005800000E+01   0.9995430005E+00   0.9995430005E+00   0.1000000000E-03  -0.1238181522E-04  -0.1238181522E-04   0.5700000000E-02  -0.4446177269E-03  -0.4446177269E-03   0.1091169316E+01   0.4249524400E-01   0.4249524400E-01   0.1245933916E-01   0.1245933916E-01   0.2767760670E-06   0.0000000000E+00   0.1050007570E+01
     1     2     3     4     5     6     7     8
     2     9    10     3     6    11    12     7
 VARIABLES = X,Y,Z,DU1,DU2,DU3,U1,U2,U3,S11,S22,S33,S12,S13,S23,Vf,SMISES
 ZONE, T="0.5900D+00" F=FEPOINT, I=   12 J=    2 ET=BRICK
   0.0000000000E+00   0.9024892482E-03   0.9024892482E-03   0.0000000000E+00   0.1415080139E-04   0.1415080139E-04   0.0000000000E+00   0.8883384468E-03   0.8883384468E-03   0.9828395426E+00  -0.9417887897E-01  -0.9417887897E-01  -0.1319733792E-01  -0.1319733792E-01   0.3668120756E-06   0.0000000000E+00   0.1078474483E+01
   0.1003331309E+01   0.6221320096E-03   0.6221320096E-03   0.5847810395E-04   0.1289829980E-04   0.1289829980E-04   0.3272831095E-02   0.6092337098E-03   0.6092337098E-03   0.1032465000E+01  -0.3056458345E-01  -0.3056458345E-01  -0.1258548694E-01  -0.1258548694E-01   0.3166108683E-06   0.0000000000E+00   0.1064381108E+01
   0.1003331309E+01   0.9993778680E+00   0.6221320096E-03   0.5847810395E-04  -0.1289829980E-04   0.1289829980E-04   0.3272831095E-02  -0.6092337098E-03   0.6092337098E-03   0.1032465000E+01  -0.3056458345E-01  -0.3056458345E-01   0.1258548695E-01  -0.1258548694E-01  -0.3166108872E-06   0.0000000000E+00   0.1064381108E+01
   0.0000000000E+00   0.9990975108E+00   0.9024892482E-03   0.0000000000E+00  -0.1415080139E-04   0.1415080139E-04   0.0000000000E+00  -0.8883384469E-03   0.8883384468E-03   0.9828395425E+00  -0.9417887896E-01  -0.9417887896E-01   0.1319733792E-01  -0.1319733792E-01  -0.3668120621E-06   0.0000000000E+00   0.1078474483E+01
   0.0000000000E+00   0.9024892482E-03   0.9990975108E+00   0.0000000000E+00   0.1415080139E-04  -0.1415080139E-04   0.0000000000E+00   0.8883384468E-03  -0.8883384469E-03   0.9828395425E+00  -0.9417887896E-01  -0.9417887896E-01  -0.1319733792E-01   0.1319733792E-01  -0.3668120621E-06   0.0000000000E+00   0.1078474483E+01
   0.1003331309E+01   0.6221320096E-03   0.9993778680E+00   0.5847810395E-04   0.1289829980E-04  -0.1289829980E-04   0.3272831095E-02   0.6092337098E-03  -0.6092337098E-03   0.1032465000E+01  -0.3056458345E-01  -0.3056458345E-01  -0.1258548694E-01   0.1258548695E-01  -0.3166108872E-06   0.0000000000E+00   0.1064381108E+01
   0.1003331309E+01   0.9993778680E+00   0.9993778680E+00   0.5847810394E-04  -0.1289829980E-04  -0.1289829980E-04   0.3272831095E-02  -0.6092337098E-03  -0.6092337098E-03   0.1032465000E+01  -0.3056458344E-01  -0.3056458344E-01   0.1258548694E-01   0.1258548694E-01   0.3166109062E-06   0.0000000000E+00   0.1064381108E+01
   0.0000000000E+00   0.9990975108E+00   0.9990975108E+00   0.0000000000E+00  -0.1415080139E-04  -0.1415080139E-04   0.0000000000E+00  -0.8883384468E-03  -0.8883384468E-03   0.9828395425E+00  -0.9417887896E-01  -0.9417887896E-01   0.1319733792E-01   0.1319733792E-01   0.3668120486E-06   0.0000000000E+00   0.1078474483E+01
   0.2005900000E+01   0.4701750727E-03   0.4701750727E-03   0.1000000000E-03   0.1317553057E-04   0.1317553057E-04   0.5800000000E-02   0.4569995421E-03   0.4569995421E-03   0.1082329057E+01   0.3293041171E-01   0.3293041171E-01  -0.1202906162E-01  -0.1202906162E-01   0.2687524859E-06   0.0000000000E+00   0.1050640805E+01
   0.2005900000E+01   0.9995298249E+00   0.4701750727E-03   0.1000000000E-03  -0.1317553057E-04   0.1317553057E-04   0.5800000000E-02  -0.4569995421E-03   0.4569995421E-03   0.1082329057E+01   0.3293041171E-01   0.3293041171E-01   0.1202906162E-01  -0.1202906162E-01  -0.2687525491E-06   0.0000000000E+00   0.1050640805E+01
   0.2005900000E+01   0.4701750727E-03   0.9995298249E+00   0.1000000000E-03   0.1317553057E-04  -0.1317553057E-04   0.5800000000E-02   0.4569995421E-03  -0.4569995421E-03   0.1082329057E+01   0.3293041171E-01   0.3293041171E-01  -0.1202906162E-01   0.1202906162E-01  -0.2687525491E-06   0.0000000000E+00   0.1050640805E+01
   0.2005900000E+01   0.9995298249E+00   0.9995298249E+00   0.1000000000E-03  -0.1317553057E-04  -0.1317553057E-04   0.5800000000E-02  -0.4569995421E-03  -0.4569995421E-03   0.1082329057E+01   0.3293041171E-01   0.3293041171E-01   0.1202906162E-01   0.1202906162E-01   0.2687526123E-06   0.0000000000E+00   0.1050640805E+01
     1     2     3     4     5     6     7     8
     2     9    10     3     6    11    12     7
 VARIABLES = X,Y,Z,DU1,DU2,DU3,U1,U2,U3,S11,S22,S33,S12,S13,S23,Vf,SMISES
 ZONE, T="0.6000D+00" F=FEPOINT, I=   12 J=    2 ET=BRICK
   0.0000000000E+00   0.9146435924E-03   0.9146435924E-03   0.0000000000E+00   0.1215434422E-04   0.1215434422E-04   0.0000000000E+00   0.9024892482E-03   0.9024892482E-03   0.9855114927E+00  -0.8947690896E-01  -0.8947690896E-01  -0.1257691765E-01  -0.1257691765E-01   0.3506522606E-06   0.0000000000E+00   0.1076313349E+01
   0.1003390604E+01   0.6343460045E-03   0.6343460045E-03   0.5929469647E-04   0.1221399487E-04   0.1221399487E-04   0.3331309199E-02   0.6221320096E-03   0.6221320096E-03   0.1028560548E+01  -0.3352548867E-01  -0.3352548867E-01  -0.1198459986E-01  -0.1198459986E-01   0.3020300485E-06   0.0000000000E+00   0.1063313113E+01
   0.1003390604E+01   0.9993656540E+00   0.6343460045E-03   0.5929469647E-04  -0.1221399487E-04   0.1221399487E-04   0.3331309199E-02  -0.6221320096E-03   0.6221320096E-03   0.1028560548E+01  -0.3352548867E-01  -0.3352548867E-01   0.1198459986E-01  -0.1198459986E-01  -0.3020300958E-06   0.0000000000E+00   0.1063313112E+01
   0.0000000000E+00   0.9990853564E+00   0.9146435924E-03   0.0000000000E+00  -0.1215434422E-04   0.1215434422E-04   0.0000000000E+00  -0.9024892482E-03   0.9024892482E-03   0.9855114927E+00  -0.8947690896E-01  -0.8947690896E-01   0.1257691765E-01  -0.1257691765E-01  -0.3506522180E-06   0.0000000000E+00   0.1076313349E+01
   0.0000000000E+00   0.9146435924E-03   0.9990853564E+00   0.0000000000E+00   0.1215434422E-04  -0.1215434422E-04   0.0000000000E+00   0.9024892482E-03  -0.9024892482E-03   0.9855114927E+00  -0.8947690896E-01  -0.8947690896E-01  -0.1257691765E-01   0.1257691765E-01  -0.3506522180E-06   0.0000000000E+00   0.1076313349E+01
   0.1003390604E+01   0.6343460045E-03   0.9993656540E+00   0.5929469647E-04   0.1221399487E-04  -0.1221399487E-04   0.3331309199E-02   0.6221320096E-03  -0.6221320096E-03   0.1028560548E+01  -0.3352548867E-01  -0.3352548867E-01  -0.1198459986E-01   0.1198459986E-01  -0.3020300958E-06   0.0000000000E+00   0.1063313112E+01
   0.1003390604E+01   0.9993656540E+00   0.9993656540E+00   0.5929469647E-04  -0.1221399487E-04  -0.1221399487E-04   0.3331309199E-02  -0.6221320096E-03  -0.6221320096E-03   0.1028560548E+01  -0.3352548866E-01  -0.3352548866E-01   0.1198459986E-01   0.1198459986E-01   0.3020301431E-06   0.0000000000E+00   0.1063313112E+01
   0.0000000000E+00   0.9990853564E+00   0.9990853564E+00   0.0000000000E+00  -0.1215434422E-04  -0.1215434422E-04   0.0000000000E+00  -0.9024892482E-03  -0.9024892482E-03   0.9855114927E+00  -0.8947690896E-01  -0.8947690896E-01   0.1257691765E-01   0.1257691765E-01   0.3506521754E-06   0.0000000000E+00   0.1076313349E+01
   0.2006000000E+01   0.4839061636E-03   0.4839061636E-03   0.1000000000E-03   0.1373109089E-04   0.1373109089E-04   0.5900000000E-02   0.4701750727E-03   0.4701750727E-03   0.1071972390E+01   0.2224453851E-01   0.2224453851E-01  -0.1144454576E-01  -0.1144454576E-01   0.2553859411E-06   0.0000000000E+00   0.1050851928E+01
   0.2006000000E+01   0.9995160938E+00   0.4839061636E-03   0.1000000000E-03  -0.1373109089E-04   0.1373109089E-04   0.5900000000E-02  -0.4701750726E-03   0.4701750727E-03   0.1071972390E+01   0.2224453851E-01   0.2224453851E-01   0.1144454576E-01  -0.1144454576E-01  -0.2553860884E-06   0.0000000000E+00   0.1050851928E+01
   0.2006000000E+01   0.4839061636E-03   0.9995160938E+00   0.1000000000E-03   0.1373109089E-04  -0.1373109089E-04   0.5900000000E-02   0.4701750727E-03  -0.4701750726E-03   0.1071972390E+01   0.2224453851E-01   0.2224453851E-01  -0.1144454576E-01   0.1144454576E-01  -0.2553860884E-06   0.0000000000E+00   0.1050851928E+01
   0.2006000000E+01   0.9995160938E+00   0.9995160938E+00   0.1000000000E-03  -0.1373109089E-04  -0.1373109089E-04   0.5900000000E-02  -0.4701750726E-03  -0.4701750726E-03   0.1071972390E+01   0.2224453851E-01   0.2224453851E-01   0.1144454576E-01   0.1144454576E-01   0.2553862357E-06   0.0000000000E+00   0.1050851928E+01
     1     2     3     4     5     6     7     8
     2     9    10     3     6    11    12     7
 VARIABLES = X,Y,Z,DU1,DU2,DU3,U1,U2,U3,S11,S22,S33,S12,S13,S23,Vf,SMISES
 ZONE, T="0.6100D+00" F=FEPOINT, I=   12 J=    2 ET=BRICK
   0.0000000000E+00   0.9250948338E-03   0.9250948338E-03   0.0000000000E+00   0.1045124133E-04   0.1045124133E-04   0.0000000000E+00   0.9146435924E-03   0.9146435924E-03   0.9941411798E+00  -0.7866767161E-01  -0.7866767161E-01  -0.1185294996E-01  -0.1185294996E-01   0.3304368677E-06   0.0000000000E+00   0.1073988115E+01
   0.1003450478E+01   0.6459011485E-03   0.6459011485E-03   0.5987374226E-04   0.1155514402E-04   0.1155514402E-04   0.3390603895E-02   0.6343460045E-03   0.6343460045E-03   0.1027256422E+01  -0.3365517412E-01  -0.3365517412E-01  -0.1127114636E-01  -0.1127114636E-01   0.2834727583E-06   0.0000000000E+00   0.1061998796E+01
   0.1003450478E+01   0.9993540989E+00   0.6459011485E-03   0.5987374226E-04  -0.1155514402E-04   0.1155514402E-04   0.3390603895E-02  -0.6343460044E-03   0.6343460045E-03   0.1027256422E+01  -0.3365517412E-01  -0.3365517412E-01   0.1127114636E-01  -0.1127114636E-01  -0.2834728255E-06   0.0000000000E+00   0.1061998795E+01
   0.0000000000E+00   0.9990749052E+00   0.9250948338E-03   0.0000000000E+00  -0.1045124133E-04   0.1045124133E-04   0.0000000000E+00  -0.9146435925E-03   0.9146435924E-03   0.9941411798E+00  -0.7866767161E-01  -0.7866767161E-01   0.1185294996E-01  -0.1185294996E-01  -0.3304367833E-06   0.0000000000E+00   0.1073988115E+01
   0.0000000000E+00   0.9250948338E-03   0.9990749052E+00   0.0000000000E+00   0.1045124133E-04  -0.1045124133E-04   0.0000000000E+00   0.9146435924E-03  -0.9146435925E-03   0.9941411798E+00  -0.7866767161E-01  -0.7866767161E-01  -0.1185294996E-01   0.1185294996E-01  -0.3304367833E-06   0.0000000000E+00   0.1073988115E+01
   0.1003450478E+01   0.6459011485E-03   0.9993540989E+00   0.5987374226E-04   0.1155514402E-04  -0.1155514402E-04   0.3390603895E-02   0.6343460045E-03  -0.6343460044E-03   0.1027256422E+01  -0.3365517412E-01  -0.3365517412E-01  -0.1127114636E-01   0.1127114636E-01  -0.2834728255E-06   0.0000000000E+00   0.1061998795E+01
   0.1003450478E+01   0.9993540989E+00   0.9993540989E+00   0.5987374226E-04  -0.1155514402E-04  -0.1155514402E-04   0.3390603895E-02  -0.6343460044E-03  -0.6343460044E-03   0.1027256422E+01  -0.3365517412E-01  -0.3365517412E-01   0.1127114636E-01   0.1127114636E-01   0.2834728927E-06   0.0000000000E+00   0.1061998795E+01
   0.0000000000E+00   0.9990749052E+00   0.9990749052E+00   0.0000000000E+00  -0.1045124133E-04  -0.1045124133E-04   0.0000000000E+00  -0.9146435925E-03  -0.9146435925E-03   0.9941411797E+00  -0.7866767160E-01  -0.7866767160E-01   0.1185294996E-01   0.1185294996E-01   0.3304366990E-06   0.0000000000E+00   0.1073988115E+01
   0.2006100000E+01   0.4979506246E-03   0.4979506246E-03   0.1000000000E-03   0.1404446105E-04   0.1404446105E-04   0.6000000000E-02   0.4839061636E-03   0.4839061636E-03   0.1060849074E+01   0.1111861856E-01   0.1111861856E-01  -0.1073932115E-01  -0.1073932115E-01   0.2381901275E-06   0.0000000000E+00   0.1050720335E+01
   0.2006100000E+01   0.9995020494E+00   0.4979506246E-03   0.1000000000E-03  -0.1404446105E-04   0.1404446105E-04   0.6000000000E-02  -0.4839061635E-03   0.4839061636E-03   0.1060849074E+01   0.1111861856E-01   0.1111861856E-01   0.1073932115E-01  -0.1073932115E-01  -0.2381903547E-06   0.0000000000E+00   0.1050720335E+01
   0.2006100000E+01   0.4979506246E-03   0.9995020494E+00   0.1000000000E-03   0.1404446105E-04  -0.1404446105E-04   0.6000000000E-02   0.4839061636E-03  -0.4839061635E-03   0.1060849074E+01   0.1111861856E-01   0.1111861856E-01  -0.1073932115E-01   0.1073932115E-01  -0.2381903546E-06   0.0000000000E+00   0.1050720335E+01
   0.2006100000E+01   0.9995020494E+00   0.9995020494E+00   0.1000000000E-03  -0.1404446105E-04  -0.1404446105E-04   0.6000000000E-02  -0.4839061635E-03  -0.4839061635E-03   0.1060849073E+01   0.1111861856E-01   0.1111861856E-01   0.1073932115E-01   0.1073932115E-01   0.2381905818E-06   0.0000000000E+00   0.1050720335E+01
     1     2     3     4     5     6     7     8
     2     9    10     3     6    11    12     7
 VARIABLES = X,Y,Z,DU1,DU2,DU3,U1,U2,U3,S11,S22,S33,S12,S13,S23,Vf,SMISES
 ZONE, T="0.6200D+00" F=FEPOINT, I=   12 J=    2 ET=BRICK
   0.0000000000E+00   0.9342327152E-03   0.9342327152E-03   0.0000000000E+00   0.9137881413E-05   0.9137881413E-05   0.0000000000E+00   0.9250948338E-03   0.9250948338E-03   0.1007951789E+01  -0.6264959868E-01  -0.6264959868E-01  -0.1106103573E-01  -0.1106103573E-01   0.3078938098E-06   0.0000000000E+00   0.1071630526E+01
   0.1003510649E+01   0.6568756315E-03   0.6568756315E-03   0.6017148300E-04   0.1097448301E-04   0.1097448301E-04   0.3450477637E-02   0.6459011485E-03   0.6459011485E-03   0.1028524011E+01  -0.3108934467E-01  -0.3108934467E-01  -0.1048230948E-01  -0.1048230948E-01   0.2626451984E-06   0.0000000000E+00   0.1060555719E+01
   0.1003510649E+01   0.9993431244E+00   0.6568756315E-03   0.6017148300E-04  -0.1097448301E-04   0.1097448301E-04   0.3450477637E-02  -0.6459011485E-03   0.6459011485E-03   0.1028524011E+01  -0.3108934466E-01  -0.3108934466E-01   0.1048230948E-01  -0.1048230948E-01  -0.2626452777E-06   0.0000000000E+00   0.1060555719E+01
   0.0000000000E+00   0.9990657673E+00   0.9342327152E-03   0.0000000000E+00  -0.9137881412E-05   0.9137881413E-05   0.0000000000E+00  -0.9250948338E-03   0.9250948338E-03   0.1007951789E+01  -0.6264959867E-01  -0.6264959867E-01   0.1106103573E-01  -0.1106103572E-01  -0.3078936739E-06   0.0000000000E+00   0.1071630526E+01
   0.0000000000E+00   0.9342327152E-03   0.9990657673E+00   0.0000000000E+00   0.9137881413E-05  -0.9137881412E-05   0.0000000000E+00   0.9250948338E-03  -0.9250948338E-03   0.1007951789E+01  -0.6264959867E-01  -0.6264959867E-01  -0.1106103572E-01   0.1106103573E-01  -0.3078936739E-06   0.0000000000E+00   0.1071630526E+01
   0.1003510649E+01   0.6568756315E-03   0.9993431244E+00   0.6017148300E-04   0.1097448301E-04  -0.1097448301E-04   0.3450477637E-02   0.6459011485E-03  -0.6459011485E-03   0.1028524011E+01  -0.3108934466E-01  -0.3108934466E-01  -0.1048230948E-01   0.1048230948E-01  -0.2626452777E-06   0.0000000000E+00   0.1060555719E+01
   0.1003510649E+01   0.9993431244E+00   0.9993431244E+00   0.6017148300E-04  -0.1097448301E-04  -0.1097448301E-04   0.3450477637E-02  -0.6459011485E-03  -0.6459011485E-03   0.1028524011E+01  -0.3108934466E-01  -0.3108934466E-01   0.1048230948E-01   0.1048230948E-01   0.2626453571E-06   0.0000000000E+00   0.1060555719E+01
   0.0000000000E+00   0.9990657673E+00   0.9990657673E+00   0.0000000000E+00  -0.9137881413E-05  -0.9137881413E-05   0.0000000000E+00  -0.9250948338E-03  -0.9250948338E-03   0.1007951789E+01  -0.6264959867E-01  -0.6264959867E-01   0.1106103573E-01   0.1106103573E-01   0.3078935380E-06   0.0000000000E+00   0.1071630526E+01
   0.2006200000E+01   0.5120751223E-03   0.5120751223E-03   0.1000000000E-03   0.1412449770E-04   0.1412449770E-04   0.6100000000E-02   0.4979506246E-03   0.4979506246E-03   0.1049673787E+01   0.1821318218E-03   0.1821318218E-03  -0.9951965244E-02  -0.9951965244E-02   0.2188421117E-06   0.0000000000E+00   0.1050341983E+01
   0.2006200000E+01   0.9994879249E+00   0.5120751223E-03   0.1000000000E-03  -0.1412449770E-04   0.1412449770E-04   0.6100000000E-02  -0.4979506246E-03   0.4979506246E-03   0.1049673787E+01   0.1821318215E-03   0.1821318221E-03   0.9951965244E-02  -0.9951965243E-02  -0.2188424128E-06   0.0000000000E+00   0.1050341983E+01
   0.2006200000E+01   0.5120751223E-03   0.9994879249E+00   0.1000000000E-03   0.1412449770E-04  -0.1412449770E-04   0.6100000000E-02   0.4979506246E-03  -0.4979506246E-03   0.1049673787E+01   0.1821318221E-03   0.1821318215E-03  -0.9951965243E-02   0.9951965244E-02  -0.2188424127E-06   0.0000000000E+00   0.1050341983E+01
   0.2006200000E+01   0.9994879249E+00   0.9994879249E+00   0.1000000000E-03  -0.1412449770E-04  -0.1412449770E-04   0.6100000000E-02  -0.4979506246E-03  -0.4979506246E-03   0.1049673787E+01   0.1821318218E-03   0.1821318218E-03   0.9951965243E-02   0.9951965243E-02   0.2188427139E-06   0.0000000000E+00   0.1050341983E+01
     1     2     3     4     5     6     7     8
     2     9    10     3     6    11    12     7
 VARIABLES = X,Y,Z,DU1,DU2,DU3,U1,U2,U3,S11,S22,S33,S12,S13,S23,Vf,SMISES
 ZONE, T="0.6300D+00" F=FEPOINT, I=   12 J=    2 ET=BRICK
   0.0000000000E+00   0.9425144628E-03   0.9425144628E-03   0.0000000000E+00   0.8281747595E-05   0.8281747595E-05   0.0000000000E+00   0.9342327152E-03   0.9342327152E-03   0.1025832951E+01  -0.4265781042E-01  -0.4265781042E-01  -0.1023901445E-01  -0.1023901445E-01   0.2846775145E-06   0.0000000000E+00   0.1069374425E+01
   0.1003570812E+01   0.6673913687E-03   0.6673913687E-03   0.6016323721E-04   0.1051573721E-04   0.1051573721E-04   0.3510649120E-02   0.6568756315E-03   0.6568756315E-03   0.1032131459E+01  -0.2617240277E-01  -0.2617240277E-01  -0.9657746087E-02  -0.9657746087E-02   0.2411868016E-06   0.0000000000E+00   0.1059105809E+01
   0.1003570812E+01   0.9993326086E+00   0.6673913687E-03   0.6016323721E-04  -0.1051573720E-04   0.1051573721E-04   0.3510649120E-02  -0.6568756315E-03   0.6568756315E-03   0.1032131459E+01  -0.2617240277E-01  -0.2617240277E-01   0.9657746086E-02  -0.9657746087E-02  -0.2411868863E-06   0.0000000000E+00   0.1059105809E+01
   0.0000000000E+00   0.9990574855E+00   0.9425144628E-03   0.0000000000E+00  -0.8281747595E-05   0.8281747596E-05   0.0000000000E+00  -0.9342327152E-03   0.9342327152E-03   0.1025832951E+01  -0.4265781042E-01  -0.4265781042E-01   0.1023901445E-01  -0.1023901445E-01  -0.2846773207E-06   0.0000000000E+00   0.1069374425E+01
   0.0000000000E+00   0.9425144628E-03   0.9990574855E+00   0.0000000000E+00   0.8281747596E-05  -0.8281747595E-05   0.0000000000E+00   0.9342327152E-03  -0.9342327152E-03   0.1025832951E+01  -0.4265781042E-01  -0.4265781042E-01  -0.1023901445E-01   0.1023901445E-01  -0.2846773207E-06   0.0000000000E+00   0.1069374425E+01
   0.1003570812E+01   0.6673913687E-03   0.9993326086E+00   0.6016323721E-04   0.1051573721E-04  -0.1051573720E-04   0.3510649120E-02   0.6568756315E-03  -0.6568756315E-03   0.1032131459E+01  -0.2617240277E-01  -0.2617240277E-01  -0.9657746087E-02   0.9657746086E-02  -0.2411868863E-06   0.0000000000E+00   0.1059105809E+01
   0.1003570812E+01   0.9993326086E+00   0.9993326086E+00   0.6016323721E-04  -0.1051573720E-04  -0.1051573720E-04   0.3510649120E-02  -0.6568756315E-03  -0.6568756315E-03   0.1032131459E+01  -0.2617240277E-01  -0.2617240277E-01   0.9657746086E-02   0.9657746086E-02   0.2411869710E-06   0.0000000000E+00   0.1059105809E+01
   0.0000000000E+00   0.9990574855E+00   0.9990574855E+00   0.0000000000E+00  -0.8281747595E-05  -0.8281747595E-05   0.0000000000E+00  -0.9342327152E-03  -0.9342327152E-03   0.1025832951E+01  -0.4265781042E-01  -0.4265781042E-01   0.1023901445E-01   0.1023901445E-01   0.2846771268E-06   0.0000000000E+00   0.1069374425E+01
   0.2006300000E+01   0.5260661810E-03   0.5260661810E-03   0.1000000000E-03   0.1399105865E-04   0.1399105865E-04   0.6200000000E-02   0.5120751223E-03   0.5120751223E-03   0.1039089329E+01  -0.1001667579E-01  -0.1001667579E-01  -0.9123784382E-02  -0.9123784382E-02   0.1989568337E-06   0.0000000000E+00   0.1049821043E+01
   0.2006300000E+01   0.9994739338E+00   0.5260661810E-03   0.1000000000E-03  -0.1399105865E-04   0.1399105865E-04   0.6200000000E-02  -0.5120751223E-03   0.5120751223E-03   0.1039089329E+01  -0.1001667579E-01  -0.1001667579E-01   0.9123784382E-02  -0.9123784382E-02  -0.1989572015E-06   0.0000000000E+00   0.1049821043E+01
   0.2006300000E+01   0.5260661810E-03   0.9994739338E+00   0.1000000000E-03   0.1399105865E-04  -0.1399105865E-04   0.6200000000E-02   0.5120751223E-03  -0.5120751223E-03   0.1039089329E+01  -0.1001667579E-01  -0.1001667579E-01  -0.9123784382E-02   0.9123784382E-02  -0.1989572015E-06   0.0000000000E+00   0.1049821043E+01
   0.2006300000E+01   0.9994739338E+00   0.9994739338E+00   0.1000000000E-03  -0.1399105865E-04  -0.1399105865E-04   0.6200000000E-02  -0.5120751223E-03  -0.5120751223E-03   0.1039089329E+01  -0.1001667579E-01  -0.1001667579E-01   0.9123784382E-02   0.9123784382E-02   0.1989575692E-06   0.0000000000E+00   0.1049821043E+01
     1     2     3     4     5     6     7     8
     2     9    10     3     6    11    12     7
 VARIABLES = X,Y,Z,DU1,DU2,DU3,U1,U2,U3,S11,S22,S33,S12,S13,S23,Vf,SMISES
 ZONE, T="0.6400D+00" F=FEPOINT, I=   12 J=    2 ET=BRICK
   0.0000000000E+00   0.9504320362E-03   0.9504320362E-03   0.0000000000E+00   0.7917573423E-05   0.7917573423E-05   0.0000000000E+00   0.9425144628E-03   0.9425144628E-03   0.1046427989E+01  -0.2016809638E-01  -0.2016809638E-01  -0.9424980972E-02  -0.9424980972E-02   0.2622034015E-06   0.0000000000E+00   0.1067346213E+01
   0.1003630657E+01   0.6776019458E-03   0.6776019458E-03   0.5984422917E-04   0.1021057706E-04   0.1021057706E-04   0.3570812358E-02   0.6673913687E-03   0.6673913687E-03   0.1037673639E+01  -0.1941955392E-01  -0.1941955392E-01  -0.8837430580E-02  -0.8837430580E-02   0.2204954936E-06   0.0000000000E+00   0.1057766585E+01
   0.1003630657E+01   0.9993223981E+00   0.6776019458E-03   0.5984422917E-04  -0.1021057706E-04   0.1021057706E-04   0.3570812358E-02  -0.6673913687E-03   0.6673913687E-03   0.1037673639E+01  -0.1941955392E-01  -0.1941955392E-01   0.8837430579E-02  -0.8837430580E-02  -0.2204955784E-06   0.0000000000E+00   0.1057766585E+01
   0.0000000000E+00   0.9990495680E+00   0.9504320362E-03   0.0000000000E+00  -0.7917573422E-05   0.7917573423E-05   0.0000000000E+00  -0.9425144628E-03   0.9425144628E-03   0.1046427988E+01  -0.2016809638E-01  -0.2016809638E-01   0.9424980972E-02  -0.9424980972E-02  -0.2622031471E-06   0.0000000000E+00   0.1067346213E+01
   0.0000000000E+00   0.9504320362E-03   0.9990495680E+00   0.0000000000E+00   0.7917573423E-05  -0.7917573422E-05   0.0000000000E+00   0.9425144628E-03  -0.9425144628E-03   0.1046427988E+01  -0.2016809638E-01  -0.2016809638E-01  -0.9424980972E-02   0.9424980972E-02  -0.2622031471E-06   0.0000000000E+00   0.1067346213E+01
   0.1003630657E+01   0.6776019458E-03   0.9993223981E+00   0.5984422917E-04   0.1021057706E-04  -0.1021057706E-04   0.3570812358E-02   0.6673913687E-03  -0.6673913687E-03   0.1037673639E+01  -0.1941955392E-01  -0.1941955392E-01  -0.8837430580E-02   0.8837430579E-02  -0.2204955784E-06   0.0000000000E+00   0.1057766585E+01
   0.1003630657E+01   0.9993223981E+00   0.9993223981E+00   0.5984422917E-04  -0.1021057706E-04  -0.1021057706E-04   0.3570812358E-02  -0.6673913687E-03  -0.6673913687E-03   0.1037673639E+01  -0.1941955391E-01  -0.1941955391E-01   0.8837430579E-02   0.8837430579E-02   0.2204956632E-06   0.0000000000E+00   0.1057766585E+01
   0.0000000000E+00   0.9990495680E+00   0.9990495680E+00   0.0000000000E+00  -0.7917573423E-05  -0.7917573423E-05   0.0000000000E+00  -0.9425144628E-03  -0.9425144628E-03   0.1046427988E+01  -0.2016809638E-01  -0.2016809638E-01   0.9424980972E-02   0.9424980972E-02   0.2622028928E-06   0.0000000000E+00   0.1067346213E+01
   0.2006400000E+01   0.5397389393E-03   0.5397389393E-03   0.1000000000E-03   0.1367275836E-04   0.1367275836E-04   0.6300000000E-02   0.5260661810E-03   0.5260661810E-03   0.1029639194E+01  -0.1903096311E-01  -0.1903096311E-01  -0.8296472374E-02  -0.8296472374E-02   0.1799044632E-06   0.0000000000E+00   0.1049261730E+01
   0.2006400000E+01   0.9994602611E+00   0.5397389393E-03   0.1000000000E-03  -0.1367275836E-04   0.1367275836E-04   0.6300000000E-02  -0.5260661809E-03   0.5260661810E-03   0.1029639194E+01  -0.1903096311E-01  -0.1903096311E-01   0.8296472374E-02  -0.8296472374E-02  -0.1799048893E-06   0.0000000000E+00   0.1049261730E+01
   0.2006400000E+01   0.5397389393E-03   0.9994602611E+00   0.1000000000E-03   0.1367275836E-04  -0.1367275836E-04   0.6300000000E-02   0.5260661810E-03  -0.5260661809E-03   0.1029639194E+01  -0.1903096311E-01  -0.1903096311E-01  -0.8296472374E-02   0.8296472374E-02  -0.1799048893E-06   0.0000000000E+00   0.1049261730E+01
   0.2006400000E+01   0.9994602611E+00   0.9994602611E+00   0.1000000000E-03  -0.1367275836E-04  -0.1367275836E-04   0.6300000000E-02  -0.5260661809E-03  -0.5260661809E-03   0.1029639194E+01  -0.1903096311E-01  -0.1903096311E-01   0.8296472373E-02   0.8296472373E-02   0.1799053154E-06   0.0000000000E+00   0.1049261730E+01
     1     2     3     4     5     6     7     8
     2     9    10     3     6    11    12     7
 VARIABLES = X,Y,Z,DU1,DU2,DU3,U1,U2,U3,S11,S22,S33,S12,S13,S23,Vf,SMISES
 ZONE, T="0.6500D+00" F=FEPOINT, I=   12 J=    2 ET=BRICK
   0.0000000000E+00   0.9584779347E-03   0.9584779347E-03   0.0000000000E+00   0.8045898446E-05   0.8045898446E-05   0.0000000000E+00   0.9504320362E-03   0.9504320362E-03   0.1068235262E+01   0.3213569518E-02   0.3213569518E-02  -0.8655284990E-02  -0.8655284990E-02   0.2415434756E-06   0.0000000000E+00   0.1065655289E+01
   0.1003689886E+01   0.6876786421E-03   0.6876786421E-03   0.5922918949E-04   0.1007669637E-04   0.1007669637E-04   0.3630656587E-02   0.6776019458E-03   0.6776019458E-03   0.1044613913E+01  -0.1146686735E-01  -0.1146686735E-01  -0.8059520310E-02  -0.8059520310E-02   0.2016177674E-06   0.0000000000E+00   0.1056642543E+01
   0.1003689886E+01   0.9993123214E+00   0.6876786421E-03   0.5922918949E-04  -0.1007669637E-04   0.1007669637E-04   0.3630656587E-02  -0.6776019457E-03   0.6776019458E-03   0.1044613913E+01  -0.1146686735E-01  -0.1146686735E-01   0.8059520309E-02  -0.8059520310E-02  -0.2016178487E-06   0.0000000000E+00   0.1056642543E+01
   0.0000000000E+00   0.9990415221E+00   0.9584779347E-03   0.0000000000E+00  -0.8045898446E-05   0.8045898447E-05   0.0000000000E+00  -0.9504320362E-03   0.9504320362E-03   0.1068235262E+01   0.3213569518E-02   0.3213569517E-02   0.8655284990E-02  -0.8655284990E-02  -0.2415431623E-06   0.0000000000E+00   0.1065655289E+01
   0.0000000000E+00   0.9584779347E-03   0.9990415221E+00   0.0000000000E+00   0.8045898447E-05  -0.8045898446E-05   0.0000000000E+00   0.9504320362E-03  -0.9504320362E-03   0.1068235262E+01   0.3213569517E-02   0.3213569518E-02  -0.8655284990E-02   0.8655284990E-02  -0.2415431622E-06   0.0000000000E+00   0.1065655289E+01
   0.1003689886E+01   0.6876786421E-03   0.9993123214E+00   0.5922918949E-04   0.1007669637E-04  -0.1007669637E-04   0.3630656587E-02   0.6776019458E-03  -0.6776019457E-03   0.1044613913E+01  -0.1146686735E-01  -0.1146686735E-01  -0.8059520310E-02   0.8059520309E-02  -0.2016178487E-06   0.0000000000E+00   0.1056642543E+01
   0.1003689886E+01   0.9993123214E+00   0.9993123214E+00   0.5922918949E-04  -0.1007669637E-04  -0.1007669637E-04   0.3630656587E-02  -0.6776019457E-03  -0.6776019457E-03   0.1044613913E+01  -0.1146686735E-01  -0.1146686735E-01   0.8059520309E-02   0.8059520309E-02   0.2016179299E-06   0.0000000000E+00   0.1056642543E+01
   0.0000000000E+00   0.9990415221E+00   0.9990415221E+00   0.0000000000E+00  -0.8045898446E-05  -0.8045898446E-05   0.0000000000E+00  -0.9504320362E-03  -0.9504320362E-03   0.1068235262E+01   0.3213569518E-02   0.3213569518E-02   0.8655284990E-02   0.8655284990E-02   0.2415428489E-06   0.0000000000E+00   0.1065655289E+01
   0.2006500000E+01   0.5529435019E-03   0.5529435019E-03   0.1000000000E-03   0.1320456259E-04   0.1320456259E-04   0.6400000000E-02   0.5397389393E-03   0.5397389393E-03   0.1021749756E+01  -0.2652590032E-01  -0.2652590032E-01  -0.7509833484E-02  -0.7509833484E-02   0.1626960479E-06   0.0000000000E+00   0.1048760628E+01
   0.2006500000E+01   0.9994470565E+00   0.5529435019E-03   0.1000000000E-03  -0.1320456259E-04   0.1320456259E-04   0.6400000000E-02  -0.5397389393E-03   0.5397389393E-03   0.1021749756E+01  -0.2652590032E-01  -0.2652590032E-01   0.7509833484E-02  -0.7509833484E-02  -0.1626965234E-06   0.0000000000E+00   0.1048760628E+01
   0.2006500000E+01   0.5529435019E-03   0.9994470565E+00   0.1000000000E-03   0.1320456259E-04  -0.1320456259E-04   0.6400000000E-02   0.5397389393E-03  -0.5397389393E-03   0.1021749756E+01  -0.2652590032E-01  -0.2652590032E-01  -0.7509833484E-02   0.7509833484E-02  -0.1626965234E-06   0.0000000000E+00   0.1048760628E+01
   0.2006500000E+01   0.9994470565E+00   0.9994470565E+00   0.1000000000E-03  -0.1320456259E-04  -0.1320456259E-04   0.6400000000E-02  -0.5397389393E-03  -0.5397389393E-03   0.1021749755E+01  -0.2652590032E-01  -0.2652590032E-01   0.7509833483E-02   0.7509833483E-02   0.1626969989E-06   0.0000000000E+00   0.1048760628E+01
     1     2     3     4     5     6     7     8
     2     9    10     3     6    11    12     7
 VARIABLES = X,Y,Z,DU1,DU2,DU3,U1,U2,U3,S11,S22,S33,S12,S13,S23,Vf,SMISES
 ZONE, T="0.6600D+00" F=FEPOINT, I=   12 J=    2 ET=BRICK
   0.0000000000E+00   0.9671119934E-03   0.9671119934E-03   0.0000000000E+00   0.8634058750E-05   0.8634058750E-05   0.0000000000E+00   0.9584779347E-03   0.9584779347E-03   0.1089715997E+01   0.2586760379E-01   0.2586760379E-01  -0.7962589866E-02  -0.7962589866E-02   0.2233910263E-06   0.0000000000E+00   0.1064385263E+01
   0.1003748237E+01   0.6977957583E-03   0.6977957583E-03   0.5835079190E-04   0.1011711616E-04   0.1011711616E-04   0.3689885776E-02   0.6876786421E-03   0.6876786421E-03   0.1052333664E+01  -0.3013887673E-02  -0.3013887673E-02  -0.7358323482E-02  -0.7358323482E-02   0.1852123882E-06   0.0000000000E+00   0.1055817282E+01
   0.1003748237E+01   0.9993022042E+00   0.6977957583E-03   0.5835079190E-04  -0.1011711616E-04   0.1011711616E-04   0.3689885776E-02  -0.6876786421E-03   0.6876786421E-03   0.1052333664E+01  -0.3013887673E-02  -0.3013887673E-02   0.7358323480E-02  -0.7358323482E-02  -0.1852124642E-06   0.0000000000E+00   0.1055817282E+01
   0.0000000000E+00   0.9990328880E+00   0.9671119934E-03   0.0000000000E+00  -0.8634058750E-05   0.8634058751E-05   0.0000000000E+00  -0.9584779347E-03   0.9584779347E-03   0.1089715997E+01   0.2586760379E-01   0.2586760378E-01   0.7962589866E-02  -0.7962589866E-02  -0.2233906594E-06   0.0000000000E+00   0.1064385263E+01
   0.0000000000E+00   0.9671119934E-03   0.9990328880E+00   0.0000000000E+00   0.8634058751E-05  -0.8634058750E-05   0.0000000000E+00   0.9584779347E-03  -0.9584779347E-03   0.1089715997E+01   0.2586760378E-01   0.2586760379E-01  -0.7962589866E-02   0.7962589866E-02  -0.2233906594E-06   0.0000000000E+00   0.1064385263E+01
   0.1003748237E+01   0.6977957583E-03   0.9993022042E+00   0.5835079190E-04   0.1011711616E-04  -0.1011711616E-04   0.3689885776E-02   0.6876786421E-03  -0.6876786421E-03   0.1052333664E+01  -0.3013887673E-02  -0.3013887673E-02  -0.7358323482E-02   0.7358323480E-02  -0.1852124642E-06   0.0000000000E+00   0.1055817282E+01
   0.1003748237E+01   0.9993022042E+00   0.9993022042E+00   0.5835079190E-04  -0.1011711616E-04  -0.1011711616E-04   0.3689885776E-02  -0.6876786421E-03  -0.6876786421E-03   0.1052333664E+01  -0.3013887673E-02  -0.3013887673E-02   0.7358323480E-02   0.7358323480E-02   0.1852125401E-06   0.0000000000E+00   0.1055817282E+01
   0.0000000000E+00   0.9990328880E+00   0.9990328880E+00   0.0000000000E+00  -0.8634058750E-05  -0.8634058750E-05   0.0000000000E+00  -0.9584779347E-03  -0.9584779347E-03   0.1089715997E+01   0.2586760378E-01   0.2586760378E-01   0.7962589866E-02   0.7962589866E-02   0.2233902925E-06   0.0000000000E+00   0.1064385263E+01
   0.2006600000E+01   0.5655688945E-03   0.5655688945E-03   0.1000000000E-03   0.1262539260E-04   0.1262539260E-04   0.6500000000E-02   0.5529435019E-03   0.5529435019E-03   0.1015721604E+01  -0.3228051553E-01  -0.3228051553E-01  -0.6799656755E-02  -0.6799656755E-02   0.1479470118E-06   0.0000000000E+00   0.1048399878E+01
   0.2006600000E+01   0.9994344311E+00   0.5655688945E-03   0.1000000000E-03  -0.1262539260E-04   0.1262539260E-04   0.6500000000E-02  -0.5529435019E-03   0.5529435019E-03   0.1015721604E+01  -0.3228051553E-01  -0.3228051553E-01   0.6799656755E-02  -0.6799656755E-02  -0.1479475275E-06   0.0000000000E+00   0.1048399878E+01
   0.2006600000E+01   0.5655688945E-03   0.9994344311E+00   0.1000000000E-03   0.1262539260E-04  -0.1262539260E-04   0.6500000000E-02   0.5529435019E-03  -0.5529435019E-03   0.1015721604E+01  -0.3228051553E-01  -0.3228051553E-01  -0.6799656755E-02   0.6799656755E-02  -0.1479475275E-06   0.0000000000E+00   0.1048399878E+01
   0.2006600000E+01   0.9994344311E+00   0.9994344311E+00   0.1000000000E-03  -0.1262539260E-04  -0.1262539260E-04   0.6500000000E-02  -0.5529435019E-03  -0.5529435019E-03   0.1015721603E+01  -0.3228051553E-01  -0.3228051553E-01   0.6799656755E-02   0.6799656755E-02   0.1479480432E-06   0.0000000000E+00   0.1048399878E+01
     1     2     3     4     5     6     7     8
     2     9    10     3     6    11    12     7
 VARIABLES = X,Y,Z,DU1,DU2,DU3,U1,U2,U3,S11,S22,S33,S12,S13,S23,Vf,SMISES
 ZONE, T="0.6700D+00" F=FEPOINT, I=   12 J=    2 ET=BRICK
   0.0000000000E+00   0.9767314626E-03   0.9767314626E-03   0.0000000000E+00   0.9619469145E-05   0.9619469145E-05   0.0000000000E+00   0.9671119934E-03   0.9671119934E-03   0.1109400921E+01   0.4627481796E-01   0.4627481796E-01  -0.7374088826E-02  -0.7374088826E-02   0.2080888278E-06   0.0000000000E+00   0.1063586889E+01
   0.1003805494E+01   0.7081164690E-03   0.7081164690E-03   0.5725705886E-04   0.1032071071E-04   0.1032071071E-04   0.3748236568E-02   0.6977957583E-03   0.6977957583E-03   0.1060185322E+01   0.5236132385E-02   0.5236132385E-02  -0.6762464341E-02  -0.6762464341E-02   0.1715816680E-06   0.0000000000E+00   0.1055347104E+01
   0.1003805494E+01   0.9992918835E+00   0.7081164690E-03   0.5725705886E-04  -0.1032071071E-04   0.1032071071E-04   0.3748236568E-02  -0.6977957583E-03   0.6977957583E-03   0.1060185322E+01   0.5236132384E-02   0.5236132384E-02   0.6762464339E-02  -0.6762464341E-02  -0.1715817385E-06   0.0000000000E+00   0.1055347104E+01
   0.0000000000E+00   0.9990232685E+00   0.9767314626E-03   0.0000000000E+00  -0.9619469144E-05   0.9619469145E-05   0.0000000000E+00  -0.9671119934E-03   0.9671119934E-03   0.1109400921E+01   0.4627481796E-01   0.4627481796E-01   0.7374088826E-02  -0.7374088826E-02  -0.2080884163E-06   0.0000000000E+00   0.1063586889E+01
   0.0000000000E+00   0.9767314626E-03   0.9990232685E+00   0.0000000000E+00   0.9619469145E-05  -0.9619469144E-05   0.0000000000E+00   0.9671119934E-03  -0.9671119934E-03   0.1109400921E+01   0.4627481796E-01   0.4627481796E-01  -0.7374088826E-02   0.7374088826E-02  -0.2080884163E-06   0.0000000000E+00   0.1063586889E+01
   0.1003805494E+01   0.7081164690E-03   0.9992918835E+00   0.5725705886E-04   0.1032071071E-04  -0.1032071071E-04   0.3748236568E-02   0.6977957583E-03  -0.6977957583E-03   0.1060185322E+01   0.5236132384E-02   0.5236132384E-02  -0.6762464341E-02   0.6762464339E-02  -0.1715817385E-06   0.0000000000E+00   0.1055347104E+01
   0.1003805494E+01   0.9992918835E+00   0.9992918835E+00   0.5725705886E-04  -0.1032071071E-04  -0.1032071071E-04   0.3748236568E-02  -0.6977957583E-03  -0.6977957583E-03   0.1060185322E+01   0.5236132384E-02   0.5236132384E-02   0.6762464339E-02   0.6762464339E-02   0.1715818090E-06   0.0000000000E+00   0.1055347104E+01
   0.0000000000E+00   0.9990232685E+00   0.9990232685E+00   0.0000000000E+00  -0.9619469145E-05  -0.9619469145E-05   0.0000000000E+00  -0.9671119934E-03  -0.9671119934E-03   0.1109400921E+01   0.4627481796E-01   0.4627481796E-01   0.7374088826E-02   0.7374088826E-02   0.2080880048E-06   0.0000000000E+00   0.1063586889E+01
   0.2006700000E+01   0.5775447705E-03   0.5775447705E-03   0.1000000000E-03   0.1197587595E-04   0.1197587595E-04   0.6600000000E-02   0.5655688945E-03   0.5655688945E-03   0.1011729088E+01  -0.3618223557E-01  -0.3618223557E-01  -0.6195833724E-02  -0.6195833724E-02   0.1359119114E-06   0.0000000000E+00   0.1048241661E+01
   0.2006700000E+01   0.9994224552E+00   0.5775447705E-03   0.1000000000E-03  -0.1197587595E-04   0.1197587595E-04   0.6600000000E-02  -0.5655688945E-03   0.5655688945E-03   0.1011729088E+01  -0.3618223556E-01  -0.3618223556E-01   0.6195833723E-02  -0.6195833723E-02  -0.1359124581E-06   0.0000000000E+00   0.1048241661E+01
   0.2006700000E+01   0.5775447705E-03   0.9994224552E+00   0.1000000000E-03   0.1197587595E-04  -0.1197587595E-04   0.6600000000E-02   0.5655688945E-03  -0.5655688945E-03   0.1011729088E+01  -0.3618223556E-01  -0.3618223556E-01  -0.6195833723E-02   0.6195833723E-02  -0.1359124580E-06   0.0000000000E+00   0.1048241661E+01
   0.2006700000E+01   0.9994224552E+00   0.9994224552E+00   0.1000000000E-03  -0.1197587595E-04  -0.1197587595E-04   0.6600000000E-02  -0.5655688945E-03  -0.5655688945E-03   0.1011729088E+01  -0.3618223556E-01  -0.3618223556E-01   0.6195833723E-02   0.6195833723E-02   0.1359130047E-06   0.0000000000E+00   0.1048241661E+01
     1     2     3     4     5     6     7     8
     2     9    10     3     6    11    12     7
 VARIABLES = X,Y,Z,DU1,DU2,DU3,U1,U2,U3,S11,S22,S33,S12,S13,S23,Vf,SMISES
 ZONE, T="0.6800D+00" F=FEPOINT, I=   12 J=    2 ET=BRICK
   0.0000000000E+00   0.9876463526E-03   0.9876463526E-03   0.0000000000E+00   0.1091489003E-04   0.1091489003E-04   0.0000000000E+00   0.9767314626E-03   0.9767314626E-03   0.1125988520E+01   0.6311959027E-01   0.6311959027E-01  -0.6909993438E-02  -0.6909993438E-02   0.1957035679E-06   0.0000000000E+00   0.1063273656E+01
   0.1003861502E+01   0.7187803193E-03   0.7187803193E-03   0.5600792695E-04   0.1066385031E-04   0.1066385031E-04   0.3805493627E-02   0.7081164690E-03   0.7081164690E-03   0.1067544665E+01   0.1263329202E-01   0.1263329202E-01  -0.6293351245E-02  -0.6293351245E-02   0.1607517129E-06   0.0000000000E+00   0.1055256836E+01
   0.1003861502E+01   0.9992812197E+00   0.7187803193E-03   0.5600792695E-04  -0.1066385031E-04   0.1066385031E-04   0.3805493627E-02  -0.7081164690E-03   0.7081164690E-03   0.1067544665E+01   0.1263329202E-01   0.1263329202E-01   0.6293351243E-02  -0.6293351245E-02  -0.1607517795E-06   0.0000000000E+00   0.1055256836E+01
   0.0000000000E+00   0.9990123536E+00   0.9876463526E-03   0.0000000000E+00  -0.1091489003E-04   0.1091489003E-04   0.0000000000E+00  -0.9767314626E-03   0.9767314626E-03   0.1125988520E+01   0.6311959027E-01   0.6311959027E-01   0.6909993438E-02  -0.6909993438E-02  -0.1957031237E-06   0.0000000000E+00   0.1063273655E+01
   0.0000000000E+00   0.9876463526E-03   0.9990123536E+00   0.0000000000E+00   0.1091489003E-04  -0.1091489003E-04   0.0000000000E+00   0.9767314626E-03  -0.9767314626E-03   0.1125988520E+01   0.6311959027E-01   0.6311959027E-01  -0.6909993438E-02   0.6909993438E-02  -0.1957031236E-06   0.0000000000E+00   0.1063273655E+01
   0.1003861502E+01   0.7187803193E-03   0.9992812197E+00   0.5600792695E-04   0.1066385031E-04  -0.1066385031E-04   0.3805493627E-02   0.7081164690E-03  -0.7081164690E-03   0.1067544665E+01   0.1263329202E-01   0.1263329202E-01  -0.6293351245E-02   0.6293351243E-02  -0.1607517795E-06   0.0000000000E+00   0.1055256836E+01
   0.1003861502E+01   0.9992812197E+00   0.9992812197E+00   0.5600792695E-04  -0.1066385031E-04  -0.1066385031E-04   0.3805493627E-02  -0.7081164690E-03  -0.7081164690E-03   0.1067544665E+01   0.1263329202E-01   0.1263329202E-01   0.6293351243E-02   0.6293351243E-02   0.1607518461E-06   0.0000000000E+00   0.1055256836E+01
   0.0000000000E+00   0.9990123536E+00   0.9990123536E+00   0.0000000000E+00  -0.1091489003E-04  -0.1091489003E-04   0.0000000000E+00  -0.9767314626E-03  -0.9767314626E-03   0.1125988519E+01   0.6311959027E-01   0.6311959027E-01   0.6909993438E-02   0.6909993438E-02   0.1957026794E-06   0.0000000000E+00   0.1063273655E+01
   0.2006800000E+01   0.5888411115E-03   0.5888411115E-03   0.1000000000E-03   0.1129634103E-04   0.1129634103E-04   0.6700000000E-02   0.5775447705E-03   0.5775447705E-03   0.1009826788E+01  -0.3821599558E-01  -0.3821599558E-01  -0.5720815409E-02  -0.5720815409E-02   0.1265705157E-06   0.0000000000E+00   0.1048324413E+01
   0.2006800000E+01   0.9994111589E+00   0.5888411115E-03   0.1000000000E-03  -0.1129634103E-04   0.1129634103E-04   0.6700000000E-02  -0.5775447704E-03   0.5775447705E-03   0.1009826788E+01  -0.3821599558E-01  -0.3821599558E-01   0.5720815409E-02  -0.5720815409E-02  -0.1265710844E-06   0.0000000000E+00   0.1048324413E+01
   0.2006800000E+01   0.5888411115E-03   0.9994111589E+00   0.1000000000E-03   0.1129634103E-04  -0.1129634103E-04   0.6700000000E-02   0.5775447705E-03  -0.5775447704E-03   0.1009826788E+01  -0.3821599558E-01  -0.3821599558E-01  -0.5720815409E-02   0.5720815409E-02  -0.1265710844E-06   0.0000000000E+00   0.1048324413E+01
   0.2006800000E+01   0.9994111589E+00   0.9994111589E+00   0.1000000000E-03  -0.1129634103E-04  -0.1129634103E-04   0.6700000000E-02  -0.5775447704E-03  -0.5775447704E-03   0.1009826788E+01  -0.3821599558E-01  -0.3821599558E-01   0.5720815408E-02   0.5720815408E-02   0.1265716531E-06   0.0000000000E+00   0.1048324413E+01
     1     2     3     4     5     6     7     8
     2     9    10     3     6    11    12     7
 VARIABLES = X,Y,Z,DU1,DU2,DU3,U1,U2,U3,S11,S22,S33,S12,S13,S23,Vf,SMISES
 ZONE, T="0.6900D+00" F=FEPOINT, I=   12 J=    2 ET=BRICK
   0.0000000000E+00   0.1000061589E-02   0.1000061589E-02   0.0000000000E+00   0.1241523617E-04   0.1241523617E-04   0.0000000000E+00   0.9876463526E-03   0.9876463526E-03   0.1138428595E+01   0.7537499725E-01   0.7537499725E-01  -0.6582413476E-02  -0.6582413476E-02   0.1861218662E-06   0.0000000000E+00   0.1063420802E+01
   0.1003916173E+01   0.7298932861E-03   0.7298932861E-03   0.5467120805E-04   0.1111296673E-04   0.1111296673E-04   0.3861501554E-02   0.7187803193E-03   0.7187803193E-03   0.1073858536E+01   0.1863075733E-01   0.1863075733E-01  -0.5964054323E-02  -0.5964054323E-02   0.1525753036E-06   0.0000000000E+00   0.1055538487E+01
   0.1003916173E+01   0.9992701067E+00   0.7298932861E-03   0.5467120805E-04  -0.1111296672E-04   0.1111296673E-04   0.3861501554E-02  -0.7187803193E-03   0.7187803193E-03   0.1073858536E+01   0.1863075733E-01   0.1863075733E-01   0.5964054321E-02  -0.5964054323E-02  -0.1525753690E-06   0.0000000000E+00   0.1055538487E+01
   0.0000000000E+00   0.9989999384E+00   0.1000061589E-02   0.0000000000E+00  -0.1241523617E-04   0.1241523617E-04   0.0000000000E+00  -0.9876463526E-03   0.9876463526E-03   0.1138428595E+01   0.7537499724E-01   0.7537499724E-01   0.6582413476E-02  -0.6582413476E-02  -0.1861214031E-06   0.0000000000E+00   0.1063420801E+01
   0.0000000000E+00   0.1000061589E-02   0.9989999384E+00   0.0000000000E+00   0.1241523617E-04  -0.1241523617E-04   0.0000000000E+00   0.9876463526E-03  -0.9876463526E-03   0.1138428595E+01   0.7537499724E-01   0.7537499724E-01  -0.6582413476E-02   0.6582413476E-02  -0.1861214030E-06   0.0000000000E+00   0.1063420801E+01
   0.1003916173E+01   0.7298932861E-03   0.9992701067E+00   0.5467120805E-04   0.1111296673E-04  -0.1111296672E-04   0.3861501554E-02   0.7187803193E-03  -0.7187803193E-03   0.1073858536E+01   0.1863075733E-01   0.1863075733E-01  -0.5964054323E-02   0.5964054321E-02  -0.1525753690E-06   0.0000000000E+00   0.1055538487E+01
   0.1003916173E+01   0.9992701067E+00   0.9992701067E+00   0.5467120805E-04  -0.1111296672E-04  -0.1111296672E-04   0.3861501554E-02  -0.7187803193E-03  -0.7187803193E-03   0.1073858536E+01   0.1863075733E-01   0.1863075733E-01   0.5964054321E-02   0.5964054321E-02   0.1525754343E-06   0.0000000000E+00   0.1055538487E+01
   0.0000000000E+00   0.9989999384E+00   0.9989999384E+00   0.0000000000E+00  -0.1241523617E-04  -0.1241523617E-04   0.0000000000E+00  -0.9876463526E-03  -0.9876463526E-03   0.1138428595E+01   0.7537499724E-01   0.7537499724E-01   0.6582413476E-02   0.6582413476E-02   0.1861209399E-06   0.0000000000E+00   0.1063420801E+01
   0.2006900000E+01   0.5994662242E-03   0.5994662242E-03   0.1000000000E-03   0.1062511269E-04   0.1062511269E-04   0.6800000000E-02   0.5888411115E-03   0.5888411115E-03   0.1009961412E+01  -0.3844995027E-01  -0.3844995027E-01  -0.5388501425E-02  -0.5388501425E-02   0.1197372513E-06   0.0000000000E+00   0.1048661152E+01
   0.2006900000E+01   0.9994005338E+00   0.5994662242E-03   0.1000000000E-03  -0.1062511269E-04   0.1062511269E-04   0.6800000000E-02  -0.5888411115E-03   0.5888411115E-03   0.1009961412E+01  -0.3844995027E-01  -0.3844995027E-01   0.5388501424E-02  -0.5388501425E-02  -0.1197378335E-06   0.0000000000E+00   0.1048661152E+01
   0.2006900000E+01   0.5994662242E-03   0.9994005338E+00   0.1000000000E-03   0.1062511269E-04  -0.1062511269E-04   0.6800000000E-02   0.5888411115E-03  -0.5888411115E-03   0.1009961412E+01  -0.3844995027E-01  -0.3844995027E-01  -0.5388501425E-02   0.5388501424E-02  -0.1197378335E-06   0.0000000000E+00   0.1048661152E+01
   0.2006900000E+01   0.9994005338E+00   0.9994005338E+00   0.1000000000E-03  -0.1062511269E-04  -0.1062511269E-04   0.6800000000E-02  -0.5888411115E-03  -0.5888411115E-03   0.1009961412E+01  -0.3844995027E-01  -0.3844995027E-01   0.5388501424E-02   0.5388501424E-02   0.1197384158E-06   0.0000000000E+00   0.1048661152E+01
     1     2     3     4     5     6     7     8
     2     9    10     3     6    11    12     7
 VARIABLES = X,Y,Z,DU1,DU2,DU3,U1,U2,U3,S11,S22,S33,S12,S13,S23,Vf,SMISES
 ZONE, T="0.7000D+00" F=FEPOINT, I=   12 J=    2 ET=BRICK
   0.0000000000E+00   0.1014066976E-02   0.1014066976E-02   0.0000000000E+00   0.1400538738E-04   0.1400538738E-04   0.0000000000E+00   0.1000061589E-02   0.1000061589E-02   0.1145986018E+01   0.8236432020E-01   0.8236432020E-01  -0.6394734304E-02  -0.6394734304E-02   0.1791417937E-06   0.0000000000E+00   0.1063968069E+01
   0.1003969491E+01   0.7415210671E-03   0.7415210671E-03   0.5331821133E-04   0.1162778101E-04   0.1162778101E-04   0.3916172762E-02   0.7298932861E-03   0.7298932861E-03   0.1078684675E+01   0.2282335730E-01   0.2282335730E-01  -0.5778686466E-02  -0.5778686466E-02   0.1468296594E-06   0.0000000000E+00   0.1056153040E+01
   0.1003969491E+01   0.9992584789E+00   0.7415210671E-03   0.5331821133E-04  -0.1162778101E-04   0.1162778101E-04   0.3916172762E-02  -0.7298932860E-03   0.7298932861E-03   0.1078684675E+01   0.2282335730E-01   0.2282335730E-01   0.5778686463E-02  -0.5778686465E-02  -0.1468297271E-06   0.0000000000E+00   0.1056153040E+01
   0.0000000000E+00   0.9989859330E+00   0.1014066976E-02   0.0000000000E+00  -0.1400538738E-04   0.1400538738E-04   0.0000000000E+00  -0.1000061589E-02   0.1000061589E-02   0.1145986018E+01   0.8236432020E-01   0.8236432020E-01   0.6394734304E-02  -0.6394734304E-02  -0.1791413267E-06   0.0000000000E+00   0.1063968069E+01
   0.0000000000E+00   0.1014066976E-02   0.9989859330E+00   0.0000000000E+00   0.1400538738E-04  -0.1400538738E-04   0.0000000000E+00   0.1000061589E-02  -0.1000061589E-02   0.1145986018E+01   0.8236432020E-01   0.8236432020E-01  -0.6394734304E-02   0.6394734304E-02  -0.1791413266E-06   0.0000000000E+00   0.1063968069E+01
   0.1003969491E+01   0.7415210671E-03   0.9992584789E+00   0.5331821133E-04   0.1162778101E-04  -0.1162778101E-04   0.3916172762E-02   0.7298932861E-03  -0.7298932860E-03   0.1078684675E+01   0.2282335730E-01   0.2282335730E-01  -0.5778686465E-02   0.5778686463E-02  -0.1468297270E-06   0.0000000000E+00   0.1056153040E+01
   0.1003969491E+01   0.9992584789E+00   0.9992584789E+00   0.5331821133E-04  -0.1162778101E-04  -0.1162778101E-04   0.3916172762E-02  -0.7298932860E-03  -0.7298932860E-03   0.1078684675E+01   0.2282335730E-01   0.2282335730E-01   0.5778686463E-02   0.5778686463E-02   0.1468297947E-06   0.0000000000E+00   0.1056153040E+01
   0.0000000000E+00   0.9989859330E+00   0.9989859330E+00   0.0000000000E+00  -0.1400538738E-04  -0.1400538738E-04   0.0000000000E+00  -0.1000061589E-02  -0.1000061589E-02   0.1145986018E+01   0.8236432020E-01   0.8236432020E-01   0.6394734303E-02   0.6394734303E-02   0.1791408597E-06   0.0000000000E+00   0.1063968069E+01
   0.2007000000E+01   0.6094633542E-03   0.6094633542E-03   0.1000000000E-03   0.9997130007E-05   0.9997130007E-05   0.6900000000E-02   0.5994662242E-03   0.5994662242E-03   0.1011987566E+01  -0.3701972203E-01  -0.3701972203E-01  -0.5203639998E-02  -0.5203639998E-02   0.1151647724E-06   0.0000000000E+00   0.1049240095E+01
   0.2007000000E+01   0.9993905366E+00   0.6094633542E-03   0.1000000000E-03  -0.9997130006E-05   0.9997130007E-05   0.6900000000E-02  -0.5994662242E-03   0.5994662242E-03   0.1011987566E+01  -0.3701972203E-01  -0.3701972203E-01   0.5203639997E-02  -0.5203639998E-02  -0.1151653603E-06   0.0000000000E+00   0.1049240095E+01
   0.2007000000E+01   0.6094633542E-03   0.9993905366E+00   0.1000000000E-03   0.9997130007E-05  -0.9997130006E-05   0.6900000000E-02   0.5994662242E-03  -0.5994662242E-03   0.1011987566E+01  -0.3701972203E-01  -0.3701972203E-01  -0.5203639998E-02   0.5203639997E-02  -0.1151653603E-06   0.0000000000E+00   0.1049240095E+01
   0.2007000000E+01   0.9993905366E+00   0.9993905366E+00   0.1000000000E-03  -0.9997130006E-05  -0.9997130006E-05   0.6900000000E-02  -0.5994662241E-03  -0.5994662241E-03   0.1011987566E+01  -0.3701972202E-01  -0.3701972202E-01   0.5203639996E-02   0.5203639996E-02   0.1151659483E-06   0.0000000000E+00   0.1049240095E+01
     1     2     3     4     5     6     7     8
     2     9    10     3     6    11    12     7
 VARIABLES = X,Y,Z,DU1,DU2,DU3,U1,U2,U3,S11,S22,S33,S12,S13,S23,Vf,SMISES
 ZONE, T="0.7100D+00" F=FEPOINT, I=   12 J=    2 ET=BRICK
   0.0000000000E+00   0.1029635386E-02   0.1029635386E-02   0.0000000000E+00   0.1556840969E-04   0.1556840969E-04   0.0000000000E+00   0.1014066976E-02   0.1014066976E-02   0.1148280994E+01   0.8379537175E-01   0.8379537175E-01  -0.6341565810E-02  -0.6341565810E-02   0.1745385664E-06   0.0000000000E+00   0.1064825964E+01
   0.1004021510E+01   0.7536859598E-03   0.7536859598E-03   0.5201930299E-04   0.1216489278E-04   0.1216489278E-04   0.3969490973E-02   0.7415210671E-03   0.7415210671E-03   0.1081721040E+01   0.2497246736E-01   0.2497246736E-01  -0.5732352393E-02  -0.5732352393E-02   0.1432864194E-06   0.0000000000E+00   0.1057035238E+01
   0.1004021510E+01   0.9992463140E+00   0.7536859598E-03   0.5201930299E-04  -0.1216489278E-04   0.1216489278E-04   0.3969490973E-02  -0.7415210670E-03   0.7415210671E-03   0.1081721040E+01   0.2497246736E-01   0.2497246736E-01   0.5732352391E-02  -0.5732352393E-02  -0.1432864932E-06   0.0000000000E+00   0.1057035238E+01
   0.0000000000E+00   0.9989703646E+00   0.1029635386E-02   0.0000000000E+00  -0.1556840969E-04   0.1556840969E-04   0.0000000000E+00  -0.1014066976E-02   0.1014066976E-02   0.1148280994E+01   0.8379537174E-01   0.8379537174E-01   0.6341565809E-02  -0.6341565810E-02  -0.1745381106E-06   0.0000000000E+00   0.1064825964E+01
   0.0000000000E+00   0.1029635386E-02   0.9989703646E+00   0.0000000000E+00   0.1556840969E-04  -0.1556840969E-04   0.0000000000E+00   0.1014066976E-02  -0.1014066976E-02   0.1148280994E+01   0.8379537174E-01   0.8379537174E-01  -0.6341565810E-02   0.6341565809E-02  -0.1745381105E-06   0.0000000000E+00   0.1064825964E+01
   0.1004021510E+01   0.7536859598E-03   0.9992463140E+00   0.5201930299E-04   0.1216489278E-04  -0.1216489278E-04   0.3969490973E-02   0.7415210671E-03  -0.7415210670E-03   0.1081721040E+01   0.2497246736E-01   0.2497246736E-01  -0.5732352393E-02   0.5732352391E-02  -0.1432864931E-06   0.0000000000E+00   0.1057035238E+01
   0.1004021510E+01   0.9992463140E+00   0.9992463140E+00   0.5201930299E-04  -0.1216489278E-04  -0.1216489278E-04   0.3969490973E-02  -0.7415210670E-03  -0.7415210670E-03   0.1081721040E+01   0.2497246736E-01   0.2497246736E-01   0.5732352391E-02   0.5732352391E-02   0.1432865669E-06   0.0000000000E+00   0.1057035238E+01
   0.0000000000E+00   0.9989703646E+00   0.9989703646E+00   0.0000000000E+00  -0.1556840969E-04  -0.1556840969E-04   0.0000000000E+00  -0.1014066976E-02  -0.1014066976E-02   0.1148280994E+01   0.8379537174E-01   0.8379537174E-01   0.6341565809E-02   0.6341565809E-02   0.1745376547E-06   0.0000000000E+00   0.1064825964E+01
   0.2007100000E+01   0.6189062331E-03   0.6189062331E-03   0.1000000000E-03   0.9442878848E-05   0.9442878848E-05   0.7000000000E-02   0.6094633542E-03   0.6094633542E-03   0.1015685832E+01  -0.3411280963E-01  -0.3411280963E-01  -0.5161790990E-02  -0.5161790990E-02   0.1126178655E-06   0.0000000000E+00   0.1050027520E+01
   0.2007100000E+01   0.9993810938E+00   0.6189062331E-03   0.1000000000E-03  -0.9442878848E-05   0.9442878848E-05   0.7000000000E-02  -0.6094633542E-03   0.6094633542E-03   0.1015685832E+01  -0.3411280963E-01  -0.3411280963E-01   0.5161790989E-02  -0.5161790990E-02  -0.1126184520E-06   0.0000000000E+00   0.1050027520E+01
   0.2007100000E+01   0.6189062331E-03   0.9993810938E+00   0.1000000000E-03   0.9442878848E-05  -0.9442878848E-05   0.7000000000E-02   0.6094633542E-03  -0.6094633542E-03   0.1015685832E+01  -0.3411280963E-01  -0.3411280963E-01  -0.5161790990E-02   0.5161790989E-02  -0.1126184520E-06   0.0000000000E+00   0.1050027520E+01
   0.2007100000E+01   0.9993810938E+00   0.9993810938E+00   0.1000000000E-03  -0.9442878848E-05  -0.9442878848E-05   0.7000000000E-02  -0.6094633542E-03  -0.6094633542E-03   0.1015685832E+01  -0.3411280963E-01  -0.3411280963E-01   0.5161790989E-02   0.5161790989E-02   0.1126190385E-06   0.0000000000E+00   0.1050027520E+01
     1     2     3     4     5     6     7     8
     2     9    10     3     6    11    12     7
 VARIABLES = X,Y,Z,DU1,DU2,DU3,U1,U2,U3,S11,S22,S33,S12,S13,S23,Vf,SMISES
 ZONE, T="0.7200D+00" F=FEPOINT, I=   12 J=    2 ET=BRICK
   0.0000000000E+00   0.1046628977E-02   0.1046628977E-02   0.0000000000E+00   0.1699359132E-04   0.1699359132E-04   0.0000000000E+00   0.1029635386E-02   0.1029635386E-02   0.1145303773E+01   0.7976631779E-01   0.7976631779E-01  -0.6409288002E-02  -0.6409288002E-02   0.1720927736E-06   0.0000000000E+00   0.1065884738E+01
   0.1004072350E+01   0.7663673790E-03   0.7663673790E-03   0.5083967502E-04   0.1268141911E-04   0.1268141911E-04   0.4021510276E-02   0.7536859598E-03   0.7536859598E-03   0.1082822836E+01   0.2501594003E-01   0.2501594003E-01  -0.5811687099E-02  -0.5811687099E-02   0.1417413336E-06   0.0000000000E+00   0.1058100773E+01
   0.1004072350E+01   0.9992336326E+00   0.7663673790E-03   0.5083967502E-04  -0.1268141911E-04   0.1268141911E-04   0.4021510276E-02  -0.7536859598E-03   0.7536859598E-03   0.1082822836E+01   0.2501594003E-01   0.2501594003E-01   0.5811687097E-02  -0.5811687099E-02  -0.1417414174E-06   0.0000000000E+00   0.1058100773E+01
   0.0000000000E+00   0.9989533710E+00   0.1046628977E-02   0.0000000000E+00  -0.1699359132E-04   0.1699359132E-04   0.0000000000E+00  -0.1029635386E-02   0.1029635386E-02   0.1145303773E+01   0.7976631779E-01   0.7976631779E-01   0.6409288002E-02  -0.6409288002E-02  -0.1720923429E-06   0.0000000000E+00   0.1065884738E+01
   0.0000000000E+00   0.1046628977E-02   0.9989533710E+00   0.0000000000E+00   0.1699359132E-04  -0.1699359132E-04   0.0000000000E+00   0.1029635386E-02  -0.1029635386E-02   0.1145303773E+01   0.7976631779E-01   0.7976631779E-01  -0.6409288002E-02   0.6409288002E-02  -0.1720923429E-06   0.0000000000E+00   0.1065884738E+01
   0.1004072350E+01   0.7663673790E-03   0.9992336326E+00   0.5083967502E-04   0.1268141911E-04  -0.1268141911E-04   0.4021510276E-02   0.7536859598E-03  -0.7536859598E-03   0.1082822836E+01   0.2501594003E-01   0.2501594003E-01  -0.5811687099E-02   0.5811687097E-02  -0.1417414174E-06   0.0000000000E+00   0.1058100773E+01
   0.1004072350E+01   0.9992336326E+00   0.9992336326E+00   0.5083967502E-04  -0.1268141911E-04  -0.1268141911E-04   0.4021510276E-02  -0.7536859598E-03  -0.7536859598E-03   0.1082822835E+01   0.2501594003E-01   0.2501594003E-01   0.5811687097E-02   0.5811687097E-02   0.1417415011E-06   0.0000000000E+00   0.1058100773E+01
   0.0000000000E+00   0.9989533710E+00   0.9989533710E+00   0.0000000000E+00  -0.1699359132E-04  -0.1699359132E-04   0.0000000000E+00  -0.1029635386E-02  -0.1029635386E-02   0.1145303773E+01   0.7976631779E-01   0.7976631779E-01   0.6409288001E-02   0.6409288001E-02   0.1720919122E-06   0.0000000000E+00   0.1065884738E+01
   0.2007200000E+01   0.6278938463E-03   0.6278938463E-03   0.1000000000E-03   0.8987613211E-05   0.8987613211E-05   0.7100000000E-02   0.6189062331E-03   0.6189062331E-03   0.1020781679E+01  -0.2995432793E-01  -0.2995432793E-01  -0.5249865653E-02  -0.5249865653E-02   0.1119044977E-06   0.0000000000E+00   0.1050972507E+01
   0.2007200000E+01   0.9993721062E+00   0.6278938463E-03   0.1000000000E-03  -0.8987613211E-05   0.8987613211E-05   0.7100000000E-02  -0.6189062330E-03   0.6189062331E-03   0.1020781679E+01  -0.2995432793E-01  -0.2995432793E-01   0.5249865652E-02  -0.5249865653E-02  -0.1119050765E-06   0.0000000000E+00   0.1050972507E+01
   0.2007200000E+01   0.6278938463E-03   0.9993721062E+00   0.1000000000E-03   0.8987613211E-05  -0.8987613211E-05   0.7100000000E-02   0.6189062331E-03  -0.6189062330E-03   0.1020781679E+01  -0.2995432793E-01  -0.2995432793E-01  -0.5249865653E-02   0.5249865652E-02  -0.1119050765E-06   0.0000000000E+00   0.1050972507E+01
   0.2007200000E+01   0.9993721062E+00   0.9993721062E+00   0.1000000000E-03  -0.8987613211E-05  -0.8987613211E-05   0.7100000000E-02  -0.6189062330E-03  -0.6189062330E-03   0.1020781678E+01  -0.2995432793E-01  -0.2995432793E-01   0.5249865652E-02   0.5249865652E-02   0.1119056552E-06   0.0000000000E+00   0.1050972507E+01
     1     2     3     4     5     6     7     8
     2     9    10     3     6    11    12     7
 VARIABLES = X,Y,Z,DU1,DU2,DU3,U1,U2,U3,S11,S22,S33,S12,S13,S23,Vf,SMISES
 ZONE, T="0.7300D+00" F=FEPOINT, I=   12 J=    2 ET=BRICK
   0.0000000000E+00   0.1064812716E-02   0.1064812716E-02   0.0000000000E+00   0.1818373892E-04   0.1818373892E-04   0.0000000000E+00   0.1046628977E-02   0.1046628977E-02   0.1137403449E+01   0.7074387619E-01   0.7074387619E-01  -0.6577159225E-02  -0.6577159225E-02   0.1715814722E-06   0.0000000000E+00   0.1067024873E+01
   0.1004122186E+01   0.7795057662E-03   0.7795057662E-03   0.4983557185E-04   0.1313838726E-04   0.1313838726E-04   0.4072349951E-02   0.7663673790E-03   0.7663673790E-03   0.1082006405E+01   0.2306320932E-01   0.2306320932E-01  -0.5995952039E-02  -0.5995952039E-02   0.1420036774E-06   0.0000000000E+00   0.1059254938E+01
   0.1004122186E+01   0.9992204942E+00   0.7795057662E-03   0.4983557185E-04  -0.1313838726E-04   0.1313838726E-04   0.4072349951E-02  -0.7663673789E-03   0.7663673790E-03   0.1082006405E+01   0.2306320932E-01   0.2306320932E-01   0.5995952037E-02  -0.5995952039E-02  -0.1420037744E-06   0.0000000000E+00   0.1059254938E+01
   0.0000000000E+00   0.9989351873E+00   0.1064812716E-02   0.0000000000E+00  -0.1818373892E-04   0.1818373892E-04   0.0000000000E+00  -0.1046628977E-02   0.1046628977E-02   0.1137403449E+01   0.7074387619E-01   0.7074387619E-01   0.6577159225E-02  -0.6577159225E-02  -0.1715810788E-06   0.0000000000E+00   0.1067024873E+01
   0.0000000000E+00   0.1064812716E-02   0.9989351873E+00   0.0000000000E+00   0.1818373892E-04  -0.1818373892E-04   0.0000000000E+00   0.1046628977E-02  -0.1046628977E-02   0.1137403449E+01   0.7074387619E-01   0.7074387619E-01  -0.6577159225E-02   0.6577159225E-02  -0.1715810788E-06   0.0000000000E+00   0.1067024873E+01
   0.1004122186E+01   0.7795057662E-03   0.9992204942E+00   0.4983557185E-04   0.1313838726E-04  -0.1313838726E-04   0.4072349951E-02   0.7663673790E-03  -0.7663673789E-03   0.1082006405E+01   0.2306320932E-01   0.2306320932E-01  -0.5995952039E-02   0.5995952037E-02  -0.1420037744E-06   0.0000000000E+00   0.1059254938E+01
   0.1004122186E+01   0.9992204942E+00   0.9992204942E+00   0.4983557185E-04  -0.1313838726E-04  -0.1313838726E-04   0.4072349951E-02  -0.7663673789E-03  -0.7663673789E-03   0.1082006405E+01   0.2306320932E-01   0.2306320932E-01   0.5995952037E-02   0.5995952037E-02   0.1420038713E-06   0.0000000000E+00   0.1059254938E+01
   0.0000000000E+00   0.9989351873E+00   0.9989351873E+00   0.0000000000E+00  -0.1818373892E-04  -0.1818373892E-04   0.0000000000E+00  -0.1046628977E-02  -0.1046628977E-02   0.1137403449E+01   0.7074387618E-01   0.7074387618E-01   0.6577159224E-02   0.6577159224E-02   0.1715806854E-06   0.0000000000E+00   0.1067024873E+01
   0.2007300000E+01   0.6365446760E-03   0.6365446760E-03   0.1000000000E-03   0.8650829699E-05   0.8650829699E-05   0.7200000000E-02   0.6278938463E-03   0.6278938463E-03   0.1026963930E+01  -0.2479474210E-01  -0.2479474210E-01  -0.5447210915E-02  -0.5447210915E-02   0.1128637771E-06   0.0000000000E+00   0.1052012986E+01
   0.2007300000E+01   0.9993634553E+00   0.6365446760E-03   0.1000000000E-03  -0.8650829698E-05   0.8650829699E-05   0.7200000000E-02  -0.6278938462E-03   0.6278938463E-03   0.1026963930E+01  -0.2479474210E-01  -0.2479474210E-01   0.5447210914E-02  -0.5447210915E-02  -0.1128643425E-06   0.0000000000E+00   0.1052012986E+01
   0.2007300000E+01   0.6365446760E-03   0.9993634553E+00   0.1000000000E-03   0.8650829699E-05  -0.8650829698E-05   0.7200000000E-02   0.6278938463E-03  -0.6278938462E-03   0.1026963930E+01  -0.2479474210E-01  -0.2479474210E-01  -0.5447210915E-02   0.5447210914E-02  -0.1128643425E-06   0.0000000000E+00   0.1052012986E+01
   0.2007300000E+01   0.9993634553E+00   0.9993634553E+00   0.1000000000E-03  -0.8650829698E-05  -0.8650829698E-05   0.7200000000E-02  -0.6278938462E-03  -0.6278938462E-03   0.1026963930E+01  -0.2479474210E-01  -0.2479474210E-01   0.5447210914E-02   0.5447210914E-02   0.1128649079E-06   0.0000000000E+00   0.1052012986E+01
     1     2     3     4     5     6     7     8
     2     9    10     3     6    11    12     7
 VARIABLES = X,Y,Z,DU1,DU2,DU3,U1,U2,U3,S11,S22,S33,S12,S13,S23,Vf,SMISES
 ZONE, T="0.7400D+00" F=FEPOINT, I=   12 J=    2 ET=BRICK
   0.0000000000E+00   0.1083873975E-02   0.1083873975E-02   0.0000000000E+00   0.1906125868E-04   0.1906125868E-04   0.0000000000E+00   0.1064812716E-02   0.1064812716E-02   0.1125252270E+01   0.5751675187E-01   0.5751675187E-01  -0.6818893719E-02  -0.6818893719E-02   0.1727434278E-06   0.0000000000E+00   0.1068127737E+01
   0.1004171237E+01   0.7930093910E-03   0.7930093910E-03   0.4905118688E-04   0.1350362482E-04   0.1350362482E-04   0.4122185523E-02   0.7795057662E-03   0.7795057662E-03   0.1079440133E+01   0.1937692817E-01   0.1937692817E-01  -0.6258603330E-02  -0.6258603330E-02   0.1438569246E-06   0.0000000000E+00   0.1060401620E+01
   0.1004171237E+01   0.9992069906E+00   0.7930093910E-03   0.4905118688E-04  -0.1350362482E-04   0.1350362482E-04   0.4122185523E-02  -0.7795057662E-03   0.7795057662E-03   0.1079440133E+01   0.1937692817E-01   0.1937692817E-01   0.6258603328E-02  -0.6258603330E-02  -0.1438570371E-06   0.0000000000E+00   0.1060401620E+01
   0.0000000000E+00   0.9989161260E+00   0.1083873975E-02   0.0000000000E+00  -0.1906125868E-04   0.1906125868E-04   0.0000000000E+00  -0.1064812716E-02   0.1064812716E-02   0.1125252270E+01   0.5751675187E-01   0.5751675186E-01   0.6818893718E-02  -0.6818893719E-02  -0.1727430811E-06   0.0000000000E+00   0.1068127737E+01
   0.0000000000E+00   0.1083873975E-02   0.9989161260E+00   0.0000000000E+00   0.1906125868E-04  -0.1906125868E-04   0.0000000000E+00   0.1064812716E-02  -0.1064812716E-02   0.1125252270E+01   0.5751675186E-01   0.5751675187E-01  -0.6818893719E-02   0.6818893718E-02  -0.1727430811E-06   0.0000000000E+00   0.1068127737E+01
   0.1004171237E+01   0.7930093910E-03   0.9992069906E+00   0.4905118688E-04   0.1350362482E-04  -0.1350362482E-04   0.4122185523E-02   0.7795057662E-03  -0.7795057662E-03   0.1079440133E+01   0.1937692817E-01   0.1937692817E-01  -0.6258603330E-02   0.6258603328E-02  -0.1438570371E-06   0.0000000000E+00   0.1060401620E+01
   0.1004171237E+01   0.9992069906E+00   0.9992069906E+00   0.4905118688E-04  -0.1350362482E-04  -0.1350362482E-04   0.4122185523E-02  -0.7795057662E-03  -0.7795057662E-03   0.1079440133E+01   0.1937692817E-01   0.1937692817E-01   0.6258603328E-02   0.6258603328E-02   0.1438571496E-06   0.0000000000E+00   0.1060401620E+01
   0.0000000000E+00   0.9989161260E+00   0.9989161260E+00   0.0000000000E+00  -0.1906125868E-04  -0.1906125868E-04   0.0000000000E+00  -0.1064812716E-02  -0.1064812716E-02   0.1125252270E+01   0.5751675186E-01   0.5751675186E-01   0.6818893718E-02   0.6818893718E-02   0.1727427344E-06   0.0000000000E+00   0.1068127737E+01
   0.2007400000E+01   0.6449906344E-03   0.6449906344E-03   0.1000000000E-03   0.8445958443E-05   0.8445958443E-05   0.7300000000E-02   0.6365446760E-03   0.6365446760E-03   0.1033901772E+01  -0.1889978375E-01  -0.1889978375E-01  -0.5727158897E-02  -0.5727158897E-02   0.1153225427E-06   0.0000000000E+00   0.1053082344E+01
   0.2007400000E+01   0.9993550094E+00   0.6449906344E-03   0.1000000000E-03  -0.8445958443E-05   0.8445958443E-05   0.7300000000E-02  -0.6365446759E-03   0.6365446760E-03   0.1033901772E+01  -0.1889978375E-01  -0.1889978375E-01   0.5727158896E-02  -0.5727158897E-02  -0.1153230902E-06   0.0000000000E+00   0.1053082344E+01
   0.2007400000E+01   0.6449906344E-03   0.9993550094E+00   0.1000000000E-03   0.8445958443E-05  -0.8445958443E-05   0.7300000000E-02   0.6365446760E-03  -0.6365446759E-03   0.1033901772E+01  -0.1889978375E-01  -0.1889978375E-01  -0.5727158897E-02   0.5727158896E-02  -0.1153230902E-06   0.0000000000E+00   0.1053082344E+01
   0.2007400000E+01   0.9993550094E+00   0.9993550094E+00   0.1000000000E-03  -0.8445958443E-05  -0.8445958443E-05   0.7300000000E-02  -0.6365446759E-03  -0.6365446759E-03   0.1033901772E+01  -0.1889978375E-01  -0.1889978375E-01   0.5727158896E-02   0.5727158896E-02   0.1153236377E-06   0.0000000000E+00   0.1053082344E+01
     1     2     3     4     5     6     7     8
     2     9    10     3     6    11    12     7
 VARIABLES = X,Y,Z,DU1,DU2,DU3,U1,U2,U3,S11,S22,S33,S12,S13,S23,Vf,SMISES
 ZONE, T="0.7500D+00" F=FEPOINT, I=   12 J=    2 ET=BRICK
   0.0000000000E+00   0.1103446630E-02   0.1103446630E-02   0.0000000000E+00   0.1957265527E-04   0.1957265527E-04   0.0000000000E+00   0.1083873975E-02   0.1083873975E-02   0.1109788596E+01   0.4112877375E-01   0.4112877375E-01  -0.7104567375E-02  -0.7104567375E-02   0.1752367349E-06   0.0000000000E+00   0.1069085194E+01
   0.1004219753E+01   0.8067633391E-03   0.8067633391E-03   0.4851639297E-04   0.1375394805E-04   0.1375394805E-04   0.4171236710E-02   0.7930093910E-03   0.7930093910E-03   0.1075423548E+01   0.1434349080E-01   0.1434349080E-01  -0.6569200710E-02  -0.6569200710E-02   0.1470097269E-06   0.0000000000E+00   0.1061451609E+01
   0.1004219753E+01   0.9991932367E+00   0.8067633391E-03   0.4851639297E-04  -0.1375394805E-04   0.1375394805E-04   0.4171236710E-02  -0.7930093910E-03   0.7930093910E-03   0.1075423548E+01   0.1434349080E-01   0.1434349080E-01   0.6569200708E-02  -0.6569200710E-02  -0.1470098562E-06   0.0000000000E+00   0.1061451609E+01
   0.0000000000E+00   0.9988965534E+00   0.1103446630E-02   0.0000000000E+00  -0.1957265527E-04   0.1957265527E-04   0.0000000000E+00  -0.1083873975E-02   0.1083873975E-02   0.1109788596E+01   0.4112877375E-01   0.4112877375E-01   0.7104567374E-02  -0.7104567375E-02  -0.1752364411E-06   0.0000000000E+00   0.1069085194E+01
   0.0000000000E+00   0.1103446630E-02   0.9988965534E+00   0.0000000000E+00   0.1957265527E-04  -0.1957265527E-04   0.0000000000E+00   0.1083873975E-02  -0.1083873975E-02   0.1109788596E+01   0.4112877375E-01   0.4112877375E-01  -0.7104567375E-02   0.7104567374E-02  -0.1752364410E-06   0.0000000000E+00   0.1069085194E+01
   0.1004219753E+01   0.8067633391E-03   0.9991932367E+00   0.4851639297E-04   0.1375394805E-04  -0.1375394805E-04   0.4171236710E-02   0.7930093910E-03  -0.7930093910E-03   0.1075423548E+01   0.1434349080E-01   0.1434349080E-01  -0.6569200710E-02   0.6569200708E-02  -0.1470098562E-06   0.0000000000E+00   0.1061451609E+01
   0.1004219753E+01   0.9991932367E+00   0.9991932367E+00   0.4851639297E-04  -0.1375394805E-04  -0.1375394805E-04   0.4171236710E-02  -0.7930093910E-03  -0.7930093910E-03   0.1075423548E+01   0.1434349080E-01   0.1434349080E-01   0.6569200708E-02   0.6569200708E-02   0.1470099855E-06   0.0000000000E+00   0.1061451609E+01
   0.0000000000E+00   0.9988965534E+00   0.9988965534E+00   0.0000000000E+00  -0.1957265527E-04  -0.1957265527E-04   0.0000000000E+00  -0.1083873975E-02  -0.1083873975E-02   0.1109788596E+01   0.4112877375E-01   0.4112877375E-01   0.7104567374E-02   0.7104567374E-02   0.1752361472E-06   0.0000000000E+00   0.1069085193E+01
   0.2007500000E+01   0.6533708728E-03   0.6533708728E-03   0.1000000000E-03   0.8380238410E-05   0.8380238410E-05   0.7400000000E-02   0.6449906344E-03   0.6449906344E-03   0.1041259621E+01  -0.1254235291E-01  -0.1254235291E-01  -0.6058921596E-02  -0.6058921596E-02   0.1190402391E-06   0.0000000000E+00   0.1054115878E+01
   0.2007500000E+01   0.9993466291E+00   0.6533708728E-03   0.1000000000E-03  -0.8380238410E-05   0.8380238410E-05   0.7400000000E-02  -0.6449906344E-03   0.6449906344E-03   0.1041259621E+01  -0.1254235291E-01  -0.1254235291E-01   0.6058921595E-02  -0.6058921596E-02  -0.1190407649E-06   0.0000000000E+00   0.1054115878E+01
   0.2007500000E+01   0.6533708728E-03   0.9993466291E+00   0.1000000000E-03   0.8380238410E-05  -0.8380238410E-05   0.7400000000E-02   0.6449906344E-03  -0.6449906344E-03   0.1041259621E+01  -0.1254235291E-01  -0.1254235291E-01  -0.6058921596E-02   0.6058921595E-02  -0.1190407649E-06   0.0000000000E+00   0.1054115878E+01
   0.2007500000E+01   0.9993466291E+00   0.9993466291E+00   0.1000000000E-03  -0.8380238410E-05  -0.8380238410E-05   0.7400000000E-02  -0.6449906344E-03  -0.6449906344E-03   0.1041259621E+01  -0.1254235291E-01  -0.1254235291E-01   0.6058921595E-02   0.6058921595E-02   0.1190412906E-06   0.0000000000E+00   0.1054115878E+01
     1     2     3     4     5     6     7     8
     2     9    10     3     6    11    12     7
 VARIABLES = X,Y,Z,DU1,DU2,DU3,U1,U2,U3,S11,S22,S33,S12,S13,S23,Vf,SMISES
 ZONE, T="0.7600D+00" F=FEPOINT, I=   12 J=    2 ET=BRICK
   0.0000000000E+00   0.1123137839E-02   0.1123137839E-02   0.0000000000E+00   0.1969120868E-04   0.1969120868E-04   0.0000000000E+00   0.1103446630E-02   0.1103446630E-02   0.1092143153E+01   0.2279735082E-01   0.2279735082E-01  -0.7402683349E-02  -0.7402683349E-02   0.1786083050E-06   0.0000000000E+00   0.1069807296E+01
   0.1004267999E+01   0.8206398559E-03   0.8206398559E-03   0.4824541428E-04   0.1387651679E-04   0.1387651679E-04   0.4219753103E-02   0.8067633391E-03   0.8067633391E-03   0.1070356769E+01   0.8435488109E-02   0.8435488109E-02  -0.6895497608E-02  -0.6895497608E-02   0.1510579362E-06   0.0000000000E+00   0.1062329438E+01
   0.1004267999E+01   0.9991793601E+00   0.8206398559E-03   0.4824541428E-04  -0.1387651679E-04   0.1387651679E-04   0.4219753103E-02  -0.8067633390E-03   0.8067633391E-03   0.1070356769E+01   0.8435488108E-02   0.8435488109E-02   0.6895497607E-02  -0.6895497608E-02  -0.1510580822E-06   0.0000000000E+00   0.1062329438E+01
   0.0000000000E+00   0.9988768622E+00   0.1123137839E-02   0.0000000000E+00  -0.1969120868E-04   0.1969120868E-04   0.0000000000E+00  -0.1103446630E-02   0.1103446630E-02   0.1092143153E+01   0.2279735082E-01   0.2279735082E-01   0.7402683348E-02  -0.7402683349E-02  -0.1786080669E-06   0.0000000000E+00   0.1069807296E+01
   0.0000000000E+00   0.1123137839E-02   0.9988768622E+00   0.0000000000E+00   0.1969120868E-04  -0.1969120868E-04   0.0000000000E+00   0.1103446630E-02  -0.1103446630E-02   0.1092143153E+01   0.2279735082E-01   0.2279735082E-01  -0.7402683349E-02   0.7402683348E-02  -0.1786080669E-06   0.0000000000E+00   0.1069807296E+01
   0.1004267999E+01   0.8206398559E-03   0.9991793601E+00   0.4824541428E-04   0.1387651679E-04  -0.1387651679E-04   0.4219753103E-02   0.8067633391E-03  -0.8067633390E-03   0.1070356769E+01   0.8435488109E-02   0.8435488108E-02  -0.6895497608E-02   0.6895497607E-02  -0.1510580822E-06   0.0000000000E+00   0.1062329438E+01
   0.1004267999E+01   0.9991793601E+00   0.9991793601E+00   0.4824541428E-04  -0.1387651679E-04  -0.1387651679E-04   0.4219753103E-02  -0.8067633390E-03  -0.8067633390E-03   0.1070356769E+01   0.8435488108E-02   0.8435488108E-02   0.6895497607E-02   0.6895497607E-02   0.1510582283E-06   0.0000000000E+00   0.1062329438E+01
   0.0000000000E+00   0.9988768622E+00   0.9988768622E+00   0.0000000000E+00  -0.1969120868E-04  -0.1969120868E-04   0.0000000000E+00  -0.1103446630E-02  -0.1103446630E-02   0.1092143153E+01   0.2279735082E-01   0.2279735082E-01   0.7402683348E-02   0.7402683348E-02   0.1786078287E-06   0.0000000000E+00   0.1069807296E+01
   0.2007600000E+01   0.6618256259E-03   0.6618256259E-03   0.1000000000E-03   0.8454753123E-05   0.8454753123E-05   0.7500000000E-02   0.6533708728E-03   0.6533708728E-03   0.1048709542E+01  -0.5995953400E-02  -0.5995953400E-02  -0.6409683260E-02  -0.6409683260E-02   0.1236638108E-06   0.0000000000E+00   0.1055056441E+01
   0.2007600000E+01   0.9993381744E+00   0.6618256259E-03   0.1000000000E-03  -0.8454753122E-05   0.8454753123E-05   0.7500000000E-02  -0.6533708728E-03   0.6533708728E-03   0.1048709542E+01  -0.5995953400E-02  -0.5995953399E-02   0.6409683259E-02  -0.6409683260E-02  -0.1236643118E-06   0.0000000000E+00   0.1055056441E+01
   0.2007600000E+01   0.6618256259E-03   0.9993381744E+00   0.1000000000E-03   0.8454753123E-05  -0.8454753122E-05   0.7500000000E-02   0.6533708728E-03  -0.6533708728E-03   0.1048709542E+01  -0.5995953399E-02  -0.5995953400E-02  -0.6409683260E-02   0.6409683259E-02  -0.1236643118E-06   0.0000000000E+00   0.1055056441E+01
   0.2007600000E+01   0.9993381744E+00   0.9993381744E+00   0.1000000000E-03  -0.8454753122E-05  -0.8454753122E-05   0.7500000000E-02  -0.6533708728E-03  -0.6533708728E-03   0.1048709542E+01  -0.5995953399E-02  -0.5995953399E-02   0.6409683259E-02   0.6409683259E-02   0.1236648128E-06   0.0000000000E+00   0.1055056441E+01
     1     2     3     4     5     6     7     8
     2     9    10     3     6    11    12     7
 VARIABLES = X,Y,Z,DU1,DU2,DU3,U1,U2,U3,S11,S22,S33,S12,S13,S23,Vf,SMISES
 ZONE, T="0.7700D+00" F=FEPOINT, I=   12 J=    2 ET=BRICK
   0.0000000000E+00   0.1142555564E-02   0.1142555564E-02   0.0000000000E+00   0.1941772512E-04   0.1941772512E-04   0.0000000000E+00   0.1123137839E-02   0.1123137839E-02   0.1073554385E+01   0.3823542785E-02   0.3823542785E-02  -0.7682226849E-02  -0.7682226849E-02   0.1822903244E-06   0.0000000000E+00   0.1070227645E+01
   0.1004316235E+01   0.8345091533E-03   0.8345091533E-03   0.4823648691E-04   0.1386929741E-04   0.1386929741E-04   0.4267998517E-02   0.8206398559E-03   0.8206398559E-03   0.1064703217E+01   0.2169535716E-02   0.2169535716E-02  -0.7205545987E-02  -0.7205545987E-02   0.1554742167E-06   0.0000000000E+00   0.1062978297E+01
   0.1004316235E+01   0.9991654908E+00   0.8345091533E-03   0.4823648691E-04  -0.1386929741E-04   0.1386929741E-04   0.4267998517E-02  -0.8206398558E-03   0.8206398559E-03   0.1064703217E+01   0.2169535716E-02   0.2169535716E-02   0.7205545985E-02  -0.7205545987E-02  -0.1554743781E-06   0.0000000000E+00   0.1062978297E+01
   0.0000000000E+00   0.9988574444E+00   0.1142555564E-02   0.0000000000E+00  -0.1941772512E-04   0.1941772512E-04   0.0000000000E+00  -0.1123137839E-02   0.1123137839E-02   0.1073554385E+01   0.3823542785E-02   0.3823542784E-02   0.7682226848E-02  -0.7682226849E-02  -0.1822901412E-06   0.0000000000E+00   0.1070227645E+01
   0.0000000000E+00   0.1142555564E-02   0.9988574444E+00   0.0000000000E+00   0.1941772512E-04  -0.1941772512E-04   0.0000000000E+00   0.1123137839E-02  -0.1123137839E-02   0.1073554385E+01   0.3823542784E-02   0.3823542785E-02  -0.7682226849E-02   0.7682226848E-02  -0.1822901412E-06   0.0000000000E+00   0.1070227645E+01
   0.1004316235E+01   0.8345091533E-03   0.9991654908E+00   0.4823648691E-04   0.1386929741E-04  -0.1386929741E-04   0.4267998517E-02   0.8206398559E-03  -0.8206398558E-03   0.1064703217E+01   0.2169535716E-02   0.2169535716E-02  -0.7205545987E-02   0.7205545985E-02  -0.1554743780E-06   0.0000000000E+00   0.1062978297E+01
   0.1004316235E+01   0.9991654908E+00   0.9991654908E+00   0.4823648691E-04  -0.1386929741E-04  -0.1386929741E-04   0.4267998517E-02  -0.8206398558E-03  -0.8206398558E-03   0.1064703217E+01   0.2169535716E-02   0.2169535716E-02   0.7205545985E-02   0.7205545985E-02   0.1554745394E-06   0.0000000000E+00   0.1062978297E+01
   0.0000000000E+00   0.9988574444E+00   0.9988574444E+00   0.0000000000E+00  -0.1941772512E-04  -0.1941772512E-04   0.0000000000E+00  -0.1123137839E-02  -0.1123137839E-02   0.1073554385E+01   0.3823542784E-02   0.3823542784E-02   0.7682226848E-02   0.7682226848E-02   0.1822899580E-06   0.0000000000E+00   0.1070227645E+01
   0.2007700000E+01   0.6704902382E-03   0.6704902382E-03   0.1000000000E-03   0.8664612263E-05   0.8664612263E-05   0.7600000000E-02   0.6618256259E-03   0.6618256259E-03   0.1055941273E+01   0.4709168298E-03   0.4709168298E-03  -0.6746732944E-02  -0.6746732944E-02   0.1287104217E-06   0.0000000000E+00   0.1055858850E+01
   0.2007700000E+01   0.9993295098E+00   0.6704902382E-03   0.1000000000E-03  -0.8664612262E-05   0.8664612263E-05   0.7600000000E-02  -0.6618256259E-03   0.6618256259E-03   0.1055941273E+01   0.4709168293E-03   0.4709168303E-03   0.6746732943E-02  -0.6746732944E-02  -0.1287108957E-06   0.0000000000E+00   0.1055858850E+01
   0.2007700000E+01   0.6704902382E-03   0.9993295098E+00   0.1000000000E-03   0.8664612263E-05  -0.8664612262E-05   0.7600000000E-02   0.6618256259E-03  -0.6618256259E-03   0.1055941273E+01   0.4709168303E-03   0.4709168293E-03  -0.6746732944E-02   0.6746732943E-02  -0.1287108957E-06   0.0000000000E+00   0.1055858850E+01
   0.2007700000E+01   0.9993295098E+00   0.9993295098E+00   0.1000000000E-03  -0.8664612263E-05  -0.8664612263E-05   0.7600000000E-02  -0.6618256259E-03  -0.6618256259E-03   0.1055941273E+01   0.4709168298E-03   0.4709168298E-03   0.6746732943E-02   0.6746732943E-02   0.1287113697E-06   0.0000000000E+00   0.1055858850E+01
     1     2     3     4     5     6     7     8
     2     9    10     3     6    11    12     7
 VARIABLES = X,Y,Z,DU1,DU2,DU3,U1,U2,U3,S11,S22,S33,S12,S13,S23,Vf,SMISES
 ZONE, T="0.7800D+00" F=FEPOINT, I=   12 J=    2 ET=BRICK
   0.0000000000E+00   0.1161334957E-02   0.1161334957E-02   0.0000000000E+00   0.1877939330E-04   0.1877939330E-04   0.0000000000E+00   0.1142555564E-02   0.1142555564E-02   0.1055279351E+01  -0.1449973951E-01  -0.1449973951E-01  -0.7914558748E-02  -0.7914558748E-02   0.1856304197E-06   0.0000000000E+00   0.1070306351E+01
   0.1004364707E+01   0.8482498004E-03   0.8482498004E-03   0.4847249449E-04   0.1374064714E-04   0.1374064714E-04   0.4316235004E-02   0.8345091533E-03   0.8345091533E-03   0.1058948982E+01  -0.3936980641E-02  -0.3936980641E-02  -0.7469663883E-02  -0.7469663883E-02   0.1596332955E-06   0.0000000000E+00   0.1063362914E+01
   0.1004364707E+01   0.9991517502E+00   0.8482498004E-03   0.4847249449E-04  -0.1374064714E-04   0.1374064714E-04   0.4316235004E-02  -0.8345091532E-03   0.8345091533E-03   0.1058948982E+01  -0.3936980641E-02  -0.3936980640E-02   0.7469663882E-02  -0.7469663883E-02  -0.1596334696E-06   0.0000000000E+00   0.1063362914E+01
   0.0000000000E+00   0.9988386650E+00   0.1161334957E-02   0.0000000000E+00  -0.1877939330E-04   0.1877939330E-04   0.0000000000E+00  -0.1142555564E-02   0.1142555564E-02   0.1055279351E+01  -0.1449973951E-01  -0.1449973951E-01   0.7914558747E-02  -0.7914558747E-02  -0.1856302875E-06   0.0000000000E+00   0.1070306351E+01
   0.0000000000E+00   0.1161334957E-02   0.9988386650E+00   0.0000000000E+00   0.1877939330E-04  -0.1877939330E-04   0.0000000000E+00   0.1142555564E-02  -0.1142555564E-02   0.1055279351E+01  -0.1449973951E-01  -0.1449973951E-01  -0.7914558747E-02   0.7914558747E-02  -0.1856302874E-06   0.0000000000E+00   0.1070306351E+01
   0.1004364707E+01   0.8482498004E-03   0.9991517502E+00   0.4847249449E-04   0.1374064714E-04  -0.1374064714E-04   0.4316235004E-02   0.8345091533E-03  -0.8345091532E-03   0.1058948982E+01  -0.3936980640E-02  -0.3936980641E-02  -0.7469663883E-02   0.7469663882E-02  -0.1596334696E-06   0.0000000000E+00   0.1063362914E+01
   0.1004364707E+01   0.9991517502E+00   0.9991517502E+00   0.4847249449E-04  -0.1374064714E-04  -0.1374064714E-04   0.4316235004E-02  -0.8345091532E-03  -0.8345091532E-03   0.1058948982E+01  -0.3936980640E-02  -0.3936980640E-02   0.7469663882E-02   0.7469663882E-02   0.1596336437E-06   0.0000000000E+00   0.1063362914E+01
   0.0000000000E+00   0.9988386650E+00   0.9988386650E+00   0.0000000000E+00  -0.1877939330E-04  -0.1877939330E-04   0.0000000000E+00  -0.1142555564E-02  -0.1142555564E-02   0.1055279350E+01  -0.1449973951E-01  -0.1449973951E-01   0.7914558747E-02   0.7914558747E-02   0.1856301552E-06   0.0000000000E+00   0.1070306351E+01
   0.2007800000E+01   0.6794895117E-03   0.6794895117E-03   0.1000000000E-03   0.8999273455E-05   0.8999273455E-05   0.7700000000E-02   0.6704902382E-03   0.6704902382E-03   0.1062670154E+01   0.6600007958E-02   0.6600007958E-02  -0.7039487619E-02  -0.7039487619E-02   0.1335873072E-06   0.0000000000E+00   0.1056492806E+01
   0.2007800000E+01   0.9993205105E+00   0.6794895117E-03   0.1000000000E-03  -0.8999273454E-05   0.8999273455E-05   0.7700000000E-02  -0.6704902382E-03   0.6704902382E-03   0.1062670154E+01   0.6600007958E-02   0.6600007958E-02   0.7039487618E-02  -0.7039487619E-02  -0.1335877528E-06   0.0000000000E+00   0.1056492806E+01
   0.2007800000E+01   0.6794895117E-03   0.9993205105E+00   0.1000000000E-03   0.8999273455E-05  -0.8999273454E-05   0.7700000000E-02   0.6704902382E-03  -0.6704902382E-03   0.1062670154E+01   0.6600007958E-02   0.6600007958E-02  -0.7039487619E-02   0.7039487618E-02  -0.1335877528E-06   0.0000000000E+00   0.1056492806E+01
   0.2007800000E+01   0.9993205105E+00   0.9993205105E+00   0.1000000000E-03  -0.8999273454E-05  -0.8999273454E-05   0.7700000000E-02  -0.6704902381E-03  -0.6704902381E-03   0.1062670154E+01   0.6600007958E-02   0.6600007958E-02   0.7039487618E-02   0.7039487618E-02   0.1335881984E-06   0.0000000000E+00   0.1056492806E+01
     1     2     3     4     5     6     7     8
     2     9    10     3     6    11    12     7
 VARIABLES = X,Y,Z,DU1,DU2,DU3,U1,U2,U3,S11,S22,S33,S12,S13,S23,Vf,SMISES
 ZONE, T="0.7900D+00" F=FEPOINT, I=   12 J=    2 ET=BRICK
   0.0000000000E+00   0.1179161861E-02   0.1179161861E-02   0.0000000000E+00   0.1782690384E-04   0.1782690384E-04   0.0000000000E+00   0.1161334957E-02   0.1161334957E-02   0.1038506746E+01  -0.3097509341E-01  -0.3097509341E-01  -0.8075033305E-02  -0.8075033305E-02   0.1879525622E-06   0.0000000000E+00   0.1070030836E+01
   0.1004413630E+01   0.8617579003E-03   0.8617579003E-03   0.4892250728E-04   0.1350809985E-04   0.1350809985E-04   0.4364707499E-02   0.8482498004E-03   0.8482498004E-03   0.1053562406E+01  -0.9406846960E-02  -0.9406846960E-02  -0.7662143312E-02  -0.7662143312E-02   0.1628707194E-06   0.0000000000E+00   0.1063470490E+01
   0.1004413630E+01   0.9991382421E+00   0.8617579003E-03   0.4892250728E-04  -0.1350809985E-04   0.1350809985E-04   0.4364707499E-02  -0.8482498004E-03   0.8482498004E-03   0.1053562406E+01  -0.9406846960E-02  -0.9406846959E-02   0.7662143311E-02  -0.7662143312E-02  -0.1628709025E-06   0.0000000000E+00   0.1063470490E+01
   0.0000000000E+00   0.9988208381E+00   0.1179161861E-02   0.0000000000E+00  -0.1782690384E-04   0.1782690384E-04   0.0000000000E+00  -0.1161334957E-02   0.1161334957E-02   0.1038506746E+01  -0.3097509341E-01  -0.3097509341E-01   0.8075033304E-02  -0.8075033304E-02  -0.1879524743E-06   0.0000000000E+00   0.1070030836E+01
   0.0000000000E+00   0.1179161861E-02   0.9988208381E+00   0.0000000000E+00   0.1782690384E-04  -0.1782690384E-04   0.0000000000E+00   0.1161334957E-02  -0.1161334957E-02   0.1038506746E+01  -0.3097509341E-01  -0.3097509341E-01  -0.8075033304E-02   0.8075033304E-02  -0.1879524743E-06   0.0000000000E+00   0.1070030836E+01
   0.1004413630E+01   0.8617579003E-03   0.9991382421E+00   0.4892250728E-04   0.1350809985E-04  -0.1350809985E-04   0.4364707499E-02   0.8482498004E-03  -0.8482498004E-03   0.1053562406E+01  -0.9406846959E-02  -0.9406846960E-02  -0.7662143312E-02   0.7662143311E-02  -0.1628709025E-06   0.0000000000E+00   0.1063470490E+01
   0.1004413630E+01   0.9991382421E+00   0.9991382421E+00   0.4892250728E-04  -0.1350809985E-04  -0.1350809985E-04   0.4364707499E-02  -0.8482498004E-03  -0.8482498004E-03   0.1053562406E+01  -0.9406846959E-02  -0.9406846959E-02   0.7662143311E-02   0.7662143311E-02   0.1628710856E-06   0.0000000000E+00   0.1063470490E+01
   0.0000000000E+00   0.9988208381E+00   0.9988208381E+00   0.0000000000E+00  -0.1782690384E-04  -0.1782690384E-04   0.0000000000E+00  -0.1161334957E-02  -0.1161334957E-02   0.1038506746E+01  -0.3097509341E-01  -0.3097509341E-01   0.8075033304E-02   0.8075033304E-02   0.1879523863E-06   0.0000000000E+00   0.1070030836E+01
   0.2007900000E+01   0.6889325172E-03   0.6889325172E-03   0.1000000000E-03   0.9443005585E-05   0.9443005585E-05   0.7800000000E-02   0.6794895117E-03   0.6794895117E-03   0.1068643469E+01   0.1214869741E-01   0.1214869741E-01  -0.7261278512E-02  -0.7261278512E-02   0.1376475678E-06   0.0000000000E+00   0.1056944270E+01
   0.2007900000E+01   0.9993110675E+00   0.6889325172E-03   0.1000000000E-03  -0.9443005584E-05   0.9443005585E-05   0.7800000000E-02  -0.6794895116E-03   0.6794895117E-03   0.1068643469E+01   0.1214869741E-01   0.1214869741E-01   0.7261278511E-02  -0.7261278511E-02  -0.1376479842E-06   0.0000000000E+00   0.1056944270E+01
   0.2007900000E+01   0.6889325172E-03   0.9993110675E+00   0.1000000000E-03   0.9443005585E-05  -0.9443005584E-05   0.7800000000E-02   0.6794895117E-03  -0.6794895116E-03   0.1068643469E+01   0.1214869741E-01   0.1214869741E-01  -0.7261278511E-02   0.7261278511E-02  -0.1376479842E-06   0.0000000000E+00   0.1056944270E+01
   0.2007900000E+01   0.9993110675E+00   0.9993110675E+00   0.1000000000E-03  -0.9443005584E-05  -0.9443005584E-05   0.7800000000E-02  -0.6794895116E-03  -0.6794895116E-03   0.1068643469E+01   0.1214869741E-01   0.1214869741E-01   0.7261278511E-02   0.7261278511E-02   0.1376484006E-06   0.0000000000E+00   0.1056944270E+01
     1     2     3     4     5     6     7     8
     2     9    10     3     6    11    12     7
 VARIABLES = X,Y,Z,DU1,DU2,DU3,U1,U2,U3,S11,S22,S33,S12,S13,S23,Vf,SMISES
 ZONE, T="0.8000D+00" F=FEPOINT, I=   12 J=    2 ET=BRICK
   0.0000000000E+00   0.1195791961E-02   0.1195791961E-02   0.0000000000E+00   0.1663009986E-04   0.1663009986E-04   0.0000000000E+00   0.1179161861E-02   0.1179161861E-02   0.1024278209E+01  -0.4457782143E-01  -0.4457782143E-01  -0.8144266623E-02  -0.8144266623E-02   0.1886373443E-06   0.0000000000E+00   0.1069414797E+01
   0.1004463174E+01   0.8749543907E-03   0.8749543907E-03   0.4954410156E-04   0.1319649040E-04   0.1319649040E-04   0.4413630006E-02   0.8617579003E-03   0.8617579003E-03   0.1048957236E+01  -0.1383862568E-01  -0.1383862568E-01  -0.7762613360E-02  -0.7762613360E-02   0.1645639010E-06   0.0000000000E+00   0.1063309971E+01
   0.1004463174E+01   0.9991250456E+00   0.8749543907E-03   0.4954410156E-04  -0.1319649040E-04   0.1319649040E-04   0.4413630006E-02  -0.8617579002E-03   0.8617579003E-03   0.1048957236E+01  -0.1383862568E-01  -0.1383862568E-01   0.7762613359E-02  -0.7762613359E-02  -0.1645640886E-06   0.0000000000E+00   0.1063309971E+01
   0.0000000000E+00   0.9988042080E+00   0.1195791961E-02   0.0000000000E+00  -0.1663009985E-04   0.1663009985E-04   0.0000000000E+00  -0.1179161861E-02   0.1179161861E-02   0.1024278209E+01  -0.4457782143E-01  -0.4457782143E-01   0.8144266622E-02  -0.8144266623E-02  -0.1886372917E-06   0.0000000000E+00   0.1069414797E+01
   0.0000000000E+00   0.1195791961E-02   0.9988042080E+00   0.0000000000E+00   0.1663009985E-04  -0.1663009985E-04   0.0000000000E+00   0.1179161861E-02  -0.1179161861E-02   0.1024278209E+01  -0.4457782143E-01  -0.4457782143E-01  -0.8144266623E-02   0.8144266622E-02  -0.1886372917E-06   0.0000000000E+00   0.1069414797E+01
   0.1004463174E+01   0.8749543907E-03   0.9991250456E+00   0.4954410156E-04   0.1319649040E-04  -0.1319649040E-04   0.4413630006E-02   0.8617579003E-03  -0.8617579002E-03   0.1048957236E+01  -0.1383862568E-01  -0.1383862568E-01  -0.7762613359E-02   0.7762613359E-02  -0.1645640886E-06   0.0000000000E+00   0.1063309971E+01
   0.1004463174E+01   0.9991250456E+00   0.9991250456E+00   0.4954410157E-04  -0.1319649040E-04  -0.1319649040E-04   0.4413630006E-02  -0.8617579002E-03  -0.8617579002E-03   0.1048957236E+01  -0.1383862568E-01  -0.1383862568E-01   0.7762613358E-02   0.7762613358E-02   0.1645642762E-06   0.0000000000E+00   0.1063309971E+01
   0.0000000000E+00   0.9988042080E+00   0.9988042080E+00   0.0000000000E+00  -0.1663009985E-04  -0.1663009985E-04   0.0000000000E+00  -0.1179161861E-02  -0.1179161861E-02   0.1024278209E+01  -0.4457782143E-01  -0.4457782143E-01   0.8144266622E-02   0.8144266622E-02   0.1886372391E-06   0.0000000000E+00   0.1069414796E+01
   0.2008000000E+01   0.6989080164E-03   0.6989080164E-03   0.1000000000E-03   0.9975499122E-05   0.9975499122E-05   0.7900000000E-02   0.6889325172E-03   0.6889325172E-03   0.1073645687E+01   0.1689585797E-01   0.1689585797E-01  -0.7390804494E-02  -0.7390804494E-02   0.1402710412E-06   0.0000000000E+00   0.1057215370E+01
   0.2008000000E+01   0.9993010920E+00   0.6989080164E-03   0.1000000000E-03  -0.9975499122E-05   0.9975499122E-05   0.7900000000E-02  -0.6889325172E-03   0.6889325172E-03   0.1073645687E+01   0.1689585797E-01   0.1689585797E-01   0.7390804493E-02  -0.7390804493E-02  -0.1402714282E-06   0.0000000000E+00   0.1057215370E+01
   0.2008000000E+01   0.6989080164E-03   0.9993010920E+00   0.1000000000E-03   0.9975499122E-05  -0.9975499122E-05   0.7900000000E-02   0.6889325172E-03  -0.6889325172E-03   0.1073645687E+01   0.1689585797E-01   0.1689585797E-01  -0.7390804493E-02   0.7390804493E-02  -0.1402714282E-06   0.0000000000E+00   0.1057215370E+01
   0.2008000000E+01   0.9993010920E+00   0.9993010920E+00   0.1000000000E-03  -0.9975499122E-05  -0.9975499122E-05   0.7900000000E-02  -0.6889325172E-03  -0.6889325172E-03   0.1073645687E+01   0.1689585797E-01   0.1689585797E-01   0.7390804493E-02   0.7390804493E-02   0.1402718153E-06   0.0000000000E+00   0.1057215370E+01
     1     2     3     4     5     6     7     8
     2     9    10     3     6    11    12     7
 VARIABLES = X,Y,Z,DU1,DU2,DU3,U1,U2,U3,S11,S22,S33,S12,S13,S23,Vf,SMISES
 ZONE, T="0.8100D+00" F=FEPOINT, I=   12 J=    2 ET=BRICK
   0.0000000000E+00   0.1211064475E-02   0.1211064475E-02   0.0000000000E+00   0.1527251408E-04   0.1527251408E-04   0.0000000000E+00   0.1195791961E-02   0.1195791961E-02   0.1013423140E+01  -0.5451816603E-01  -0.5451816603E-01  -0.8109020770E-02  -0.8109020770E-02   0.1872051569E-06   0.0000000000E+00   0.1068495714E+01
   0.1004513460E+01   0.8877899894E-03   0.8877899894E-03   0.5028629355E-04   0.1283559875E-04   0.1283559875E-04   0.4463174108E-02   0.8749543907E-03   0.8749543907E-03   0.1045462223E+01  -0.1693445640E-01  -0.1693445640E-01  -0.7757010144E-02  -0.7757010144E-02   0.1642184350E-06   0.0000000000E+00   0.1062909915E+01
   0.1004513460E+01   0.9991122100E+00   0.8877899894E-03   0.5028629355E-04  -0.1283559875E-04   0.1283559875E-04   0.4463174108E-02  -0.8749543906E-03   0.8749543907E-03   0.1045462223E+01  -0.1693445640E-01  -0.1693445640E-01   0.7757010143E-02  -0.7757010143E-02  -0.1642186221E-06   0.0000000000E+00   0.1062909915E+01
   0.0000000000E+00   0.9987889355E+00   0.1211064475E-02   0.0000000000E+00  -0.1527251408E-04   0.1527251408E-04   0.0000000000E+00  -0.1195791961E-02   0.1195791961E-02   0.1013423140E+01  -0.5451816603E-01  -0.5451816603E-01   0.8109020769E-02  -0.8109020769E-02  -0.1872051293E-06   0.0000000000E+00   0.1068495714E+01
   0.0000000000E+00   0.1211064475E-02   0.9987889355E+00   0.0000000000E+00   0.1527251408E-04  -0.1527251408E-04   0.0000000000E+00   0.1195791961E-02  -0.1195791961E-02   0.1013423140E+01  -0.5451816603E-01  -0.5451816603E-01  -0.8109020769E-02   0.8109020769E-02  -0.1872051292E-06   0.0000000000E+00   0.1068495714E+01
   0.1004513460E+01   0.8877899894E-03   0.9991122100E+00   0.5028629355E-04   0.1283559875E-04  -0.1283559875E-04   0.4463174108E-02   0.8749543907E-03  -0.8749543906E-03   0.1045462223E+01  -0.1693445640E-01  -0.1693445640E-01  -0.7757010143E-02   0.7757010143E-02  -0.1642186221E-06   0.0000000000E+00   0.1062909915E+01
   0.1004513460E+01   0.9991122100E+00   0.9991122100E+00   0.5028629355E-04  -0.1283559875E-04  -0.1283559875E-04   0.4463174108E-02  -0.8749543906E-03  -0.8749543906E-03   0.1045462223E+01  -0.1693445640E-01  -0.1693445640E-01   0.7757010142E-02   0.7757010142E-02   0.1642188093E-06   0.0000000000E+00   0.1062909915E+01
   0.0000000000E+00   0.9987889355E+00   0.9987889355E+00   0.0000000000E+00  -0.1527251408E-04  -0.1527251408E-04   0.0000000000E+00  -0.1195791961E-02  -0.1195791961E-02   0.1013423140E+01  -0.5451816603E-01  -0.5451816603E-01   0.8109020769E-02   0.8109020769E-02   0.1872051017E-06   0.0000000000E+00   0.1068495714E+01
   0.2008100000E+01   0.7094806457E-03   0.7094806457E-03   0.1000000000E-03   0.1057262936E-04   0.1057262936E-04   0.8000000000E-02   0.6989080164E-03   0.6989080164E-03   0.1077503075E+01   0.2064836931E-01   0.2064836931E-01  -0.7413190022E-02  -0.7413190022E-02   0.1409529103E-06   0.0000000000E+00   0.1057323007E+01
   0.2008100000E+01   0.9992905194E+00   0.7094806457E-03   0.1000000000E-03  -0.1057262936E-04   0.1057262936E-04   0.8000000000E-02  -0.6989080163E-03   0.6989080164E-03   0.1077503075E+01   0.2064836931E-01   0.2064836931E-01   0.7413190021E-02  -0.7413190021E-02  -0.1409532685E-06   0.0000000000E+00   0.1057323006E+01
   0.2008100000E+01   0.7094806457E-03   0.9992905194E+00   0.1000000000E-03   0.1057262936E-04  -0.1057262936E-04   0.8000000000E-02   0.6989080164E-03  -0.6989080163E-03   0.1077503075E+01   0.2064836931E-01   0.2064836931E-01  -0.7413190021E-02   0.7413190021E-02  -0.1409532685E-06   0.0000000000E+00   0.1057323006E+01
   0.2008100000E+01   0.9992905194E+00   0.9992905194E+00   0.1000000000E-03  -0.1057262936E-04  -0.1057262936E-04   0.8000000000E-02  -0.6989080163E-03  -0.6989080163E-03   0.1077503075E+01   0.2064836931E-01   0.2064836931E-01   0.7413190021E-02   0.7413190021E-02   0.1409536266E-06   0.0000000000E+00   0.1057323006E+01
     1     2     3     4     5     6     7     8
     2     9    10     3     6    11    12     7
 VARIABLES = X,Y,Z,DU1,DU2,DU3,U1,U2,U3,S11,S22,S33,S12,S13,S23,Vf,SMISES
 ZONE, T="0.8200D+00" F=FEPOINT, I=   12 J=    2 ET=BRICK
   0.0000000000E+00   0.1224909684E-02   0.1224909684E-02   0.0000000000E+00   0.1384520887E-04   0.1384520887E-04   0.0000000000E+00   0.1211064475E-02   0.1211064475E-02   0.1006511052E+01  -0.6028497739E-01  -0.6028497739E-01  -0.7962698132E-02  -0.7962698132E-02   0.1833848696E-06   0.0000000000E+00   0.1067331183E+01
   0.1004564553E+01   0.9002475127E-03   0.9002475127E-03   0.5109289071E-04   0.1245752327E-04   0.1245752327E-04   0.4513460401E-02   0.8877899894E-03   0.8877899894E-03   0.1043299293E+01  -0.1851829058E-01  -0.1851829058E-01  -0.7638136264E-02  -0.7638136264E-02   0.1615412318E-06   0.0000000000E+00   0.1062315264E+01
   0.1004564553E+01   0.9990997525E+00   0.9002475127E-03   0.5109289071E-04  -0.1245752327E-04   0.1245752327E-04   0.4513460401E-02  -0.8877899894E-03   0.8877899894E-03   0.1043299293E+01  -0.1851829058E-01  -0.1851829058E-01   0.7638136263E-02  -0.7638136264E-02  -0.1615414134E-06   0.0000000000E+00   0.1062315264E+01
   0.0000000000E+00   0.9987750903E+00   0.1224909684E-02   0.0000000000E+00  -0.1384520886E-04   0.1384520887E-04   0.0000000000E+00  -0.1211064475E-02   0.1211064475E-02   0.1006511052E+01  -0.6028497739E-01  -0.6028497739E-01   0.7962698132E-02  -0.7962698132E-02  -0.1833848560E-06   0.0000000000E+00   0.1067331183E+01
   0.0000000000E+00   0.1224909684E-02   0.9987750903E+00   0.0000000000E+00   0.1384520887E-04  -0.1384520886E-04   0.0000000000E+00   0.1211064475E-02  -0.1211064475E-02   0.1006511052E+01  -0.6028497739E-01  -0.6028497739E-01  -0.7962698132E-02   0.7962698132E-02  -0.1833848559E-06   0.0000000000E+00   0.1067331183E+01
   0.1004564553E+01   0.9002475127E-03   0.9990997525E+00   0.5109289071E-04   0.1245752327E-04  -0.1245752327E-04   0.4513460401E-02   0.8877899894E-03  -0.8877899894E-03   0.1043299293E+01  -0.1851829058E-01  -0.1851829058E-01  -0.7638136264E-02   0.7638136263E-02  -0.1615414134E-06   0.0000000000E+00   0.1062315264E+01
   0.1004564553E+01   0.9990997525E+00   0.9990997525E+00   0.5109289071E-04  -0.1245752327E-04  -0.1245752327E-04   0.4513460401E-02  -0.8877899894E-03  -0.8877899894E-03   0.1043299293E+01  -0.1851829058E-01  -0.1851829058E-01   0.7638136263E-02   0.7638136263E-02   0.1615415951E-06   0.0000000000E+00   0.1062315264E+01
   0.0000000000E+00   0.9987750903E+00   0.9987750903E+00   0.0000000000E+00  -0.1384520886E-04  -0.1384520886E-04   0.0000000000E+00  -0.1211064475E-02  -0.1211064475E-02   0.1006511052E+01  -0.6028497739E-01  -0.6028497739E-01   0.7962698132E-02   0.7962698132E-02   0.1833848423E-06   0.0000000000E+00   0.1067331183E+01
   0.2008200000E+01   0.7206880206E-03   0.7206880206E-03   0.1000000000E-03   0.1120737488E-04   0.1120737488E-04   0.8100000000E-02   0.7094806457E-03   0.7094806457E-03   0.1080087915E+01   0.2324820545E-01   0.2324820545E-01  -0.7320616363E-02  -0.7320616363E-02   0.1393807164E-06   0.0000000000E+00   0.1057296385E+01
   0.2008200000E+01   0.9992793120E+00   0.7206880206E-03   0.1000000000E-03  -0.1120737488E-04   0.1120737488E-04   0.8100000000E-02  -0.7094806457E-03   0.7094806457E-03   0.1080087915E+01   0.2324820544E-01   0.2324820544E-01   0.7320616363E-02  -0.7320616363E-02  -0.1393810465E-06   0.0000000000E+00   0.1057296385E+01
   0.2008200000E+01   0.7206880206E-03   0.9992793120E+00   0.1000000000E-03   0.1120737488E-04  -0.1120737488E-04   0.8100000000E-02   0.7094806457E-03  -0.7094806457E-03   0.1080087915E+01   0.2324820544E-01   0.2324820544E-01  -0.7320616363E-02   0.7320616363E-02  -0.1393810465E-06   0.0000000000E+00   0.1057296385E+01
   0.2008200000E+01   0.9992793120E+00   0.9992793120E+00   0.1000000000E-03  -0.1120737488E-04  -0.1120737488E-04   0.8100000000E-02  -0.7094806457E-03  -0.7094806457E-03   0.1080087915E+01   0.2324820544E-01   0.2324820544E-01   0.7320616363E-02   0.7320616363E-02   0.1393813765E-06   0.0000000000E+00   0.1057296385E+01
     1     2     3     4     5     6     7     8
     2     9    10     3     6    11    12     7
 VARIABLES = X,Y,Z,DU1,DU2,DU3,U1,U2,U3,S11,S22,S33,S12,S13,S23,Vf,SMISES
 ZONE, T="0.8300D+00" F=FEPOINT, I=   12 J=    2 ET=BRICK
   0.0000000000E+00   0.1237350049E-02   0.1237350049E-02   0.0000000000E+00   0.1244036542E-04   0.1244036542E-04   0.0000000000E+00   0.1224909684E-02   0.1224909684E-02   0.1003823970E+01  -0.6166860095E-01  -0.6166860095E-01  -0.7705459779E-02  -0.7705459779E-02   0.1771536645E-06   0.0000000000E+00   0.1065994322E+01
   0.1004616459E+01   0.9123415169E-03   0.9123415169E-03   0.5190604494E-04   0.1209400420E-04   0.1209400420E-04   0.4564553292E-02   0.9002475127E-03   0.9002475127E-03   0.1042571597E+01  -0.1854360290E-01  -0.1854360290E-01  -0.7405815100E-02  -0.7405815100E-02   0.1564849086E-06   0.0000000000E+00   0.1061583253E+01
   0.1004616459E+01   0.9990876585E+00   0.9123415169E-03   0.5190604494E-04  -0.1209400420E-04   0.1209400420E-04   0.4564553292E-02  -0.9002475126E-03   0.9002475127E-03   0.1042571597E+01  -0.1854360290E-01  -0.1854360290E-01   0.7405815099E-02  -0.7405815100E-02  -0.1564850798E-06   0.0000000000E+00   0.1061583253E+01
   0.0000000000E+00   0.9987626500E+00   0.1237350049E-02   0.0000000000E+00  -0.1244036542E-04   0.1244036542E-04   0.0000000000E+00  -0.1224909684E-02   0.1224909684E-02   0.1003823970E+01  -0.6166860095E-01  -0.6166860095E-01   0.7705459779E-02  -0.7705459779E-02  -0.1771536538E-06   0.0000000000E+00   0.1065994322E+01
   0.0000000000E+00   0.1237350049E-02   0.9987626500E+00   0.0000000000E+00   0.1244036542E-04  -0.1244036542E-04   0.0000000000E+00   0.1224909684E-02  -0.1224909684E-02   0.1003823970E+01  -0.6166860095E-01  -0.6166860095E-01  -0.7705459779E-02   0.7705459779E-02  -0.1771536538E-06   0.0000000000E+00   0.1065994322E+01
   0.1004616459E+01   0.9123415169E-03   0.9990876585E+00   0.5190604494E-04   0.1209400420E-04  -0.1209400420E-04   0.4564553292E-02   0.9002475127E-03  -0.9002475126E-03   0.1042571597E+01  -0.1854360290E-01  -0.1854360290E-01  -0.7405815100E-02   0.7405815099E-02  -0.1564850798E-06   0.0000000000E+00   0.1061583253E+01
   0.1004616459E+01   0.9990876585E+00   0.9990876585E+00   0.5190604494E-04  -0.1209400420E-04  -0.1209400420E-04   0.4564553292E-02  -0.9002475126E-03  -0.9002475126E-03   0.1042571597E+01  -0.1854360290E-01  -0.1854360290E-01   0.7405815099E-02   0.7405815099E-02   0.1564852511E-06   0.0000000000E+00   0.1061583253E+01
   0.0000000000E+00   0.9987626500E+00   0.9987626500E+00   0.0000000000E+00  -0.1244036542E-04  -0.1244036542E-04   0.0000000000E+00  -0.1224909684E-02  -0.1224909684E-02   0.1003823970E+01  -0.6166860095E-01  -0.6166860095E-01   0.7705459778E-02   0.7705459778E-02   0.1771536432E-06   0.0000000000E+00   0.1065994322E+01
   0.2008300000E+01   0.7325389063E-03   0.7325389063E-03   0.1000000000E-03   0.1185088566E-04   0.1185088566E-04   0.8200000000E-02   0.7206880206E-03   0.7206880206E-03   0.1081322403E+01   0.2457980556E-01   0.2457980556E-01  -0.7112520820E-02  -0.7112520820E-02   0.1354830853E-06   0.0000000000E+00   0.1057173717E+01
   0.2008300000E+01   0.9992674611E+00   0.7325389063E-03   0.1000000000E-03  -0.1185088566E-04   0.1185088566E-04   0.8200000000E-02  -0.7206880206E-03   0.7206880206E-03   0.1081322403E+01   0.2457980556E-01   0.2457980556E-01   0.7112520820E-02  -0.7112520820E-02  -0.1354833886E-06   0.0000000000E+00   0.1057173717E+01
   0.2008300000E+01   0.7325389063E-03   0.9992674611E+00   0.1000000000E-03   0.1185088566E-04  -0.1185088566E-04   0.8200000000E-02   0.7206880206E-03  -0.7206880206E-03   0.1081322403E+01   0.2457980556E-01   0.2457980556E-01  -0.7112520820E-02   0.7112520820E-02  -0.1354833886E-06   0.0000000000E+00   0.1057173717E+01
   0.2008300000E+01   0.9992674611E+00   0.9992674611E+00   0.1000000000E-03  -0.1185088566E-04  -0.1185088566E-04   0.8200000000E-02  -0.7206880205E-03  -0.7206880205E-03   0.1081322403E+01   0.2457980556E-01   0.2457980556E-01   0.7112520819E-02   0.7112520819E-02   0.1354836918E-06   0.0000000000E+00   0.1057173717E+01
     1     2     3     4     5     6     7     8
     2     9    10     3     6    11    12     7
 VARIABLES = X,Y,Z,DU1,DU2,DU3,U1,U2,U3,S11,S22,S33,S12,S13,S23,Vf,SMISES
 ZONE, T="0.8400D+00" F=FEPOINT, I=   12 J=    2 ET=BRICK
   0.0000000000E+00   0.1248495117E-02   0.1248495117E-02   0.0000000000E+00   0.1114506778E-04   0.1114506778E-04   0.0000000000E+00   0.1237350049E-02   0.1237350049E-02   0.1005349807E+01  -0.5876226800E-01  -0.5876226800E-01  -0.7343991792E-02  -0.7343991792E-02   0.1687396929E-06   0.0000000000E+00   0.1064568454E+01
   0.1004669129E+01   0.9241154287E-03   0.9241154287E-03   0.5266978684E-04   0.1177391185E-04   0.1177391185E-04   0.4616459337E-02   0.9123415169E-03   0.9123415169E-03   0.1043261819E+01  -0.1709047037E-01  -0.1709047037E-01  -0.7066660368E-02  -0.7066660368E-02   0.1492540923E-06   0.0000000000E+00   0.1060778717E+01
   0.1004669129E+01   0.9990758846E+00   0.9241154287E-03   0.5266978684E-04  -0.1177391185E-04   0.1177391185E-04   0.4616459337E-02  -0.9123415168E-03   0.9123415169E-03   0.1043261819E+01  -0.1709047037E-01  -0.1709047037E-01   0.7066660368E-02  -0.7066660368E-02  -0.1492542488E-06   0.0000000000E+00   0.1060778717E+01
   0.0000000000E+00   0.9987515049E+00   0.1248495117E-02   0.0000000000E+00  -0.1114506778E-04   0.1114506778E-04   0.0000000000E+00  -0.1237350049E-02   0.1237350049E-02   0.1005349807E+01  -0.5876226799E-01  -0.5876226799E-01   0.7343991791E-02  -0.7343991792E-02  -0.1687396751E-06   0.0000000000E+00   0.1064568454E+01
   0.0000000000E+00   0.1248495117E-02   0.9987515049E+00   0.0000000000E+00   0.1114506778E-04  -0.1114506778E-04   0.0000000000E+00   0.1237350049E-02  -0.1237350049E-02   0.1005349807E+01  -0.5876226799E-01  -0.5876226799E-01  -0.7343991792E-02   0.7343991791E-02  -0.1687396751E-06   0.0000000000E+00   0.1064568454E+01
   0.1004669129E+01   0.9241154287E-03   0.9990758846E+00   0.5266978684E-04   0.1177391185E-04  -0.1177391185E-04   0.4616459337E-02   0.9123415169E-03  -0.9123415168E-03   0.1043261819E+01  -0.1709047037E-01  -0.1709047037E-01  -0.7066660368E-02   0.7066660368E-02  -0.1492542488E-06   0.0000000000E+00   0.1060778717E+01
   0.1004669129E+01   0.9990758846E+00   0.9990758846E+00   0.5266978684E-04  -0.1177391185E-04  -0.1177391185E-04   0.4616459337E-02  -0.9123415168E-03  -0.9123415168E-03   0.1043261818E+01  -0.1709047037E-01  -0.1709047037E-01   0.7066660368E-02   0.7066660368E-02   0.1492544053E-06   0.0000000000E+00   0.1060778717E+01
   0.0000000000E+00   0.9987515049E+00   0.9987515049E+00   0.0000000000E+00  -0.1114506778E-04  -0.1114506778E-04   0.0000000000E+00  -0.1237350049E-02  -0.1237350049E-02   0.1005349807E+01  -0.5876226799E-01  -0.5876226799E-01   0.7343991791E-02   0.7343991791E-02   0.1687396573E-06   0.0000000000E+00   0.1064568454E+01
   0.2008400000E+01   0.7450125903E-03   0.7450125903E-03   0.1000000000E-03   0.1247368404E-04   0.1247368404E-04   0.8300000000E-02   0.7325389063E-03   0.7325389063E-03   0.1081182023E+01   0.2457723057E-01   0.2457723057E-01  -0.6795378829E-02  -0.6795378829E-02   0.1294397957E-06   0.0000000000E+00   0.1056998378E+01
   0.2008400000E+01   0.9992549874E+00   0.7450125903E-03   0.1000000000E-03  -0.1247368404E-04   0.1247368404E-04   0.8300000000E-02  -0.7325389062E-03   0.7325389063E-03   0.1081182023E+01   0.2457723057E-01   0.2457723057E-01   0.6795378829E-02  -0.6795378828E-02  -0.1294400736E-06   0.0000000000E+00   0.1056998378E+01
   0.2008400000E+01   0.7450125903E-03   0.9992549874E+00   0.1000000000E-03   0.1247368404E-04  -0.1247368404E-04   0.8300000000E-02   0.7325389063E-03  -0.7325389062E-03   0.1081182023E+01   0.2457723057E-01   0.2457723057E-01  -0.6795378828E-02   0.6795378829E-02  -0.1294400736E-06   0.0000000000E+00   0.1056998378E+01
   0.2008400000E+01   0.9992549874E+00   0.9992549874E+00   0.1000000000E-03  -0.1247368404E-04  -0.1247368404E-04   0.8300000000E-02  -0.7325389062E-03  -0.7325389062E-03   0.1081182023E+01   0.2457723057E-01   0.2457723057E-01   0.6795378828E-02   0.6795378828E-02   0.1294403515E-06   0.0000000000E+00   0.1056998378E+01
     1     2     3     4     5     6     7     8
     2     9    10     3     6    11    12     7
 VARIABLES = X,Y,Z,DU1,DU2,DU3,U1,U2,U3,S11,S22,S33,S12,S13,S23,Vf,SMISES
 ZONE, T="0.8500D+00" F=FEPOINT, I=   12 J=    2 ET=BRICK
   0.0000000000E+00   0.1258530813E-02   0.1258530813E-02   0.0000000000E+00   0.1003569580E-04   0.1003569580E-04   0.0000000000E+00   0.1248495117E-02   0.1248495117E-02   0.1010796143E+01  -0.5194277366E-01  -0.5194277366E-01  -0.6890948291E-02  -0.6890948291E-02   0.1585867408E-06   0.0000000000E+00   0.1063141255E+01
   0.1004722462E+01   0.9356365200E-03   0.9356365200E-03   0.5333332873E-04   0.1152109131E-04   0.1152109131E-04   0.4669129124E-02   0.9241154287E-03   0.9241154287E-03   0.1045240248E+01  -0.1435274128E-01  -0.1435274128E-01  -0.6633491260E-02  -0.6633491260E-02   0.1402722608E-06   0.0000000000E+00   0.1059969032E+01
   0.1004722462E+01   0.9990643635E+00   0.9356365200E-03   0.5333332873E-04  -0.1152109131E-04   0.1152109131E-04   0.4669129124E-02  -0.9241154287E-03   0.9241154287E-03   0.1045240248E+01  -0.1435274128E-01  -0.1435274128E-01   0.6633491260E-02  -0.6633491260E-02  -0.1402723989E-06   0.0000000000E+00   0.1059969032E+01
   0.0000000000E+00   0.9987414692E+00   0.1258530813E-02   0.0000000000E+00  -0.1003569580E-04   0.1003569580E-04   0.0000000000E+00  -0.1248495117E-02   0.1248495117E-02   0.1010796143E+01  -0.5194277366E-01  -0.5194277366E-01   0.6890948291E-02  -0.6890948291E-02  -0.1585867072E-06   0.0000000000E+00   0.1063141255E+01
   0.0000000000E+00   0.1258530813E-02   0.9987414692E+00   0.0000000000E+00   0.1003569580E-04  -0.1003569580E-04   0.0000000000E+00   0.1248495117E-02  -0.1248495117E-02   0.1010796143E+01  -0.5194277366E-01  -0.5194277366E-01  -0.6890948291E-02   0.6890948291E-02  -0.1585867072E-06   0.0000000000E+00   0.1063141255E+01
   0.1004722462E+01   0.9356365200E-03   0.9990643635E+00   0.5333332873E-04   0.1152109131E-04  -0.1152109131E-04   0.4669129124E-02   0.9241154287E-03  -0.9241154287E-03   0.1045240248E+01  -0.1435274128E-01  -0.1435274128E-01  -0.6633491260E-02   0.6633491260E-02  -0.1402723989E-06   0.0000000000E+00   0.1059969032E+01
   0.1004722462E+01   0.9990643635E+00   0.9990643635E+00   0.5333332873E-04  -0.1152109131E-04  -0.1152109131E-04   0.4669129124E-02  -0.9241154287E-03  -0.9241154287E-03   0.1045240247E+01  -0.1435274128E-01  -0.1435274128E-01   0.6633491259E-02   0.6633491259E-02   0.1402725371E-06   0.0000000000E+00   0.1059969032E+01
   0.0000000000E+00   0.9987414692E+00   0.9987414692E+00   0.0000000000E+00  -0.1003569580E-04  -0.1003569580E-04   0.0000000000E+00  -0.1248495117E-02  -0.1248495117E-02   0.1010796143E+01  -0.5194277365E-01  -0.5194277365E-01   0.6890948290E-02   0.6890948290E-02   0.1585866736E-06   0.0000000000E+00   0.1063141255E+01
   0.2008500000E+01   0.7580595576E-03   0.7580595576E-03   0.1000000000E-03   0.1304696728E-04   0.1304696728E-04   0.8400000000E-02   0.7450125903E-03   0.7450125903E-03   0.1079698044E+01   0.2323044505E-01   0.2323044505E-01  -0.6382099492E-02  -0.6382099492E-02   0.1216511742E-06   0.0000000000E+00   0.1056814821E+01
   0.2008500000E+01   0.9992419404E+00   0.7580595576E-03   0.1000000000E-03  -0.1304696728E-04   0.1304696728E-04   0.8400000000E-02  -0.7450125903E-03   0.7450125903E-03   0.1079698044E+01   0.2323044505E-01   0.2323044505E-01   0.6382099492E-02  -0.6382099492E-02  -0.1216514285E-06   0.0000000000E+00   0.1056814821E+01
   0.2008500000E+01   0.7580595576E-03   0.9992419404E+00   0.1000000000E-03   0.1304696728E-04  -0.1304696728E-04   0.8400000000E-02   0.7450125903E-03  -0.7450125903E-03   0.1079698044E+01   0.2323044505E-01   0.2323044505E-01  -0.6382099492E-02   0.6382099492E-02  -0.1216514285E-06   0.0000000000E+00   0.1056814821E+01
   0.2008500000E+01   0.9992419404E+00   0.9992419404E+00   0.1000000000E-03  -0.1304696728E-04  -0.1304696728E-04   0.8400000000E-02  -0.7450125903E-03  -0.7450125903E-03   0.1079698044E+01   0.2323044505E-01   0.2323044505E-01   0.6382099492E-02   0.6382099492E-02   0.1216516828E-06   0.0000000000E+00   0.1056814821E+01
     1     2     3     4     5     6     7     8
     2     9    10     3     6    11    12     7
 VARIABLES = X,Y,Z,DU1,DU2,DU3,U1,U2,U3,S11,S22,S33,S12,S13,S23,Vf,SMISES
 ZONE, T="0.8600D+00" F=FEPOINT, I=   12 J=    2 ET=BRICK
   0.0000000000E+00   0.1267704095E-02   0.1267704095E-02   0.0000000000E+00   0.9173282622E-05   0.9173282622E-05   0.0000000000E+00   0.1258530813E-02   0.1258530813E-02   0.1019622392E+01  -0.4183262963E-01  -0.4183262963E-01  -0.6364103205E-02  -0.6364103205E-02   0.1472875001E-06   0.0000000000E+00   0.1061798619E+01
   0.1004776316E+01   0.9469892385E-03   0.9469892385E-03   0.5385394521E-04   0.1135271846E-04   0.1135271846E-04   0.4722462452E-02   0.9356365200E-03   0.9356365200E-03   0.1048281382E+01  -0.1061676651E-01  -0.1061676651E-01  -0.6124431353E-02  -0.6124431353E-02   0.1301156995E-06   0.0000000000E+00   0.1059218974E+01
   0.1004776316E+01   0.9990530108E+00   0.9469892385E-03   0.5385394521E-04  -0.1135271846E-04   0.1135271846E-04   0.4722462452E-02  -0.9356365200E-03   0.9356365200E-03   0.1048281382E+01  -0.1061676651E-01  -0.1061676651E-01   0.6124431353E-02  -0.6124431352E-02  -0.1301158167E-06   0.0000000000E+00   0.1059218974E+01
   0.0000000000E+00   0.9987322959E+00   0.1267704095E-02   0.0000000000E+00  -0.9173282622E-05   0.9173282622E-05   0.0000000000E+00  -0.1258530813E-02   0.1258530813E-02   0.1019622392E+01  -0.4183262963E-01  -0.4183262963E-01   0.6364103205E-02  -0.6364103205E-02  -0.1472874439E-06   0.0000000000E+00   0.1061798619E+01
   0.0000000000E+00   0.1267704095E-02   0.9987322959E+00   0.0000000000E+00   0.9173282622E-05  -0.9173282622E-05   0.0000000000E+00   0.1258530813E-02  -0.1258530813E-02   0.1019622392E+01  -0.4183262963E-01  -0.4183262963E-01  -0.6364103205E-02   0.6364103205E-02  -0.1472874439E-06   0.0000000000E+00   0.1061798619E+01
   0.1004776316E+01   0.9469892385E-03   0.9990530108E+00   0.5385394521E-04   0.1135271846E-04  -0.1135271846E-04   0.4722462452E-02   0.9356365200E-03  -0.9356365200E-03   0.1048281382E+01  -0.1061676651E-01  -0.1061676651E-01  -0.6124431352E-02   0.6124431353E-02  -0.1301158167E-06   0.0000000000E+00   0.1059218974E+01
   0.1004776316E+01   0.9990530108E+00   0.9990530108E+00   0.5385394521E-04  -0.1135271846E-04  -0.1135271846E-04   0.4722462452E-02  -0.9356365200E-03  -0.9356365200E-03   0.1048281382E+01  -0.1061676651E-01  -0.1061676651E-01   0.6124431353E-02   0.6124431353E-02   0.1301159340E-06   0.0000000000E+00   0.1059218974E+01
   0.0000000000E+00   0.9987322959E+00   0.9987322959E+00   0.0000000000E+00  -0.9173282622E-05  -0.9173282622E-05   0.0000000000E+00  -0.1258530813E-02  -0.1258530813E-02   0.1019622392E+01  -0.4183262962E-01  -0.4183262962E-01   0.6364103205E-02   0.6364103205E-02   0.1472873878E-06   0.0000000000E+00   0.1061798619E+01
   0.2008600000E+01   0.7716035231E-03   0.7716035231E-03   0.1000000000E-03   0.1354396552E-04   0.1354396552E-04   0.8500000000E-02   0.7580595576E-03   0.7580595576E-03   0.1076958634E+01   0.2058996558E-01   0.2058996558E-01  -0.5891078193E-02  -0.5891078193E-02   0.1126732639E-06   0.0000000000E+00   0.1056664558E+01
   0.2008600000E+01   0.9992283965E+00   0.7716035231E-03   0.1000000000E-03  -0.1354396552E-04   0.1354396552E-04   0.8500000000E-02  -0.7580595575E-03   0.7580595576E-03   0.1076958634E+01   0.2058996558E-01   0.2058996558E-01   0.5891078193E-02  -0.5891078193E-02  -0.1126734963E-06   0.0000000000E+00   0.1056664558E+01
   0.2008600000E+01   0.7716035231E-03   0.9992283965E+00   0.1000000000E-03   0.1354396552E-04  -0.1354396552E-04   0.8500000000E-02   0.7580595576E-03  -0.7580595575E-03   0.1076958634E+01   0.2058996558E-01   0.2058996558E-01  -0.5891078193E-02   0.5891078193E-02  -0.1126734963E-06   0.0000000000E+00   0.1056664558E+01
   0.2008600000E+01   0.9992283965E+00   0.9992283965E+00   0.1000000000E-03  -0.1354396552E-04  -0.1354396552E-04   0.8500000000E-02  -0.7580595575E-03  -0.7580595575E-03   0.1076958634E+01   0.2058996558E-01   0.2058996558E-01   0.5891078193E-02   0.5891078193E-02   0.1126737288E-06   0.0000000000E+00   0.1056664558E+01
     1     2     3     4     5     6     7     8
     2     9    10     3     6    11    12     7
 VARIABLES = X,Y,Z,DU1,DU2,DU3,U1,U2,U3,S11,S22,S33,S12,S13,S23,Vf,SMISES
 ZONE, T="0.8700D+00" F=FEPOINT, I=   12 J=    2 ET=BRICK
   0.0000000000E+00   0.1276304206E-02   0.1276304206E-02   0.0000000000E+00   0.8600111087E-05   0.8600111087E-05   0.0000000000E+00   0.1267704095E-02   0.1267704095E-02   0.1031087231E+01  -0.2924708699E-01  -0.2924708699E-01  -0.5785248140E-02  -0.5785248140E-02   0.1354979192E-06   0.0000000000E+00   0.1060618569E+01
   0.1004830516E+01   0.9582675125E-03   0.9582675125E-03   0.5419927137E-04   0.1127827402E-04   0.1127827402E-04   0.4776316398E-02   0.9469892385E-03   0.9469892385E-03   0.1052087207E+01  -0.6233778919E-02  -0.6233778919E-02  -0.5561738097E-02  -0.5561738097E-02   0.1194274636E-06   0.0000000000E+00   0.1058585822E+01
   0.1004830516E+01   0.9990417325E+00   0.9582675125E-03   0.5419927137E-04  -0.1127827402E-04   0.1127827402E-04   0.4776316398E-02  -0.9469892385E-03   0.9469892385E-03   0.1052087207E+01  -0.6233778919E-02  -0.6233778918E-02   0.5561738098E-02  -0.5561738097E-02  -0.1194275584E-06   0.0000000000E+00   0.1058585822E+01
   0.0000000000E+00   0.9987236958E+00   0.1276304206E-02   0.0000000000E+00  -0.8600111087E-05   0.8600111088E-05   0.0000000000E+00  -0.1267704095E-02   0.1267704095E-02   0.1031087231E+01  -0.2924708699E-01  -0.2924708699E-01   0.5785248140E-02  -0.5785248140E-02  -0.1354978361E-06   0.0000000000E+00   0.1060618569E+01
   0.0000000000E+00   0.1276304206E-02   0.9987236958E+00   0.0000000000E+00   0.8600111088E-05  -0.8600111087E-05   0.0000000000E+00   0.1267704095E-02  -0.1267704095E-02   0.1031087231E+01  -0.2924708699E-01  -0.2924708699E-01  -0.5785248140E-02   0.5785248140E-02  -0.1354978361E-06   0.0000000000E+00   0.1060618569E+01
   0.1004830516E+01   0.9582675125E-03   0.9990417325E+00   0.5419927137E-04   0.1127827402E-04  -0.1127827402E-04   0.4776316398E-02   0.9469892385E-03  -0.9469892385E-03   0.1052087207E+01  -0.6233778918E-02  -0.6233778919E-02  -0.5561738097E-02   0.5561738098E-02  -0.1194275584E-06   0.0000000000E+00   0.1058585822E+01
   0.1004830516E+01   0.9990417325E+00   0.9990417325E+00   0.5419927137E-04  -0.1127827402E-04  -0.1127827402E-04   0.4776316398E-02  -0.9469892385E-03  -0.9469892385E-03   0.1052087207E+01  -0.6233778918E-02  -0.6233778918E-02   0.5561738097E-02   0.5561738097E-02   0.1194276533E-06   0.0000000000E+00   0.1058585822E+01
   0.0000000000E+00   0.9987236958E+00   0.9987236958E+00   0.0000000000E+00  -0.8600111087E-05  -0.8600111087E-05   0.0000000000E+00  -0.1267704095E-02  -0.1267704095E-02   0.1031087231E+01  -0.2924708698E-01  -0.2924708698E-01   0.5785248140E-02   0.5785248140E-02   0.1354977531E-06   0.0000000000E+00   0.1060618569E+01
   0.2008700000E+01   0.7855448172E-03   0.7855448172E-03   0.1000000000E-03   0.1394129407E-04   0.1394129407E-04   0.8600000000E-02   0.7716035231E-03   0.7716035231E-03   0.1073108041E+01   0.1676909971E-01   0.1676909971E-01  -0.5344962417E-02  -0.5344962417E-02   0.1031319578E-06   0.0000000000E+00   0.1056582539E+01
   0.2008700000E+01   0.9992144552E+00   0.7855448172E-03   0.1000000000E-03  -0.1394129407E-04   0.1394129407E-04   0.8600000000E-02  -0.7716035231E-03   0.7716035231E-03   0.1073108041E+01   0.1676909971E-01   0.1676909971E-01   0.5344962417E-02  -0.5344962416E-02  -0.1031321700E-06   0.0000000000E+00   0.1056582539E+01
   0.2008700000E+01   0.7855448172E-03   0.9992144552E+00   0.1000000000E-03   0.1394129407E-04  -0.1394129407E-04   0.8600000000E-02   0.7716035231E-03  -0.7716035231E-03   0.1073108041E+01   0.1676909971E-01   0.1676909971E-01  -0.5344962416E-02   0.5344962417E-02  -0.1031321699E-06   0.0000000000E+00   0.1056582539E+01
   0.2008700000E+01   0.9992144552E+00   0.9992144552E+00   0.1000000000E-03  -0.1394129407E-04  -0.1394129407E-04   0.8600000000E-02  -0.7716035231E-03  -0.7716035231E-03   0.1073108041E+01   0.1676909971E-01   0.1676909971E-01   0.5344962417E-02   0.5344962417E-02   0.1031323821E-06   0.0000000000E+00   0.1056582539E+01
     1     2     3     4     5     6     7     8
     2     9    10     3     6    11    12     7
 VARIABLES = X,Y,Z,DU1,DU2,DU3,U1,U2,U3,S11,S22,S33,S12,S13,S23,Vf,SMISES
 ZONE, T="0.8800D+00" F=FEPOINT, I=   12 J=    2 ET=BRICK
   0.0000000000E+00   0.1284641932E-02   0.1284641932E-02   0.0000000000E+00   0.8337726036E-05   0.8337726036E-05   0.0000000000E+00   0.1276304206E-02   0.1276304206E-02   0.1044307270E+01  -0.1513035449E-01  -0.1513035449E-01  -0.5178882775E-02  -0.5178882775E-02   0.1238483341E-06   0.0000000000E+00   0.1059665621E+01
   0.1004884865E+01   0.9695666999E-03   0.9695666999E-03   0.5434889959E-04   0.1129918737E-04   0.1129918737E-04   0.4830515669E-02   0.9582675125E-03   0.9582675125E-03   0.1056314900E+01  -0.1588433577E-02  -0.1588433577E-02  -0.4970420318E-02  -0.4970420318E-02   0.1088276747E-06   0.0000000000E+00   0.1058115069E+01
   0.1004884865E+01   0.9990304333E+00   0.9695666999E-03   0.5434889959E-04  -0.1129918737E-04   0.1129918737E-04   0.4830515669E-02  -0.9582675125E-03   0.9582675125E-03   0.1056314900E+01  -0.1588433577E-02  -0.1588433577E-02   0.4970420318E-02  -0.4970420318E-02  -0.1088277468E-06   0.0000000000E+00   0.1058115069E+01
   0.0000000000E+00   0.9987153581E+00   0.1284641933E-02   0.0000000000E+00  -0.8337726036E-05   0.8337726036E-05   0.0000000000E+00  -0.1276304206E-02   0.1276304206E-02   0.1044307270E+01  -0.1513035449E-01  -0.1513035449E-01   0.5178882775E-02  -0.5178882775E-02  -0.1238482223E-06   0.0000000000E+00   0.1059665621E+01
   0.0000000000E+00   0.1284641933E-02   0.9987153581E+00   0.0000000000E+00   0.8337726036E-05  -0.8337726036E-05   0.0000000000E+00   0.1276304206E-02  -0.1276304206E-02   0.1044307270E+01  -0.1513035449E-01  -0.1513035449E-01  -0.5178882775E-02   0.5178882775E-02  -0.1238482223E-06   0.0000000000E+00   0.1059665621E+01
   0.1004884865E+01   0.9695666999E-03   0.9990304333E+00   0.5434889959E-04   0.1129918737E-04  -0.1129918737E-04   0.4830515669E-02   0.9582675125E-03  -0.9582675125E-03   0.1056314900E+01  -0.1588433577E-02  -0.1588433577E-02  -0.4970420318E-02   0.4970420318E-02  -0.1088277468E-06   0.0000000000E+00   0.1058115069E+01
   0.1004884865E+01   0.9990304333E+00   0.9990304333E+00   0.5434889959E-04  -0.1129918737E-04  -0.1129918737E-04   0.4830515669E-02  -0.9582675125E-03  -0.9582675125E-03   0.1056314900E+01  -0.1588433577E-02  -0.1588433577E-02   0.4970420318E-02   0.4970420318E-02   0.1088278190E-06   0.0000000000E+00   0.1058115069E+01
   0.0000000000E+00   0.9987153581E+00   0.9987153581E+00   0.0000000000E+00  -0.8337726036E-05  -0.8337726036E-05   0.0000000000E+00  -0.1276304206E-02  -0.1276304206E-02   0.1044307270E+01  -0.1513035449E-01  -0.1513035449E-01   0.5178882775E-02   0.5178882775E-02   0.1238481106E-06   0.0000000000E+00   0.1059665621E+01
   0.2008800000E+01   0.7997650443E-03   0.7997650443E-03   0.1000000000E-03   0.1422022714E-04   0.1422022714E-04   0.8700000000E-02   0.7855448172E-03   0.7855448172E-03   0.1068343354E+01   0.1194307547E-01   0.1194307547E-01  -0.4769199568E-02  -0.4769199568E-02   0.9363296741E-07   0.0000000000E+00   0.1056594229E+01
   0.2008800000E+01   0.9992002350E+00   0.7997650443E-03   0.1000000000E-03  -0.1422022714E-04   0.1422022714E-04   0.8700000000E-02  -0.7855448171E-03   0.7855448172E-03   0.1068343354E+01   0.1194307547E-01   0.1194307547E-01   0.4769199569E-02  -0.4769199568E-02  -0.9363316079E-07   0.0000000000E+00   0.1056594229E+01
   0.2008800000E+01   0.7997650443E-03   0.9992002350E+00   0.1000000000E-03   0.1422022714E-04  -0.1422022714E-04   0.8700000000E-02   0.7855448172E-03  -0.7855448171E-03   0.1068343354E+01   0.1194307547E-01   0.1194307547E-01  -0.4769199568E-02   0.4769199569E-02  -0.9363316078E-07   0.0000000000E+00   0.1056594229E+01
   0.2008800000E+01   0.9992002350E+00   0.9992002350E+00   0.1000000000E-03  -0.1422022714E-04  -0.1422022714E-04   0.8700000000E-02  -0.7855448171E-03  -0.7855448171E-03   0.1068343354E+01   0.1194307547E-01   0.1194307547E-01   0.4769199568E-02   0.4769199568E-02   0.9363335414E-07   0.0000000000E+00   0.1056594229E+01
     1     2     3     4     5     6     7     8
     2     9    10     3     6    11    12     7
 VARIABLES = X,Y,Z,DU1,DU2,DU3,U1,U2,U3,S11,S22,S33,S12,S13,S23,Vf,SMISES
 ZONE, T="0.8900D+00" F=FEPOINT, I=   12 J=    2 ET=BRICK
   0.0000000000E+00   0.1293028366E-02   0.1293028366E-02   0.0000000000E+00   0.8386433670E-05   0.8386433670E-05   0.0000000000E+00   0.1284641932E-02   0.1284641932E-02   0.1058322437E+01  -0.4859258412E-03  -0.4859258412E-03  -0.4570757005E-02  -0.4570757005E-02   0.1128670883E-06   0.0000000000E+00   0.1058986082E+01
   0.1004939160E+01   0.9809758453E-03   0.9809758453E-03   0.5429520170E-04   0.1140914537E-04   0.1140914537E-04   0.4884864569E-02   0.9695666999E-03   0.9695666999E-03   0.1060606516E+01   0.2933769334E-02   0.2933769334E-02  -0.4376713736E-02  -0.4376713736E-02   0.9883644744E-07   0.0000000000E+00   0.1057837107E+01
   0.1004939160E+01   0.9990190242E+00   0.9809758453E-03   0.5429520171E-04  -0.1140914537E-04   0.1140914537E-04   0.4884864569E-02  -0.9695666999E-03   0.9695666999E-03   0.1060606516E+01   0.2933769333E-02   0.2933769333E-02   0.4376713737E-02  -0.4376713736E-02  -0.9883649777E-07   0.0000000000E+00   0.1057837107E+01
   0.0000000000E+00   0.9987069716E+00   0.1293028366E-02   0.0000000000E+00  -0.8386433670E-05   0.8386433670E-05   0.0000000000E+00  -0.1284641932E-02   0.1284641933E-02   0.1058322437E+01  -0.4859258411E-03  -0.4859258414E-03   0.4570757005E-02  -0.4570757004E-02  -0.1128669485E-06   0.0000000000E+00   0.1058986082E+01
   0.0000000000E+00   0.1293028366E-02   0.9987069716E+00   0.0000000000E+00   0.8386433670E-05  -0.8386433670E-05   0.0000000000E+00   0.1284641933E-02  -0.1284641932E-02   0.1058322437E+01  -0.4859258414E-03  -0.4859258411E-03  -0.4570757004E-02   0.4570757005E-02  -0.1128669485E-06   0.0000000000E+00   0.1058986082E+01
   0.1004939160E+01   0.9809758453E-03   0.9990190242E+00   0.5429520171E-04   0.1140914537E-04  -0.1140914537E-04   0.4884864569E-02   0.9695666999E-03  -0.9695666999E-03   0.1060606516E+01   0.2933769333E-02   0.2933769333E-02  -0.4376713736E-02   0.4376713737E-02  -0.9883649776E-07   0.0000000000E+00   0.1057837107E+01
   0.1004939160E+01   0.9990190242E+00   0.9990190242E+00   0.5429520171E-04  -0.1140914537E-04  -0.1140914537E-04   0.4884864569E-02  -0.9695666999E-03  -0.9695666999E-03   0.1060606516E+01   0.2933769333E-02   0.2933769333E-02   0.4376713737E-02   0.4376713737E-02   0.9883654811E-07   0.0000000000E+00   0.1057837107E+01
   0.0000000000E+00   0.9987069716E+00   0.9987069716E+00   0.0000000000E+00  -0.8386433670E-05  -0.8386433670E-05   0.0000000000E+00  -0.1284641932E-02  -0.1284641932E-02   0.1058322437E+01  -0.4859258413E-03  -0.4859258413E-03   0.4570757005E-02   0.4570757005E-02   0.1128668088E-06   0.0000000000E+00   0.1058986082E+01
   0.2008900000E+01   0.8141328569E-03   0.8141328569E-03   0.1000000000E-03   0.1436781260E-04   0.1436781260E-04   0.8800000000E-02   0.7997650443E-03   0.7997650443E-03   0.1062908461E+01   0.6344531533E-02   0.6344531533E-02  -0.4190448076E-02  -0.4190448076E-02   0.8468444463E-07   0.0000000000E+00   0.1056713662E+01
   0.2008900000E+01   0.9991858671E+00   0.8141328569E-03   0.1000000000E-03  -0.1436781260E-04   0.1436781260E-04   0.8800000000E-02  -0.7997650443E-03   0.7997650443E-03   0.1062908461E+01   0.6344531533E-02   0.6344531533E-02   0.4190448077E-02  -0.4190448076E-02  -0.8468462031E-07   0.0000000000E+00   0.1056713662E+01
   0.2008900000E+01   0.8141328569E-03   0.9991858671E+00   0.1000000000E-03   0.1436781260E-04  -0.1436781260E-04   0.8800000000E-02   0.7997650443E-03  -0.7997650443E-03   0.1062908461E+01   0.6344531533E-02   0.6344531533E-02  -0.4190448076E-02   0.4190448077E-02  -0.8468462031E-07   0.0000000000E+00   0.1056713662E+01
   0.2008900000E+01   0.9991858671E+00   0.9991858671E+00   0.1000000000E-03  -0.1436781260E-04  -0.1436781260E-04   0.8800000000E-02  -0.7997650443E-03  -0.7997650443E-03   0.1062908461E+01   0.6344531533E-02   0.6344531533E-02   0.4190448077E-02   0.4190448077E-02   0.8468479596E-07   0.0000000000E+00   0.1056713662E+01
     1     2     3     4     5     6     7     8
     2     9    10     3     6    11    12     7
 VARIABLES = X,Y,Z,DU1,DU2,DU3,U1,U2,U3,S11,S22,S33,S12,S13,S23,Vf,SMISES
 ZONE, T="0.9000D+00" F=FEPOINT, I=   12 J=    2 ET=BRICK
   0.0000000000E+00   0.1301754619E-02   0.1301754619E-02   0.0000000000E+00   0.8726252456E-05   0.8726252456E-05   0.0000000000E+00   0.1293028366E-02   0.1293028366E-02   0.1072163372E+01   0.1369386142E-01   0.1369386142E-01  -0.3986338704E-02  -0.3986338704E-02   0.1029291684E-06   0.0000000000E+00   0.1058604749E+01
   0.1004993203E+01   0.9925708527E-03   0.9925708527E-03   0.5404335275E-04   0.1159500741E-04   0.1159500741E-04   0.4939159770E-02   0.9809758453E-03   0.9809758453E-03   0.1064618208E+01   0.6977481676E-02   0.6977481676E-02  -0.3806497251E-02  -0.3806497251E-02   0.8982231942E-07   0.0000000000E+00   0.1057765204E+01
   0.1004993203E+01   0.9990074291E+00   0.9925708527E-03   0.5404335275E-04  -0.1159500741E-04   0.1159500741E-04   0.4939159770E-02  -0.9809758452E-03   0.9809758453E-03   0.1064618208E+01   0.6977481676E-02   0.6977481676E-02   0.3806497252E-02  -0.3806497251E-02  -0.8982234968E-07   0.0000000000E+00   0.1057765204E+01
   0.0000000000E+00   0.9986982454E+00   0.1301754619E-02   0.0000000000E+00  -0.8726252456E-05   0.8726252456E-05   0.0000000000E+00  -0.1293028366E-02   0.1293028366E-02   0.1072163372E+01   0.1369386142E-01   0.1369386142E-01   0.3986338704E-02  -0.3986338704E-02  -0.1029290038E-06   0.0000000000E+00   0.1058604749E+01
   0.0000000000E+00   0.1301754619E-02   0.9986982454E+00   0.0000000000E+00   0.8726252456E-05  -0.8726252456E-05   0.0000000000E+00   0.1293028366E-02  -0.1293028366E-02   0.1072163372E+01   0.1369386142E-01   0.1369386142E-01  -0.3986338704E-02   0.3986338704E-02  -0.1029290038E-06   0.0000000000E+00   0.1058604749E+01
   0.1004993203E+01   0.9925708527E-03   0.9990074291E+00   0.5404335275E-04   0.1159500741E-04  -0.1159500741E-04   0.4939159770E-02   0.9809758453E-03  -0.9809758452E-03   0.1064618208E+01   0.6977481676E-02   0.6977481676E-02  -0.3806497251E-02   0.3806497252E-02  -0.8982234967E-07   0.0000000000E+00   0.1057765204E+01
   0.1004993203E+01   0.9990074291E+00   0.9990074291E+00   0.5404335275E-04  -0.1159500741E-04  -0.1159500741E-04   0.4939159770E-02  -0.9809758452E-03  -0.9809758452E-03   0.1064618208E+01   0.6977481675E-02   0.6977481675E-02   0.3806497251E-02   0.3806497251E-02   0.8982237995E-07   0.0000000000E+00   0.1057765204E+01
   0.0000000000E+00   0.9986982454E+00   0.9986982454E+00   0.0000000000E+00  -0.8726252456E-05  -0.8726252456E-05   0.0000000000E+00  -0.1293028366E-02  -0.1293028366E-02   0.1072163372E+01   0.1369386142E-01   0.1369386142E-01   0.3986338704E-02   0.3986338704E-02   0.1029288392E-06   0.0000000000E+00   0.1058604749E+01
   0.2009000000E+01   0.8285106034E-03   0.8285106034E-03   0.1000000000E-03   0.1437774648E-04   0.1437774648E-04   0.8900000000E-02   0.8141328569E-03   0.8141328569E-03   0.1057085060E+01   0.2550941139E-03   0.2550941139E-03  -0.3634943855E-02  -0.3634943855E-02   0.7664544797E-07   0.0000000000E+00   0.1056942624E+01
   0.2009000000E+01   0.9991714894E+00   0.8285106034E-03   0.1000000000E-03  -0.1437774648E-04   0.1437774648E-04   0.8900000000E-02  -0.8141328569E-03   0.8141328569E-03   0.1057085060E+01   0.2550941137E-03   0.2550941140E-03   0.3634943855E-02  -0.3634943854E-02  -0.7664560667E-07   0.0000000000E+00   0.1056942624E+01
   0.2009000000E+01   0.8285106034E-03   0.9991714894E+00   0.1000000000E-03   0.1437774648E-04  -0.1437774648E-04   0.8900000000E-02   0.8141328569E-03  -0.8141328569E-03   0.1057085060E+01   0.2550941140E-03   0.2550941137E-03  -0.3634943854E-02   0.3634943855E-02  -0.7664560666E-07   0.0000000000E+00   0.1056942624E+01
   0.2009000000E+01   0.9991714894E+00   0.9991714894E+00   0.1000000000E-03  -0.1437774648E-04  -0.1437774648E-04   0.8900000000E-02  -0.8141328569E-03  -0.8141328569E-03   0.1057085060E+01   0.2550941139E-03   0.2550941139E-03   0.3634943855E-02   0.3634943855E-02   0.7664576532E-07   0.0000000000E+00   0.1056942624E+01
     1     2     3     4     5     6     7     8
     2     9    10     3     6    11    12     7
 VARIABLES = X,Y,Z,DU1,DU2,DU3,U1,U2,U3,S11,S22,S33,S12,S13,S23,Vf,SMISES
 ZONE, T="0.9100D+00" F=FEPOINT, I=   12 J=    2 ET=BRICK
   0.0000000000E+00   0.1311073799E-02   0.1311073799E-02   0.0000000000E+00   0.9319180794E-05   0.9319180794E-05   0.0000000000E+00   0.1301754619E-02   0.1301754619E-02   0.1084916230E+01   0.2649409114E-01   0.2649409114E-01  -0.3449294515E-02  -0.3449294515E-02   0.9423671676E-07   0.0000000000E+00   0.1058523414E+01
   0.1005046814E+01   0.1004409074E-02   0.1004409074E-02   0.5361058134E-04   0.1183822117E-04   0.1183822117E-04   0.4993203123E-02   0.9925708527E-03   0.9925708527E-03   0.1068046731E+01   0.1024447820E-01   0.1024447820E-01  -0.3283742912E-02  -0.3283742912E-02   0.8198307780E-07   0.0000000000E+00   0.1057895016E+01
   0.1005046814E+01   0.9989955909E+00   0.1004409074E-02   0.5361058134E-04  -0.1183822117E-04   0.1183822117E-04   0.4993203123E-02  -0.9925708526E-03   0.9925708527E-03   0.1068046731E+01   0.1024447820E-01   0.1024447820E-01   0.3283742912E-02  -0.3283742911E-02  -0.8198309060E-07   0.0000000000E+00   0.1057895016E+01
   0.0000000000E+00   0.9986889262E+00   0.1311073799E-02   0.0000000000E+00  -0.9319180794E-05   0.9319180794E-05   0.0000000000E+00  -0.1301754619E-02   0.1301754619E-02   0.1084916230E+01   0.2649409114E-01   0.2649409114E-01   0.3449294515E-02  -0.3449294515E-02  -0.9423653254E-07   0.0000000000E+00   0.1058523414E+01
   0.0000000000E+00   0.1311073799E-02   0.9986889262E+00   0.0000000000E+00   0.9319180794E-05  -0.9319180794E-05   0.0000000000E+00   0.1301754619E-02  -0.1301754619E-02   0.1084916230E+01   0.2649409114E-01   0.2649409114E-01  -0.3449294515E-02   0.3449294515E-02  -0.9423653251E-07   0.0000000000E+00   0.1058523414E+01
   0.1005046814E+01   0.1004409074E-02   0.9989955909E+00   0.5361058134E-04   0.1183822117E-04  -0.1183822117E-04   0.4993203123E-02   0.9925708527E-03  -0.9925708526E-03   0.1068046731E+01   0.1024447820E-01   0.1024447820E-01  -0.3283742911E-02   0.3283742912E-02  -0.8198309059E-07   0.0000000000E+00   0.1057895016E+01
   0.1005046814E+01   0.9989955909E+00   0.9989955909E+00   0.5361058134E-04  -0.1183822117E-04  -0.1183822117E-04   0.4993203123E-02  -0.9925708526E-03  -0.9925708526E-03   0.1068046731E+01   0.1024447820E-01   0.1024447820E-01   0.3283742912E-02   0.3283742912E-02   0.8198310339E-07   0.0000000000E+00   0.1057895015E+01
   0.0000000000E+00   0.9986889262E+00   0.9986889262E+00   0.0000000000E+00  -0.9319180794E-05  -0.9319180794E-05   0.0000000000E+00  -0.1301754619E-02  -0.1301754619E-02   0.1084916230E+01   0.2649409114E-01   0.2649409114E-01   0.3449294515E-02   0.3449294515E-02   0.9423634833E-07   0.0000000000E+00   0.1058523414E+01
   0.2009100000E+01   0.8427615352E-03   0.8427615352E-03   0.1000000000E-03   0.1425093181E-04   0.1425093181E-04   0.9000000000E-02   0.8285106034E-03   0.8285106034E-03   0.1051180786E+01  -0.6006911498E-02  -0.6006911498E-02  -0.3126920925E-02  -0.3126920925E-02   0.6970718000E-07   0.0000000000E+00   0.1057271058E+01
   0.2009100000E+01   0.9991572385E+00   0.8427615352E-03   0.1000000000E-03  -0.1425093181E-04   0.1425093181E-04   0.9000000000E-02  -0.8285106034E-03   0.8285106034E-03   0.1051180786E+01  -0.6006911498E-02  -0.6006911497E-02   0.3126920926E-02  -0.3126920925E-02  -0.6970732194E-07   0.0000000000E+00   0.1057271058E+01
   0.2009100000E+01   0.8427615352E-03   0.9991572385E+00   0.1000000000E-03   0.1425093181E-04  -0.1425093181E-04   0.9000000000E-02   0.8285106034E-03  -0.8285106034E-03   0.1051180786E+01  -0.6006911497E-02  -0.6006911498E-02  -0.3126920925E-02   0.3126920926E-02  -0.6970732193E-07   0.0000000000E+00   0.1057271058E+01
   0.2009100000E+01   0.9991572385E+00   0.9991572385E+00   0.1000000000E-03  -0.1425093181E-04  -0.1425093181E-04   0.9000000000E-02  -0.8285106034E-03  -0.8285106034E-03   0.1051180786E+01  -0.6006911497E-02  -0.6006911497E-02   0.3126920926E-02   0.3126920926E-02   0.6970746383E-07   0.0000000000E+00   0.1057271058E+01
     1     2     3     4     5     6     7     8
     2     9    10     3     6    11    12     7
 VARIABLES = X,Y,Z,DU1,DU2,DU3,U1,U2,U3,S11,S22,S33,S12,S13,S23,Vf,SMISES
 ZONE, T="0.9200D+00" F=FEPOINT, I=   12 J=    2 ET=BRICK
   0.0000000000E+00   0.1321186361E-02   0.1321186361E-02   0.0000000000E+00   0.1011256182E-04   0.1011256182E-04   0.0000000000E+00   0.1311073799E-02   0.1311073799E-02   0.1095780744E+01   0.3713495338E-01   0.3713495338E-01  -0.2980079842E-02  -0.2980079842E-02   0.8683137216E-07   0.0000000000E+00   0.1058721386E+01
   0.1005099838E+01   0.1016525672E-02   0.1016525672E-02   0.5302471745E-04   0.1211659827E-04   0.1211659827E-04   0.5046813704E-02   0.1004409074E-02   0.1004409074E-02   0.1070651324E+01   0.1251460495E-01   0.1251460495E-01  -0.2829097226E-02  -0.2829097226E-02   0.7535871071E-07   0.0000000000E+00   0.1058205670E+01
   0.1005099838E+01   0.9989834743E+00   0.1016525672E-02   0.5302471745E-04  -0.1211659827E-04   0.1211659827E-04   0.5046813704E-02  -0.1004409074E-02   0.1004409074E-02   0.1070651324E+01   0.1251460495E-01   0.1251460495E-01   0.2829097227E-02  -0.2829097226E-02  -0.7535870920E-07   0.0000000000E+00   0.1058205670E+01
   0.0000000000E+00   0.9986788136E+00   0.1321186361E-02   0.0000000000E+00  -0.1011256182E-04   0.1011256182E-04   0.0000000000E+00  -0.1311073799E-02   0.1311073799E-02   0.1095780744E+01   0.3713495338E-01   0.3713495338E-01   0.2980079842E-02  -0.2980079842E-02  -0.8683117526E-07   0.0000000000E+00   0.1058721386E+01
   0.0000000000E+00   0.1321186361E-02   0.9986788136E+00   0.0000000000E+00   0.1011256182E-04  -0.1011256182E-04   0.0000000000E+00   0.1311073799E-02  -0.1311073799E-02   0.1095780744E+01   0.3713495338E-01   0.3713495338E-01  -0.2980079842E-02   0.2980079842E-02  -0.8683117523E-07   0.0000000000E+00   0.1058721386E+01
   0.1005099838E+01   0.1016525672E-02   0.9989834743E+00   0.5302471745E-04   0.1211659827E-04  -0.1211659827E-04   0.5046813704E-02   0.1004409074E-02  -0.1004409074E-02   0.1070651324E+01   0.1251460495E-01   0.1251460495E-01  -0.2829097226E-02   0.2829097227E-02  -0.7535870919E-07   0.0000000000E+00   0.1058205670E+01
   0.1005099838E+01   0.9989834743E+00   0.9989834743E+00   0.5302471745E-04  -0.1211659827E-04  -0.1211659827E-04   0.5046813704E-02  -0.1004409074E-02  -0.1004409074E-02   0.1070651324E+01   0.1251460495E-01   0.1251460495E-01   0.2829097227E-02   0.2829097227E-02   0.7535870768E-07   0.0000000000E+00   0.1058205670E+01
   0.0000000000E+00   0.9986788136E+00   0.9986788136E+00   0.0000000000E+00  -0.1011256182E-04  -0.1011256182E-04   0.0000000000E+00  -0.1311073799E-02  -0.1311073799E-02   0.1095780744E+01   0.3713495338E-01   0.3713495338E-01   0.2980079842E-02   0.2980079842E-02   0.8683097835E-07   0.0000000000E+00   0.1058721386E+01
   0.2009200000E+01   0.8567571955E-03   0.8567571955E-03   0.1000000000E-03   0.1399566026E-04   0.1399566026E-04   0.9100000000E-02   0.8427615352E-03   0.8427615352E-03   0.1045514834E+01  -0.1210220852E-01  -0.1210220852E-01  -0.2687185343E-02  -0.2687185343E-02   0.6390651891E-07   0.0000000000E+00   0.1057678599E+01
   0.2009200000E+01   0.9991432428E+00   0.8567571955E-03   0.1000000000E-03  -0.1399566025E-04   0.1399566026E-04   0.9100000000E-02  -0.8427615352E-03   0.8427615352E-03   0.1045514834E+01  -0.1210220852E-01  -0.1210220852E-01   0.2687185344E-02  -0.2687185343E-02  -0.6390664382E-07   0.0000000000E+00   0.1057678599E+01
   0.2009200000E+01   0.8567571955E-03   0.9991432428E+00   0.1000000000E-03   0.1399566026E-04  -0.1399566025E-04   0.9100000000E-02   0.8427615352E-03  -0.8427615352E-03   0.1045514834E+01  -0.1210220852E-01  -0.1210220852E-01  -0.2687185343E-02   0.2687185344E-02  -0.6390664381E-07   0.0000000000E+00   0.1057678599E+01
   0.2009200000E+01   0.9991432428E+00   0.9991432428E+00   0.1000000000E-03  -0.1399566025E-04  -0.1399566025E-04   0.9100000000E-02  -0.8427615352E-03  -0.8427615352E-03   0.1045514833E+01  -0.1210220852E-01  -0.1210220852E-01   0.2687185344E-02   0.2687185344E-02   0.6390676867E-07   0.0000000000E+00   0.1057678599E+01
     1     2     3     4     5     6     7     8
     2     9    10     3     6    11    12     7
 VARIABLES = X,Y,Z,DU1,DU2,DU3,U1,U2,U3,S11,S22,S33,S12,S13,S23,Vf,SMISES
 ZONE, T="0.9300D+00" F=FEPOINT, I=   12 J=    2 ET=BRICK
   0.0000000000E+00   0.1332229622E-02   0.1332229622E-02   0.0000000000E+00   0.1104326106E-04   0.1104326106E-04   0.0000000000E+00   0.1321186361E-02   0.1321186361E-02   0.1104118004E+01   0.4501728954E-01   0.4501728954E-01  -0.2594735083E-02  -0.2594735083E-02   0.8063181093E-07   0.0000000000E+00   0.1059158011E+01
   0.1005152161E+01   0.1028931959E-02   0.1028931959E-02   0.5232214872E-04   0.1240628710E-04   0.1240628710E-04   0.5099838422E-02   0.1016525672E-02   0.1016525672E-02   0.1072269507E+01   0.1365931088E-01   0.1365931088E-01  -0.2458688112E-02  -0.2458688112E-02   0.6986950880E-07   0.0000000000E+00   0.1058662335E+01
   0.1005152161E+01   0.9989710680E+00   0.1028931959E-02   0.5232214872E-04  -0.1240628710E-04   0.1240628710E-04   0.5099838422E-02  -0.1016525672E-02   0.1016525672E-02   0.1072269507E+01   0.1365931088E-01   0.1365931088E-01   0.2458688113E-02  -0.2458688112E-02  -0.6986949643E-07   0.0000000000E+00   0.1058662335E+01
   0.0000000000E+00   0.9986677704E+00   0.1332229622E-02   0.0000000000E+00  -0.1104326106E-04   0.1104326106E-04   0.0000000000E+00  -0.1321186361E-02   0.1321186361E-02   0.1104118004E+01   0.4501728954E-01   0.4501728954E-01   0.2594735084E-02  -0.2594735083E-02  -0.8063160936E-07   0.0000000000E+00   0.1059158011E+01
   0.0000000000E+00   0.1332229622E-02   0.9986677704E+00   0.0000000000E+00   0.1104326106E-04  -0.1104326106E-04   0.0000000000E+00   0.1321186361E-02  -0.1321186361E-02   0.1104118004E+01   0.4501728954E-01   0.4501728954E-01  -0.2594735083E-02   0.2594735084E-02  -0.8063160933E-07   0.0000000000E+00   0.1059158011E+01
   0.1005152161E+01   0.1028931959E-02   0.9989710680E+00   0.5232214872E-04   0.1240628710E-04  -0.1240628710E-04   0.5099838422E-02   0.1016525672E-02  -0.1016525672E-02   0.1072269507E+01   0.1365931088E-01   0.1365931088E-01  -0.2458688112E-02   0.2458688113E-02  -0.6986949643E-07   0.0000000000E+00   0.1058662335E+01
   0.1005152161E+01   0.9989710680E+00   0.9989710680E+00   0.5232214872E-04  -0.1240628710E-04  -0.1240628710E-04   0.5099838422E-02  -0.1016525672E-02  -0.1016525672E-02   0.1072269507E+01   0.1365931088E-01   0.1365931088E-01   0.2458688113E-02   0.2458688113E-02   0.6986948406E-07   0.0000000000E+00   0.1058662335E+01
   0.0000000000E+00   0.9986677704E+00   0.9986677704E+00   0.0000000000E+00  -0.1104326106E-04  -0.1104326106E-04   0.0000000000E+00  -0.1321186361E-02  -0.1321186361E-02   0.1104118004E+01   0.4501728954E-01   0.4501728954E-01   0.2594735084E-02   0.2594735084E-02   0.8063140778E-07   0.0000000000E+00   0.1059158011E+01
   0.2009300000E+01   0.8703845712E-03   0.8703845712E-03   0.1000000000E-03   0.1362737571E-04   0.1362737571E-04   0.9200000000E-02   0.8567571955E-03   0.8567571955E-03   0.1040401698E+01  -0.1768901130E-01  -0.1768901130E-01  -0.2331933832E-02  -0.2331933832E-02   0.5916456474E-07   0.0000000000E+00   0.1058137061E+01
   0.2009300000E+01   0.9991296154E+00   0.8703845712E-03   0.1000000000E-03  -0.1362737571E-04   0.1362737571E-04   0.9200000000E-02  -0.8567571954E-03   0.8567571955E-03   0.1040401698E+01  -0.1768901130E-01  -0.1768901130E-01   0.2331933833E-02  -0.2331933832E-02  -0.5916467184E-07   0.0000000000E+00   0.1058137061E+01
   0.2009300000E+01   0.8703845712E-03   0.9991296154E+00   0.1000000000E-03   0.1362737571E-04  -0.1362737571E-04   0.9200000000E-02   0.8567571955E-03  -0.8567571954E-03   0.1040401698E+01  -0.1768901130E-01  -0.1768901130E-01  -0.2331933832E-02   0.2331933833E-02  -0.5916467182E-07   0.0000000000E+00   0.1058137061E+01
   0.2009300000E+01   0.9991296154E+00   0.9991296154E+00   0.1000000000E-03  -0.1362737571E-04  -0.1362737571E-04   0.9200000000E-02  -0.8567571954E-03  -0.8567571954E-03   0.1040401698E+01  -0.1768901130E-01  -0.1768901130E-01   0.2331933833E-02   0.2331933833E-02   0.5916477887E-07   0.0000000000E+00   0.1058137061E+01
     1     2     3     4     5     6     7     8
     2     9    10     3     6    11    12     7
 VARIABLES = X,Y,Z,DU1,DU2,DU3,U1,U2,U3,S11,S22,S33,S12,S13,S23,Vf,SMISES
 ZONE, T="0.9400D+00" F=FEPOINT, I=   12 J=    2 ET=BRICK
   0.0000000000E+00   0.1344271954E-02   0.1344271954E-02   0.0000000000E+00   0.1204233180E-04   0.1204233180E-04   0.0000000000E+00   0.1332229622E-02   0.1332229622E-02   0.1109485265E+01   0.4975350412E-01   0.4975350412E-01  -0.2303975859E-02  -0.2303975859E-02   0.7548511318E-07   0.0000000000E+00   0.1059776918E+01
   0.1005203706E+01   0.1041615732E-02   0.1041615732E-02   0.5154532814E-04   0.1268377273E-04   0.1268377273E-04   0.5152160571E-02   0.1028931959E-02   0.1028931959E-02   0.1072825884E+01   0.1364705994E-01   0.1364705994E-01  -0.2183239090E-02  -0.2183239090E-02   0.6536763677E-07   0.0000000000E+00   0.1059219955E+01
   0.1005203706E+01   0.9989583843E+00   0.1041615732E-02   0.5154532814E-04  -0.1268377273E-04   0.1268377273E-04   0.5152160571E-02  -0.1028931959E-02   0.1028931959E-02   0.1072825884E+01   0.1364705994E-01   0.1364705994E-01   0.2183239090E-02  -0.2183239090E-02  -0.6536761704E-07   0.0000000000E+00   0.1059219955E+01
   0.0000000000E+00   0.9986557280E+00   0.1344271954E-02   0.0000000000E+00  -0.1204233180E-04   0.1204233180E-04   0.0000000000E+00  -0.1332229622E-02   0.1332229622E-02   0.1109485265E+01   0.4975350412E-01   0.4975350411E-01   0.2303975859E-02  -0.2303975859E-02  -0.7548491550E-07   0.0000000000E+00   0.1059776918E+01
   0.0000000000E+00   0.1344271954E-02   0.9986557280E+00   0.0000000000E+00   0.1204233180E-04  -0.1204233180E-04   0.0000000000E+00   0.1332229622E-02  -0.1332229622E-02   0.1109485265E+01   0.4975350411E-01   0.4975350412E-01  -0.2303975859E-02   0.2303975859E-02  -0.7548491547E-07   0.0000000000E+00   0.1059776918E+01
   0.1005203706E+01   0.1041615732E-02   0.9989583843E+00   0.5154532814E-04   0.1268377273E-04  -0.1268377273E-04   0.5152160571E-02   0.1028931959E-02  -0.1028931959E-02   0.1072825884E+01   0.1364705994E-01   0.1364705994E-01  -0.2183239090E-02   0.2183239090E-02  -0.6536761704E-07   0.0000000000E+00   0.1059219955E+01
   0.1005203706E+01   0.9989583843E+00   0.9989583843E+00   0.5154532814E-04  -0.1268377273E-04  -0.1268377273E-04   0.5152160571E-02  -0.1028931959E-02  -0.1028931959E-02   0.1072825884E+01   0.1364705993E-01   0.1364705993E-01   0.2183239090E-02   0.2183239090E-02   0.6536759730E-07   0.0000000000E+00   0.1059219955E+01
   0.0000000000E+00   0.9986557280E+00   0.9986557280E+00   0.0000000000E+00  -0.1204233180E-04  -0.1204233180E-04   0.0000000000E+00  -0.1332229622E-02  -0.1332229622E-02   0.1109485265E+01   0.4975350411E-01   0.4975350411E-01   0.2303975859E-02   0.2303975859E-02   0.7548471780E-07   0.0000000000E+00   0.1059776918E+01
   0.2009400000E+01   0.8835525765E-03   0.8835525765E-03   0.1000000000E-03   0.1316800526E-04   0.1316800526E-04   0.9300000000E-02   0.8703845712E-03   0.8703845712E-03   0.1036133895E+01  -0.2244308054E-01  -0.2244308054E-01  -0.2071892264E-02  -0.2071892264E-02   0.5533826077E-07   0.0000000000E+00   0.1058613560E+01
   0.2009400000E+01   0.9991164474E+00   0.8835525765E-03   0.1000000000E-03  -0.1316800526E-04   0.1316800526E-04   0.9300000000E-02  -0.8703845711E-03   0.8703845712E-03   0.1036133895E+01  -0.2244308054E-01  -0.2244308054E-01   0.2071892265E-02  -0.2071892264E-02  -0.5533834882E-07   0.0000000000E+00   0.1058613560E+01
   0.2009400000E+01   0.8835525765E-03   0.9991164474E+00   0.1000000000E-03   0.1316800526E-04  -0.1316800526E-04   0.9300000000E-02   0.8703845712E-03  -0.8703845711E-03   0.1036133895E+01  -0.2244308054E-01  -0.2244308054E-01  -0.2071892264E-02   0.2071892265E-02  -0.5533834880E-07   0.0000000000E+00   0.1058613560E+01
   0.2009400000E+01   0.9991164474E+00   0.9991164474E+00   0.1000000000E-03  -0.1316800526E-04  -0.1316800526E-04   0.9300000000E-02  -0.8703845711E-03  -0.8703845711E-03   0.1036133895E+01  -0.2244308054E-01  -0.2244308054E-01   0.2071892265E-02   0.2071892265E-02   0.5533843680E-07   0.0000000000E+00   0.1058613560E+01
     1     2     3     4     5     6     7     8
     2     9    10     3     6    11    12     7
 VARIABLES = X,Y,Z,DU1,DU2,DU3,U1,U2,U3,S11,S22,S33,S12,S13,S23,Vf,SMISES
 ZONE, T="0.9500D+00" F=FEPOINT, I=   12 J=    2 ET=BRICK
   0.0000000000E+00   0.1357311782E-02   0.1357311782E-02   0.0000000000E+00   0.1303982786E-04   0.1303982786E-04   0.0000000000E+00   0.1344271954E-02   0.1344271954E-02   0.1111656062E+01   0.5118253504E-01   0.5118253504E-01  -0.2112645049E-02  -0.2112645049E-02   0.7121873999E-07   0.0000000000E+00   0.1060511473E+01
   0.1005254446E+01   0.1054543474E-02   0.1054543474E-02   0.5073999862E-04   0.1292774170E-04   0.1292774170E-04   0.5203705899E-02   0.1041615732E-02   0.1041615732E-02   0.1072333592E+01   0.1254063346E-01   0.1254063346E-01  -0.2007550496E-02  -0.2007550496E-02   0.6168880330E-07   0.0000000000E+00   0.1059827710E+01
   0.1005254446E+01   0.9989454565E+00   0.1054543474E-02   0.5073999862E-04  -0.1292774170E-04   0.1292774170E-04   0.5203705899E-02  -0.1041615732E-02   0.1041615732E-02   0.1072333592E+01   0.1254063345E-01   0.1254063345E-01   0.2007550496E-02  -0.2007550495E-02  -0.6168877944E-07   0.0000000000E+00   0.1059827710E+01
   0.0000000000E+00   0.9986426882E+00   0.1357311782E-02   0.0000000000E+00  -0.1303982786E-04   0.1303982786E-04   0.0000000000E+00  -0.1344271954E-02   0.1344271954E-02   0.1111656061E+01   0.5118253504E-01   0.5118253504E-01   0.2112645049E-02  -0.2112645049E-02  -0.7121855465E-07   0.0000000000E+00   0.1060511473E+01
   0.0000000000E+00   0.1357311782E-02   0.9986426882E+00   0.0000000000E+00   0.1303982786E-04  -0.1303982786E-04   0.0000000000E+00   0.1344271954E-02  -0.1344271954E-02   0.1111656061E+01   0.5118253504E-01   0.5118253504E-01  -0.2112645049E-02   0.2112645049E-02  -0.7121855462E-07   0.0000000000E+00   0.1060511473E+01
   0.1005254446E+01   0.1054543474E-02   0.9989454565E+00   0.5073999862E-04   0.1292774170E-04  -0.1292774170E-04   0.5203705899E-02   0.1041615732E-02  -0.1041615732E-02   0.1072333592E+01   0.1254063345E-01   0.1254063345E-01  -0.2007550495E-02   0.2007550496E-02  -0.6168877944E-07   0.0000000000E+00   0.1059827710E+01
   0.1005254446E+01   0.9989454565E+00   0.9989454565E+00   0.5073999862E-04  -0.1292774170E-04  -0.1292774170E-04   0.5203705899E-02  -0.1041615732E-02  -0.1041615732E-02   0.1072333592E+01   0.1254063345E-01   0.1254063345E-01   0.2007550496E-02   0.2007550496E-02   0.6168875557E-07   0.0000000000E+00   0.1059827710E+01
   0.0000000000E+00   0.9986426882E+00   0.9986426882E+00   0.0000000000E+00  -0.1303982786E-04  -0.1303982786E-04   0.0000000000E+00  -0.1344271954E-02  -0.1344271954E-02   0.1111656061E+01   0.5118253504E-01   0.5118253504E-01   0.2112645049E-02   0.2112645049E-02   0.7121836928E-07   0.0000000000E+00   0.1060511473E+01
   0.2009500000E+01   0.8961974493E-03   0.8961974493E-03   0.1000000000E-03   0.1264487288E-04   0.1264487288E-04   0.9400000000E-02   0.8835525765E-03   0.8835525765E-03   0.1032964719E+01  -0.2607806664E-01  -0.2607806664E-01  -0.1911825412E-02  -0.1911825412E-02   0.5227160631E-07   0.0000000000E+00   0.1059073926E+01
   0.2009500000E+01   0.9991038026E+00   0.8961974493E-03   0.1000000000E-03  -0.1264487288E-04   0.1264487288E-04   0.9400000000E-02  -0.8835525764E-03   0.8835525765E-03   0.1032964719E+01  -0.2607806664E-01  -0.2607806664E-01   0.1911825413E-02  -0.1911825412E-02  -0.5227167369E-07   0.0000000000E+00   0.1059073926E+01
   0.2009500000E+01   0.8961974493E-03   0.9991038026E+00   0.1000000000E-03   0.1264487288E-04  -0.1264487288E-04   0.9400000000E-02   0.8835525765E-03  -0.8835525764E-03   0.1032964719E+01  -0.2607806664E-01  -0.2607806664E-01  -0.1911825412E-02   0.1911825413E-02  -0.5227167368E-07   0.0000000000E+00   0.1059073926E+01
   0.2009500000E+01   0.9991038026E+00   0.9991038026E+00   0.1000000000E-03  -0.1264487288E-04  -0.1264487288E-04   0.9400000000E-02  -0.8835525764E-03  -0.8835525764E-03   0.1032964719E+01  -0.2607806664E-01  -0.2607806664E-01   0.1911825413E-02   0.1911825413E-02   0.5227174101E-07   0.0000000000E+00   0.1059073926E+01
     1     2     3     4     5     6     7     8
     2     9    10     3     6    11    12     7
 VARIABLES = X,Y,Z,DU1,DU2,DU3,U1,U2,U3,S11,S22,S33,S12,S13,S23,Vf,SMISES
 ZONE, T="0.9600D+00" F=FEPOINT, I=   12 J=    2 ET=BRICK
   0.0000000000E+00   0.1371281215E-02   0.1371281215E-02   0.0000000000E+00   0.1396943292E-04   0.1396943292E-04   0.0000000000E+00   0.1357311782E-02   0.1357311782E-02   0.1110624922E+01   0.4936877472E-01   0.4936877472E-01  -0.2019565513E-02  -0.2019565513E-02   0.6768130282E-07   0.0000000000E+00   0.1061290797E+01
   0.1005304398E+01   0.1067664143E-02   0.1067664143E-02   0.4995231142E-04   0.1312066918E-04   0.1312066918E-04   0.5254445897E-02   0.1054543474E-02   0.1054543474E-02   0.1070888654E+01   0.1048699918E-01   0.1048699918E-01  -0.1930378561E-02  -0.1930378561E-02   0.5869223065E-07   0.0000000000E+00   0.1060433717E+01
   0.1005304398E+01   0.9989323359E+00   0.1067664143E-02   0.4995231142E-04  -0.1312066918E-04   0.1312066918E-04   0.5254445897E-02  -0.1054543474E-02   0.1054543474E-02   0.1070888654E+01   0.1048699918E-01   0.1048699918E-01   0.1930378562E-02  -0.1930378561E-02  -0.5869220548E-07   0.0000000000E+00   0.1060433717E+01
   0.0000000000E+00   0.9986287188E+00   0.1371281215E-02   0.0000000000E+00  -0.1396943292E-04   0.1396943292E-04   0.0000000000E+00  -0.1357311782E-02   0.1357311782E-02   0.1110624922E+01   0.4936877472E-01   0.4936877472E-01   0.2019565514E-02  -0.2019565513E-02  -0.6768113759E-07   0.0000000000E+00   0.1061290797E+01
   0.0000000000E+00   0.1371281215E-02   0.9986287188E+00   0.0000000000E+00   0.1396943292E-04  -0.1396943292E-04   0.0000000000E+00   0.1357311782E-02  -0.1357311782E-02   0.1110624922E+01   0.4936877472E-01   0.4936877472E-01  -0.2019565513E-02   0.2019565514E-02  -0.6768113757E-07   0.0000000000E+00   0.1061290797E+01
   0.1005304398E+01   0.1067664143E-02   0.9989323359E+00   0.4995231142E-04   0.1312066918E-04  -0.1312066918E-04   0.5254445897E-02   0.1054543474E-02  -0.1054543474E-02   0.1070888654E+01   0.1048699918E-01   0.1048699918E-01  -0.1930378561E-02   0.1930378562E-02  -0.5869220547E-07   0.0000000000E+00   0.1060433717E+01
   0.1005304398E+01   0.9989323359E+00   0.9989323359E+00   0.4995231142E-04  -0.1312066918E-04  -0.1312066918E-04   0.5254445897E-02  -0.1054543474E-02  -0.1054543474E-02   0.1070888654E+01   0.1048699918E-01   0.1048699918E-01   0.1930378562E-02   0.1930378562E-02   0.5869218028E-07   0.0000000000E+00   0.1060433716E+01
   0.0000000000E+00   0.9986287188E+00   0.9986287188E+00   0.0000000000E+00  -0.1396943292E-04  -0.1396943292E-04   0.0000000000E+00  -0.1357311782E-02  -0.1357311782E-02   0.1110624921E+01   0.4936877472E-01   0.4936877472E-01   0.2019565514E-02   0.2019565514E-02   0.6768097235E-07   0.0000000000E+00   0.1061290797E+01
   0.2009600000E+01   0.9082866915E-03   0.9082866915E-03   0.1000000000E-03   0.1208924220E-04   0.1208924220E-04   0.9500000000E-02   0.8961974493E-03   0.8961974493E-03   0.1031092195E+01  -0.2836468066E-01  -0.2836468066E-01  -0.1850440654E-02  -0.1850440654E-02   0.4983471358E-07   0.0000000000E+00   0.1059486035E+01
   0.2009600000E+01   0.9990917133E+00   0.9082866915E-03   0.1000000000E-03  -0.1208924220E-04   0.1208924220E-04   0.9500000000E-02  -0.8961974493E-03   0.8961974493E-03   0.1031092195E+01  -0.2836468066E-01  -0.2836468066E-01   0.1850440655E-02  -0.1850440654E-02  -0.4983475844E-07   0.0000000000E+00   0.1059486035E+01
   0.2009600000E+01   0.9082866915E-03   0.9990917133E+00   0.1000000000E-03   0.1208924220E-04  -0.1208924220E-04   0.9500000000E-02   0.8961974493E-03  -0.8961974493E-03   0.1031092195E+01  -0.2836468066E-01  -0.2836468066E-01  -0.1850440654E-02   0.1850440655E-02  -0.4983475843E-07   0.0000000000E+00   0.1059486035E+01
   0.2009600000E+01   0.9990917133E+00   0.9990917133E+00   0.1000000000E-03  -0.1208924220E-04  -0.1208924220E-04   0.9500000000E-02  -0.8961974493E-03  -0.8961974493E-03   0.1031092195E+01  -0.2836468066E-01  -0.2836468066E-01   0.1850440655E-02   0.1850440655E-02   0.4983480324E-07   0.0000000000E+00   0.1059486035E+01
     1     2     3     4     5     6     7     8
     2     9    10     3     6    11    12     7
 VARIABLES = X,Y,Z,DU1,DU2,DU3,U1,U2,U3,S11,S22,S33,S12,S13,S23,Vf,SMISES
 ZONE, T="0.9700D+00" F=FEPOINT, I=   12 J=    2 ET=BRICK
   0.0000000000E+00   0.1386053822E-02   0.1386053822E-02   0.0000000000E+00   0.1477260724E-04   0.1477260724E-04   0.0000000000E+00   0.1371281215E-02   0.1371281215E-02   0.1106597090E+01   0.4458595349E-01   0.4458595349E-01  -0.2017797808E-02  -0.2017797808E-02   0.6476442651E-07   0.0000000000E+00   0.1062045696E+01
   0.1005353624E+01   0.1080914160E-02   0.1080914160E-02   0.4922601608E-04   0.1325001702E-04   0.1325001702E-04   0.5304398209E-02   0.1067664143E-02   0.1067664143E-02   0.1068658007E+01   0.7700988028E-02   0.7700988028E-02  -0.1944710697E-02  -0.1944710697E-02   0.5628137552E-07   0.0000000000E+00   0.1060989455E+01
   0.1005353624E+01   0.9989190858E+00   0.1080914160E-02   0.4922601608E-04  -0.1325001702E-04   0.1325001702E-04   0.5304398209E-02  -0.1067664143E-02   0.1067664143E-02   0.1068658007E+01   0.7700988028E-02   0.7700988028E-02   0.1944710698E-02  -0.1944710697E-02  -0.5628135120E-07   0.0000000000E+00   0.1060989455E+01
   0.0000000000E+00   0.9986139462E+00   0.1386053822E-02   0.0000000000E+00  -0.1477260724E-04   0.1477260724E-04   0.0000000000E+00  -0.1371281215E-02   0.1371281215E-02   0.1106597090E+01   0.4458595349E-01   0.4458595349E-01   0.2017797808E-02  -0.2017797808E-02  -0.6476428802E-07   0.0000000000E+00   0.1062045696E+01
   0.0000000000E+00   0.1386053822E-02   0.9986139462E+00   0.0000000000E+00   0.1477260724E-04  -0.1477260724E-04   0.0000000000E+00   0.1371281215E-02  -0.1371281215E-02   0.1106597090E+01   0.4458595349E-01   0.4458595349E-01  -0.2017797808E-02   0.2017797808E-02  -0.6476428800E-07   0.0000000000E+00   0.1062045696E+01
   0.1005353624E+01   0.1080914160E-02   0.9989190858E+00   0.4922601608E-04   0.1325001702E-04  -0.1325001702E-04   0.5304398209E-02   0.1067664143E-02  -0.1067664143E-02   0.1068658007E+01   0.7700988028E-02   0.7700988028E-02  -0.1944710697E-02   0.1944710698E-02  -0.5628135119E-07   0.0000000000E+00   0.1060989455E+01
   0.1005353624E+01   0.9989190858E+00   0.9989190858E+00   0.4922601608E-04  -0.1325001702E-04  -0.1325001702E-04   0.5304398209E-02  -0.1067664143E-02  -0.1067664143E-02   0.1068658006E+01   0.7700988028E-02   0.7700988028E-02   0.1944710698E-02   0.1944710698E-02   0.5628132686E-07   0.0000000000E+00   0.1060989455E+01
   0.0000000000E+00   0.9986139462E+00   0.9986139462E+00   0.0000000000E+00  -0.1477260724E-04  -0.1477260724E-04   0.0000000000E+00  -0.1371281215E-02  -0.1371281215E-02   0.1106597090E+01   0.4458595349E-01   0.4458595349E-01   0.2017797808E-02   0.2017797808E-02   0.6476414950E-07   0.0000000000E+00   0.1062045696E+01
   0.2009700000E+01   0.9198212555E-03   0.9198212555E-03   0.1000000000E-03   0.1153456396E-04   0.1153456396E-04   0.9600000000E-02   0.9082866915E-03   0.9082866915E-03   0.1030645408E+01  -0.2914721988E-01  -0.2914721988E-01  -0.1880678070E-02  -0.1880678070E-02   0.4794332148E-07   0.0000000000E+00   0.1059822730E+01
   0.2009700000E+01   0.9990801787E+00   0.9198212555E-03   0.1000000000E-03  -0.1153456396E-04   0.1153456396E-04   0.9600000000E-02  -0.9082866915E-03   0.9082866915E-03   0.1030645408E+01  -0.2914721988E-01  -0.2914721988E-01   0.1880678071E-02  -0.1880678070E-02  -0.4794334188E-07   0.0000000000E+00   0.1059822730E+01
   0.2009700000E+01   0.9198212555E-03   0.9990801787E+00   0.1000000000E-03   0.1153456396E-04  -0.1153456396E-04   0.9600000000E-02   0.9082866915E-03  -0.9082866915E-03   0.1030645408E+01  -0.2914721988E-01  -0.2914721988E-01  -0.1880678070E-02   0.1880678071E-02  -0.4794334186E-07   0.0000000000E+00   0.1059822730E+01
   0.2009700000E+01   0.9990801787E+00   0.9990801787E+00   0.1000000000E-03  -0.1153456396E-04  -0.1153456396E-04   0.9600000000E-02  -0.9082866915E-03  -0.9082866915E-03   0.1030645408E+01  -0.2914721988E-01  -0.2914721988E-01   0.1880678071E-02   0.1880678071E-02   0.4794336222E-07   0.0000000000E+00   0.1059822730E+01
     1     2     3     4     5     6     7     8
     2     9    10     3     6    11    12     7
 VARIABLES = X,Y,Z,DU1,DU2,DU3,U1,U2,U3,S11,S22,S33,S12,S13,S23,Vf,SMISES
 ZONE, T="0.9800D+00" F=FEPOINT, I=   12 J=    2 ET=BRICK
   0.0000000000E+00   0.1401455825E-02   0.1401455825E-02   0.0000000000E+00   0.1540200297E-04   0.1540200297E-04   0.0000000000E+00   0.1386053822E-02   0.1386053822E-02   0.1099964635E+01   0.3728795991E-01   0.3728795991E-01  -0.2095272060E-02  -0.2095272060E-02   0.6240364564E-07   0.0000000000E+00   0.1062713907E+01
   0.1005402224E+01   0.1094223128E-02   0.1094223128E-02   0.4859988933E-04   0.1330896856E-04   0.1330896856E-04   0.5353624225E-02   0.1080914160E-02   0.1080914160E-02   0.1065862464E+01   0.4444442381E-02   0.4444442381E-02  -0.2038403508E-02  -0.2038403508E-02   0.5440353911E-07   0.0000000000E+00   0.1061453541E+01
   0.1005402224E+01   0.9989057769E+00   0.1094223128E-02   0.4859988933E-04  -0.1330896856E-04   0.1330896856E-04   0.5353624225E-02  -0.1080914160E-02   0.1080914160E-02   0.1065862464E+01   0.4444442381E-02   0.4444442381E-02   0.2038403509E-02  -0.2038403508E-02  -0.5440351709E-07   0.0000000000E+00   0.1061453541E+01
   0.0000000000E+00   0.9985985442E+00   0.1401455825E-02   0.0000000000E+00  -0.1540200297E-04   0.1540200297E-04   0.0000000000E+00  -0.1386053822E-02   0.1386053822E-02   0.1099964635E+01   0.3728795991E-01   0.3728795991E-01   0.2095272061E-02  -0.2095272060E-02  -0.6240353891E-07   0.0000000000E+00   0.1062713907E+01
   0.0000000000E+00   0.1401455825E-02   0.9985985442E+00   0.0000000000E+00   0.1540200297E-04  -0.1540200297E-04   0.0000000000E+00   0.1386053822E-02  -0.1386053822E-02   0.1099964635E+01   0.3728795991E-01   0.3728795991E-01  -0.2095272060E-02   0.2095272061E-02  -0.6240353889E-07   0.0000000000E+00   0.1062713907E+01
   0.1005402224E+01   0.1094223128E-02   0.9989057769E+00   0.4859988933E-04   0.1330896856E-04  -0.1330896856E-04   0.5353624225E-02   0.1080914160E-02  -0.1080914160E-02   0.1065862464E+01   0.4444442381E-02   0.4444442381E-02  -0.2038403508E-02   0.2038403509E-02  -0.5440351709E-07   0.0000000000E+00   0.1061453541E+01
   0.1005402224E+01   0.9989057769E+00   0.9989057769E+00   0.4859988933E-04  -0.1330896856E-04  -0.1330896856E-04   0.5353624225E-02  -0.1080914160E-02  -0.1080914160E-02   0.1065862464E+01   0.4444442381E-02   0.4444442381E-02   0.2038403509E-02   0.2038403509E-02   0.5440349506E-07   0.0000000000E+00   0.1061453541E+01
   0.0000000000E+00   0.9985985442E+00   0.9985985442E+00   0.0000000000E+00  -0.1540200297E-04  -0.1540200297E-04   0.0000000000E+00  -0.1386053822E-02  -0.1386053822E-02   0.1099964635E+01   0.3728795991E-01   0.3728795991E-01   0.2095272061E-02   0.2095272061E-02   0.6240343215E-07   0.0000000000E+00   0.1062713907E+01
   0.2009800000E+01   0.9308357842E-03   0.9308357842E-03   0.1000000000E-03   0.1101452868E-04   0.1101452868E-04   0.9700000000E-02   0.9198212555E-03   0.9198212555E-03   0.1031674326E+01  -0.2835609102E-01  -0.2835609102E-01  -0.1990351085E-02  -0.1990351085E-02   0.4655709403E-07   0.0000000000E+00   0.1060064112E+01
   0.2009800000E+01   0.9990691642E+00   0.9308357842E-03   0.1000000000E-03  -0.1101452868E-04   0.1101452868E-04   0.9700000000E-02  -0.9198212554E-03   0.9198212555E-03   0.1031674326E+01  -0.2835609102E-01  -0.2835609102E-01   0.1990351086E-02  -0.1990351085E-02  -0.4655708810E-07   0.0000000000E+00   0.1060064112E+01
   0.2009800000E+01   0.9308357842E-03   0.9990691642E+00   0.1000000000E-03   0.1101452868E-04  -0.1101452868E-04   0.9700000000E-02   0.9198212555E-03  -0.9198212554E-03   0.1031674326E+01  -0.2835609102E-01  -0.2835609102E-01  -0.1990351085E-02   0.1990351086E-02  -0.4655708808E-07   0.0000000000E+00   0.1060064112E+01
   0.2009800000E+01   0.9990691642E+00   0.9990691642E+00   0.1000000000E-03  -0.1101452868E-04  -0.1101452868E-04   0.9700000000E-02  -0.9198212554E-03  -0.9198212554E-03   0.1031674326E+01  -0.2835609102E-01  -0.2835609102E-01   0.1990351086E-02   0.1990351086E-02   0.4655708212E-07   0.0000000000E+00   0.1060064112E+01
     1     2     3     4     5     6     7     8
     2     9    10     3     6    11    12     7
 VARIABLES = X,Y,Z,DU1,DU2,DU3,U1,U2,U3,S11,S22,S33,S12,S13,S23,Vf,SMISES
 ZONE, T="0.9900D+00" F=FEPOINT, I=   12 J=    2 ET=BRICK
   0.0000000000E+00   0.1417279788E-02   0.1417279788E-02   0.0000000000E+00   0.1582396263E-04   0.1582396263E-04   0.0000000000E+00   0.1401455825E-02   0.1401455825E-02   0.1091271233E+01   0.2806932591E-01   0.2806932591E-01  -0.2235732490E-02  -0.2235732490E-02   0.6056188683E-07   0.0000000000E+00   0.1063244267E+01
   0.1005450330E+01   0.1107519795E-02   0.1107519795E-02   0.4810555022E-04   0.1329666706E-04   0.1329666706E-04   0.5402224114E-02   0.1094223128E-02   0.1094223128E-02   0.1062756233E+01   0.1002758190E-02   0.1002758190E-02  -0.2195123120E-02  -0.2195123120E-02   0.5303209868E-07   0.0000000000E+00   0.1061794549E+01
   0.1005450330E+01   0.9988924802E+00   0.1107519795E-02   0.4810555022E-04  -0.1329666706E-04   0.1329666706E-04   0.5402224114E-02  -0.1094223128E-02   0.1094223128E-02   0.1062756233E+01   0.1002758190E-02   0.1002758189E-02   0.2195123121E-02  -0.2195123120E-02  -0.5303207967E-07   0.0000000000E+00   0.1061794549E+01
   0.0000000000E+00   0.9985827202E+00   0.1417279788E-02   0.0000000000E+00  -0.1582396263E-04   0.1582396263E-04   0.0000000000E+00  -0.1401455825E-02   0.1401455825E-02   0.1091271233E+01   0.2806932591E-01   0.2806932591E-01   0.2235732490E-02  -0.2235732490E-02  -0.6056181505E-07   0.0000000000E+00   0.1063244267E+01
   0.0000000000E+00   0.1417279788E-02   0.9985827202E+00   0.0000000000E+00   0.1582396263E-04  -0.1582396263E-04   0.0000000000E+00   0.1401455825E-02  -0.1401455825E-02   0.1091271233E+01   0.2806932591E-01   0.2806932591E-01  -0.2235732490E-02   0.2235732490E-02  -0.6056181504E-07   0.0000000000E+00   0.1063244267E+01
   0.1005450330E+01   0.1107519795E-02   0.9988924802E+00   0.4810555022E-04   0.1329666706E-04  -0.1329666706E-04   0.5402224114E-02   0.1094223128E-02  -0.1094223128E-02   0.1062756233E+01   0.1002758189E-02   0.1002758190E-02  -0.2195123120E-02   0.2195123121E-02  -0.5303207967E-07   0.0000000000E+00   0.1061794549E+01
   0.1005450330E+01   0.9988924802E+00   0.9988924802E+00   0.4810555022E-04  -0.1329666706E-04  -0.1329666706E-04   0.5402224114E-02  -0.1094223128E-02  -0.1094223128E-02   0.1062756233E+01   0.1002758189E-02   0.1002758189E-02   0.2195123121E-02   0.2195123121E-02   0.5303206064E-07   0.0000000000E+00   0.1061794549E+01
   0.0000000000E+00   0.9985827202E+00   0.9985827202E+00   0.0000000000E+00  -0.1582396263E-04  -0.1582396263E-04   0.0000000000E+00  -0.1401455825E-02  -0.1401455825E-02   0.1091271233E+01   0.2806932591E-01   0.2806932591E-01   0.2235732490E-02   0.2235732490E-02   0.6056174324E-07   0.0000000000E+00   0.1063244267E+01
   0.2009900000E+01   0.9413968282E-03   0.9413968282E-03   0.1000000000E-03   0.1056104399E-04   0.1056104399E-04   0.9800000000E-02   0.9308357842E-03   0.9308357842E-03   0.1034144035E+01  -0.2601521047E-01  -0.2601521047E-01  -0.2163078764E-02  -0.2163078764E-02   0.4566059193E-07   0.0000000000E+00   0.1060199023E+01
   0.2009900000E+01   0.9990586032E+00   0.9413968282E-03   0.1000000000E-03  -0.1056104399E-04   0.1056104399E-04   0.9800000000E-02  -0.9308357841E-03   0.9308357842E-03   0.1034144035E+01  -0.2601521047E-01  -0.2601521047E-01   0.2163078765E-02  -0.2163078764E-02  -0.4566055810E-07   0.0000000000E+00   0.1060199022E+01
   0.2009900000E+01   0.9413968282E-03   0.9990586032E+00   0.1000000000E-03   0.1056104399E-04  -0.1056104399E-04   0.9800000000E-02   0.9308357842E-03  -0.9308357841E-03   0.1034144035E+01  -0.2601521047E-01  -0.2601521047E-01  -0.2163078764E-02   0.2163078765E-02  -0.4566055809E-07   0.0000000000E+00   0.1060199022E+01
   0.2009900000E+01   0.9990586032E+00   0.9990586032E+00   0.1000000000E-03  -0.1056104399E-04  -0.1056104399E-04   0.9800000000E-02  -0.9308357841E-03  -0.9308357841E-03   0.1034144035E+01  -0.2601521047E-01  -0.2601521047E-01   0.2163078765E-02   0.2163078765E-02   0.4566052424E-07   0.0000000000E+00   0.1060199022E+01
     1     2     3     4     5     6     7     8
     2     9    10     3     6    11    12     7
 VARIABLES = X,Y,Z,DU1,DU2,DU3,U1,U2,U3,S11,S22,S33,S12,S13,S23,Vf,SMISES
 ZONE, T="0.1000D+01" F=FEPOINT, I=   12 J=    2 ET=BRICK
   0.0000000000E+00   0.1433299775E-02   0.1433299775E-02   0.0000000000E+00   0.1601998736E-04   0.1601998736E-04   0.0000000000E+00   0.1417279788E-02   0.1417279788E-02   0.1081168593E+01   0.1761861981E-01   0.1761861981E-01  -0.2419911010E-02  -0.2419911010E-02   0.5920324743E-07   0.0000000000E+00   0.1063599573E+01
   0.1005498095E+01   0.1120737761E-02   0.1120737761E-02   0.4776578085E-04   0.1321796603E-04   0.1321796603E-04   0.5450329664E-02   0.1107519795E-02   0.1107519795E-02   0.1059604793E+01  -0.2339167148E-02  -0.2339167148E-02  -0.2395508369E-02  -0.2395508369E-02   0.5213920285E-07   0.0000000000E+00   0.1061992776E+01
   0.1005498095E+01   0.9988792622E+00   0.1120737761E-02   0.4776578085E-04  -0.1321796603E-04   0.1321796603E-04   0.5450329664E-02  -0.1107519795E-02   0.1107519795E-02   0.1059604793E+01  -0.2339167148E-02  -0.2339167148E-02   0.2395508370E-02  -0.2395508369E-02  -0.5213918680E-07   0.0000000000E+00   0.1061992776E+01
   0.0000000000E+00   0.9985667002E+00   0.1433299775E-02   0.0000000000E+00  -0.1601998736E-04   0.1601998736E-04   0.0000000000E+00  -0.1417279788E-02   0.1417279788E-02   0.1081168593E+01   0.1761861981E-01   0.1761861981E-01   0.2419911010E-02  -0.2419911010E-02  -0.5920321184E-07   0.0000000000E+00   0.1063599573E+01
   0.0000000000E+00   0.1433299775E-02   0.9985667002E+00   0.0000000000E+00   0.1601998736E-04  -0.1601998736E-04   0.0000000000E+00   0.1417279788E-02  -0.1417279788E-02   0.1081168593E+01   0.1761861981E-01   0.1761861981E-01  -0.2419911010E-02   0.2419911010E-02  -0.5920321182E-07   0.0000000000E+00   0.1063599573E+01
   0.1005498095E+01   0.1120737761E-02   0.9988792622E+00   0.4776578085E-04   0.1321796603E-04  -0.1321796603E-04   0.5450329664E-02   0.1107519795E-02  -0.1107519795E-02   0.1059604793E+01  -0.2339167148E-02  -0.2339167148E-02  -0.2395508369E-02   0.2395508370E-02  -0.5213918680E-07   0.0000000000E+00   0.1061992776E+01
   0.1005498095E+01   0.9988792622E+00   0.9988792622E+00   0.4776578085E-04  -0.1321796603E-04  -0.1321796603E-04   0.5450329664E-02  -0.1107519795E-02  -0.1107519795E-02   0.1059604793E+01  -0.2339167148E-02  -0.2339167148E-02   0.2395508369E-02   0.2395508369E-02   0.5213917075E-07   0.0000000000E+00   0.1061992776E+01
   0.0000000000E+00   0.9985667002E+00   0.9985667002E+00   0.0000000000E+00  -0.1601998736E-04  -0.1601998736E-04   0.0000000000E+00  -0.1417279788E-02  -0.1417279788E-02   0.1081168593E+01   0.1761861981E-01   0.1761861981E-01   0.2419911010E-02   0.2419911010E-02   0.5920317621E-07   0.0000000000E+00   0.1063599573E+01
   0.2010000000E+01   0.9515990945E-03   0.9515990945E-03   0.1000000000E-03   0.1020226636E-04   0.1020226636E-04   0.9900000000E-02   0.9413968282E-03   0.9413968282E-03   0.1037934082E+01  -0.2224349865E-01  -0.2224349865E-01  -0.2379434881E-02  -0.2379434881E-02   0.4523486623E-07   0.0000000000E+00   0.1060225697E+01
   0.2010000000E+01   0.9990484009E+00   0.9515990945E-03   0.1000000000E-03  -0.1020226636E-04   0.1020226636E-04   0.9900000000E-02  -0.9413968281E-03   0.9413968282E-03   0.1037934082E+01  -0.2224349865E-01  -0.2224349865E-01   0.2379434881E-02  -0.2379434880E-02  -0.4523480340E-07   0.0000000000E+00   0.1060225697E+01
   0.2010000000E+01   0.9515990945E-03   0.9990484009E+00   0.1000000000E-03   0.1020226636E-04  -0.1020226636E-04   0.9900000000E-02   0.9413968282E-03  -0.9413968281E-03   0.1037934082E+01  -0.2224349865E-01  -0.2224349865E-01  -0.2379434880E-02   0.2379434881E-02  -0.4523480338E-07   0.0000000000E+00   0.1060225697E+01
   0.2010000000E+01   0.9990484009E+00   0.9990484009E+00   0.1000000000E-03  -0.1020226636E-04  -0.1020226636E-04   0.9900000000E-02  -0.9413968281E-03  -0.9413968281E-03   0.1037934082E+01  -0.2224349865E-01  -0.2224349865E-01   0.2379434881E-02   0.2379434881E-02   0.4523474054E-07   0.0000000000E+00   0.1060225697E+01
     1     2     3     4     5     6     7     8
     2     9    10     3     6    11    12     7
 VARIABLES = X,Y,Z,DU1,DU2,DU3,U1,U2,U3,S11,S22,S33,S12,S13,S23,Vf,SMISES
 ZONE, T="0.1010D+01" F=FEPOINT, I=   12 J=    2 ET=BRICK
   0.0000000000E+00   0.1449286911E-02   0.1449286911E-02   0.0000000000E+00   0.1598713618E-04   0.1598713618E-04   0.0000000000E+00   0.1433299775E-02   0.1433299775E-02   0.1070367941E+01   0.6668256185E-02   0.6668256185E-02  -0.2626835101E-02  -0.2626835101E-02   0.5826655314E-07   0.0000000000E+00   0.1063758111E+01
   0.1005545689E+01   0.1133820499E-02   0.1133820499E-02   0.4759343704E-04   0.1308273775E-04   0.1308273775E-04   0.5498095445E-02   0.1120737761E-02   0.1120737761E-02   0.1056663031E+01  -0.5319641504E-02  -0.5319641504E-02  -0.2618467652E-02  -0.2618467652E-02   0.5166850922E-07   0.0000000000E+00   0.1062040922E+01
   0.1005545689E+01   0.9988661795E+00   0.1133820499E-02   0.4759343704E-04  -0.1308273775E-04   0.1308273775E-04   0.5498095445E-02  -0.1120737761E-02   0.1120737761E-02   0.1056663031E+01  -0.5319641503E-02  -0.5319641503E-02   0.2618467653E-02  -0.2618467652E-02  -0.5166849548E-07   0.0000000000E+00   0.1062040922E+01
   0.0000000000E+00   0.9985507131E+00   0.1449286911E-02   0.0000000000E+00  -0.1598713618E-04   0.1598713618E-04   0.0000000000E+00  -0.1433299775E-02   0.1433299775E-02   0.1070367941E+01   0.6668256185E-02   0.6668256185E-02   0.2626835101E-02  -0.2626835101E-02  -0.5826655300E-07   0.0000000000E+00   0.1063758111E+01
   0.0000000000E+00   0.1449286911E-02   0.9985507131E+00   0.0000000000E+00   0.1598713618E-04  -0.1598713618E-04   0.0000000000E+00   0.1433299775E-02  -0.1433299775E-02   0.1070367941E+01   0.6668256185E-02   0.6668256185E-02  -0.2626835101E-02   0.2626835101E-02  -0.5826655298E-07   0.0000000000E+00   0.1063758111E+01
   0.1005545689E+01   0.1133820499E-02   0.9988661795E+00   0.4759343704E-04   0.1308273775E-04  -0.1308273775E-04   0.5498095445E-02   0.1120737761E-02  -0.1120737761E-02   0.1056663031E+01  -0.5319641503E-02  -0.5319641503E-02  -0.2618467652E-02   0.2618467653E-02  -0.5166849547E-07   0.0000000000E+00   0.1062040922E+01
   0.1005545689E+01   0.9988661795E+00   0.9988661795E+00   0.4759343704E-04  -0.1308273775E-04  -0.1308273775E-04   0.5498095445E-02  -0.1120737761E-02  -0.1120737761E-02   0.1056663031E+01  -0.5319641503E-02  -0.5319641503E-02   0.2618467653E-02   0.2618467653E-02   0.5166848171E-07   0.0000000000E+00   0.1062040922E+01
   0.0000000000E+00   0.9985507131E+00   0.9985507131E+00   0.0000000000E+00  -0.1598713618E-04  -0.1598713618E-04   0.0000000000E+00  -0.1433299775E-02  -0.1433299775E-02   0.1070367941E+01   0.6668256185E-02   0.6668256185E-02   0.2626835101E-02   0.2626835101E-02   0.5826655281E-07   0.0000000000E+00   0.1063758111E+01
   0.2010100000E+01   0.9615599132E-03   0.9615599132E-03   0.1000000000E-03   0.9960818627E-05   0.9960818627E-05   0.1000000000E-01   0.9515990945E-03   0.9515990945E-03   0.1042843238E+01  -0.1725009748E-01  -0.1725009748E-01  -0.2618230622E-02  -0.2618230622E-02   0.4522933050E-07   0.0000000000E+00   0.1060151585E+01
   0.2010100000E+01   0.9990384401E+00   0.9615599132E-03   0.1000000000E-03  -0.9960818626E-05   0.9960818627E-05   0.1000000000E-01  -0.9515990945E-03   0.9515990945E-03   0.1042843238E+01  -0.1725009748E-01  -0.1725009748E-01   0.2618230623E-02  -0.2618230622E-02  -0.4522923819E-07   0.0000000000E+00   0.1060151585E+01
   0.2010100000E+01   0.9615599132E-03   0.9990384401E+00   0.1000000000E-03   0.9960818627E-05  -0.9960818626E-05   0.1000000000E-01   0.9515990945E-03  -0.9515990945E-03   0.1042843238E+01  -0.1725009748E-01  -0.1725009748E-01  -0.2618230622E-02   0.2618230623E-02  -0.4522923817E-07   0.0000000000E+00   0.1060151585E+01
   0.2010100000E+01   0.9990384401E+00   0.9990384401E+00   0.1000000000E-03  -0.9960818627E-05  -0.9960818627E-05   0.1000000000E-01  -0.9515990945E-03  -0.9515990945E-03   0.1042843238E+01  -0.1725009748E-01  -0.1725009748E-01   0.2618230623E-02   0.2618230623E-02   0.4522914585E-07   0.0000000000E+00   0.1060151585E+01
     1     2     3     4     5     6     7     8
     2     9    10     3     6    11    12     7
 VARIABLES = X,Y,Z,DU1,DU2,DU3,U1,U2,U3,S11,S22,S33,S12,S13,S23,Vf,SMISES
 ZONE, T="0.1020D+01" F=FEPOINT, I=   12 J=    2 ET=BRICK
   0.0000000000E+00   0.1465024302E-02   0.1465024302E-02   0.0000000000E+00   0.1573739048E-04   0.1573739048E-04   0.0000000000E+00   0.1449286911E-02   0.1449286911E-02   0.1059590122E+01  -0.4055747685E-02  -0.4055747685E-02  -0.2835174519E-02  -0.2835174519E-02   0.5764734487E-07   0.0000000000E+00   0.1063713926E+01
   0.1005593280E+01   0.1146725318E-02   0.1146725318E-02   0.4759099525E-04   0.1290481849E-04   0.1290481849E-04   0.5545688882E-02   0.1133820499E-02   0.1133820499E-02   0.1054155370E+01  -0.7719815449E-02  -0.7719815449E-02  -0.2842519378E-02  -0.2842519378E-02   0.5151669711E-07   0.0000000000E+00   0.1061943780E+01
   0.1005593280E+01   0.9988532747E+00   0.1146725318E-02   0.4759099525E-04  -0.1290481849E-04   0.1290481849E-04   0.5545688882E-02  -0.1133820499E-02   0.1133820499E-02   0.1054155370E+01  -0.7719815448E-02  -0.7719815448E-02   0.2842519378E-02  -0.2842519377E-02  -0.5151668447E-07   0.0000000000E+00   0.1061943780E+01
   0.0000000000E+00   0.9985349757E+00   0.1465024302E-02   0.0000000000E+00  -0.1573739048E-04   0.1573739048E-04   0.0000000000E+00  -0.1449286911E-02   0.1449286911E-02   0.1059590122E+01  -0.4055747684E-02  -0.4055747684E-02   0.2835174519E-02  -0.2835174519E-02  -0.5764737765E-07   0.0000000000E+00   0.1063713926E+01
   0.0000000000E+00   0.1465024302E-02   0.9985349757E+00   0.0000000000E+00   0.1573739048E-04  -0.1573739048E-04   0.0000000000E+00   0.1449286911E-02  -0.1449286911E-02   0.1059590122E+01  -0.4055747684E-02  -0.4055747684E-02  -0.2835174519E-02   0.2835174519E-02  -0.5764737763E-07   0.0000000000E+00   0.1063713926E+01
   0.1005593280E+01   0.1146725318E-02   0.9988532747E+00   0.4759099525E-04   0.1290481849E-04  -0.1290481849E-04   0.5545688882E-02   0.1133820499E-02  -0.1133820499E-02   0.1054155370E+01  -0.7719815448E-02  -0.7719815448E-02  -0.2842519377E-02   0.2842519378E-02  -0.5151668447E-07   0.0000000000E+00   0.1061943780E+01
   0.1005593280E+01   0.9988532747E+00   0.9988532747E+00   0.4759099525E-04  -0.1290481849E-04  -0.1290481849E-04   0.5545688882E-02  -0.1133820499E-02  -0.1133820499E-02   0.1054155370E+01  -0.7719815448E-02  -0.7719815448E-02   0.2842519378E-02   0.2842519378E-02   0.5151667182E-07   0.0000000000E+00   0.1061943780E+01
   0.0000000000E+00   0.9985349757E+00   0.9985349757E+00   0.0000000000E+00  -0.1573739048E-04  -0.1573739048E-04   0.0000000000E+00  -0.1449286911E-02  -0.1449286911E-02   0.1059590121E+01  -0.4055747684E-02  -0.4055747684E-02   0.2835174519E-02   0.2835174519E-02   0.5764741037E-07   0.0000000000E+00   0.1063713926E+01
   0.2010200000E+01   0.9714122299E-03   0.9714122299E-03   0.1000000000E-03   0.9852316709E-05   0.9852316709E-05   0.1010000000E-01   0.9615599132E-03   0.9615599132E-03   0.1048599640E+01  -0.1132339407E-01  -0.1132339407E-01  -0.2857846572E-02  -0.2857846572E-02   0.4554272366E-07   0.0000000000E+00   0.1059992433E+01
   0.2010200000E+01   0.9990285878E+00   0.9714122299E-03   0.1000000000E-03  -0.9852316709E-05   0.9852316709E-05   0.1010000000E-01  -0.9615599131E-03   0.9615599132E-03   0.1048599640E+01  -0.1132339407E-01  -0.1132339407E-01   0.2857846572E-02  -0.2857846572E-02  -0.4554260216E-07   0.0000000000E+00   0.1059992433E+01
   0.2010200000E+01   0.9714122299E-03   0.9990285878E+00   0.1000000000E-03   0.9852316709E-05  -0.9852316709E-05   0.1010000000E-01   0.9615599132E-03  -0.9615599131E-03   0.1048599640E+01  -0.1132339407E-01  -0.1132339407E-01  -0.2857846572E-02   0.2857846572E-02  -0.4554260215E-07   0.0000000000E+00   0.1059992433E+01
   0.2010200000E+01   0.9990285878E+00   0.9990285878E+00   0.1000000000E-03  -0.9852316709E-05  -0.9852316709E-05   0.1010000000E-01  -0.9615599131E-03  -0.9615599131E-03   0.1048599640E+01  -0.1132339407E-01  -0.1132339407E-01   0.2857846572E-02   0.2857846572E-02   0.4554248066E-07   0.0000000000E+00   0.1059992433E+01
     1     2     3     4     5     6     7     8
     2     9    10     3     6    11    12     7
 VARIABLES = X,Y,Z,DU1,DU2,DU3,U1,U2,U3,S11,S22,S33,S12,S13,S23,Vf,SMISES
 ZONE, T="0.1030D+01" F=FEPOINT, I=   12 J=    2 ET=BRICK
   0.0000000000E+00   0.1480320385E-02   0.1480320385E-02   0.0000000000E+00   0.1529608374E-04   0.1529608374E-04   0.0000000000E+00   0.1465024302E-02   0.1465024302E-02   0.1049517804E+01  -0.1388074773E-01  -0.1388074773E-01  -0.3024539392E-02  -0.3024539392E-02   0.5719397679E-07   0.0000000000E+00   0.1063476013E+01
   0.1005641031E+01   0.1159426011E-02   0.1159426011E-02   0.4775074181E-04   0.1270069370E-04   0.1270069370E-04   0.5593279878E-02   0.1146725318E-02   0.1146725318E-02   0.1052259411E+01  -0.9378861160E-02  -0.9378861160E-02  -0.3047092154E-02  -0.3047092154E-02   0.5152951296E-07   0.0000000000E+00   0.1061717072E+01
   0.1005641031E+01   0.9988405740E+00   0.1159426011E-02   0.4775074181E-04  -0.1270069370E-04   0.1270069370E-04   0.5593279878E-02  -0.1146725318E-02   0.1146725318E-02   0.1052259411E+01  -0.9378861160E-02  -0.9378861160E-02   0.3047092154E-02  -0.3047092154E-02  -0.5152949991E-07   0.0000000000E+00   0.1061717072E+01
   0.0000000000E+00   0.9985196796E+00   0.1480320385E-02   0.0000000000E+00  -0.1529608374E-04   0.1529608374E-04   0.0000000000E+00  -0.1465024302E-02   0.1465024302E-02   0.1049517804E+01  -0.1388074773E-01  -0.1388074773E-01   0.3024539392E-02  -0.3024539392E-02  -0.5719403839E-07   0.0000000000E+00   0.1063476013E+01
   0.0000000000E+00   0.1480320385E-02   0.9985196796E+00   0.0000000000E+00   0.1529608374E-04  -0.1529608374E-04   0.0000000000E+00   0.1465024302E-02  -0.1465024302E-02   0.1049517804E+01  -0.1388074773E-01  -0.1388074773E-01  -0.3024539392E-02   0.3024539392E-02  -0.5719403837E-07   0.0000000000E+00   0.1063476013E+01
   0.1005641031E+01   0.1159426011E-02   0.9988405740E+00   0.4775074181E-04   0.1270069370E-04  -0.1270069370E-04   0.5593279878E-02   0.1146725318E-02  -0.1146725318E-02   0.1052259411E+01  -0.9378861160E-02  -0.9378861160E-02  -0.3047092154E-02   0.3047092154E-02  -0.5152949991E-07   0.0000000000E+00   0.1061717072E+01
   0.1005641031E+01   0.9988405740E+00   0.9988405740E+00   0.4775074181E-04  -0.1270069370E-04  -0.1270069370E-04   0.5593279877E-02  -0.1146725318E-02  -0.1146725318E-02   0.1052259411E+01  -0.9378861159E-02  -0.9378861159E-02   0.3047092154E-02   0.3047092154E-02   0.5152948685E-07   0.0000000000E+00   0.1061717072E+01
   0.0000000000E+00   0.9985196796E+00   0.9985196796E+00   0.0000000000E+00  -0.1529608374E-04  -0.1529608374E-04   0.0000000000E+00  -0.1465024302E-02  -0.1465024302E-02   0.1049517803E+01  -0.1388074773E-01  -0.1388074773E-01   0.3024539392E-02   0.3024539392E-02   0.5719409993E-07   0.0000000000E+00   0.1063476013E+01
   0.2010300000E+01   0.9812965414E-03   0.9812965414E-03   0.1000000000E-03   0.9884311575E-05   0.9884311575E-05   0.1020000000E-01   0.9714122299E-03   0.9714122299E-03   0.1054875861E+01  -0.4814395630E-02  -0.4814395630E-02  -0.3077533941E-02  -0.3077533941E-02   0.4601900967E-07   0.0000000000E+00   0.1059770744E+01
   0.2010300000E+01   0.9990187035E+00   0.9812965414E-03   0.1000000000E-03  -0.9884311575E-05   0.9884311576E-05   0.1020000000E-01  -0.9714122298E-03   0.9714122299E-03   0.1054875861E+01  -0.4814395630E-02  -0.4814395630E-02   0.3077533941E-02  -0.3077533941E-02  -0.4601886018E-07   0.0000000000E+00   0.1059770744E+01
   0.2010300000E+01   0.9812965414E-03   0.9990187035E+00   0.1000000000E-03   0.9884311576E-05  -0.9884311575E-05   0.1020000000E-01   0.9714122299E-03  -0.9714122298E-03   0.1054875861E+01  -0.4814395630E-02  -0.4814395630E-02  -0.3077533941E-02   0.3077533941E-02  -0.4601886016E-07   0.0000000000E+00   0.1059770744E+01
   0.2010300000E+01   0.9990187035E+00   0.9990187035E+00   0.1000000000E-03  -0.9884311575E-05  -0.9884311575E-05   0.1020000000E-01  -0.9714122298E-03  -0.9714122298E-03   0.1054875861E+01  -0.4814395629E-02  -0.4814395629E-02   0.3077533941E-02   0.3077533941E-02   0.4601871069E-07   0.0000000000E+00   0.1059770744E+01
     1     2     3     4     5     6     7     8
     2     9    10     3     6    11    12     7
 VARIABLES = X,Y,Z,DU1,DU2,DU3,U1,U2,U3,S11,S22,S33,S12,S13,S23,Vf,SMISES
 ZONE, T="0.1040D+01" F=FEPOINT, I=   12 J=    2 ET=BRICK
   0.0000000000E+00   0.1495019938E-02   0.1495019938E-02   0.0000000000E+00   0.1469955252E-04   0.1469955252E-04   0.0000000000E+00   0.1480320385E-02   0.1480320385E-02   0.1040752874E+01  -0.2222827170E-01  -0.2222827170E-01  -0.3176655764E-02  -0.3176655764E-02   0.5671934951E-07   0.0000000000E+00   0.1063066623E+01
   0.1005689086E+01   0.1171914053E-02   0.1171914053E-02   0.4805557149E-04   0.1248804156E-04   0.1248804156E-04   0.5641030619E-02   0.1159426011E-02   0.1159426011E-02   0.1051094217E+01  -0.1020372630E-01  -0.1020372630E-01  -0.3213711769E-02  -0.3213711769E-02   0.5151392329E-07   0.0000000000E+00   0.1061385595E+01
   0.1005689086E+01   0.9988280859E+00   0.1171914053E-02   0.4805557149E-04  -0.1248804156E-04   0.1248804156E-04   0.5641030619E-02  -0.1159426011E-02   0.1159426011E-02   0.1051094216E+01  -0.1020372630E-01  -0.1020372630E-01   0.3213711770E-02  -0.3213711769E-02  -0.5151390816E-07   0.0000000000E+00   0.1061385595E+01
   0.0000000000E+00   0.9985049801E+00   0.1495019938E-02   0.0000000000E+00  -0.1469955251E-04   0.1469955252E-04   0.0000000000E+00  -0.1480320385E-02   0.1480320385E-02   0.1040752874E+01  -0.2222827170E-01  -0.2222827170E-01   0.3176655764E-02  -0.3176655764E-02  -0.5671943461E-07   0.0000000000E+00   0.1063066623E+01
   0.0000000000E+00   0.1495019938E-02   0.9985049801E+00   0.0000000000E+00   0.1469955252E-04  -0.1469955251E-04   0.0000000000E+00   0.1480320385E-02  -0.1480320385E-02   0.1040752874E+01  -0.2222827170E-01  -0.2222827170E-01  -0.3176655764E-02   0.3176655764E-02  -0.5671943459E-07   0.0000000000E+00   0.1063066623E+01
   0.1005689086E+01   0.1171914053E-02   0.9988280859E+00   0.4805557149E-04   0.1248804156E-04  -0.1248804156E-04   0.5641030619E-02   0.1159426011E-02  -0.1159426011E-02   0.1051094216E+01  -0.1020372630E-01  -0.1020372630E-01  -0.3213711769E-02   0.3213711770E-02  -0.5151390816E-07   0.0000000000E+00   0.1061385595E+01
   0.1005689086E+01   0.9988280859E+00   0.9988280859E+00   0.4805557149E-04  -0.1248804156E-04  -0.1248804156E-04   0.5641030619E-02  -0.1159426011E-02  -0.1159426011E-02   0.1051094216E+01  -0.1020372630E-01  -0.1020372630E-01   0.3213711770E-02   0.3213711770E-02   0.5151389302E-07   0.0000000000E+00   0.1061385595E+01
   0.0000000000E+00   0.9985049801E+00   0.9985049801E+00   0.0000000000E+00  -0.1469955251E-04  -0.1469955251E-04   0.0000000000E+00  -0.1480320385E-02  -0.1480320385E-02   0.1040752874E+01  -0.2222827170E-01  -0.2222827170E-01   0.3176655764E-02   0.3176655764E-02   0.5671951963E-07   0.0000000000E+00   0.1063066623E+01
   0.2010400000E+01   0.9913522689E-03   0.9913522689E-03   0.1000000000E-03   0.1005572745E-04   0.1005572745E-04   0.1030000000E-01   0.9812965414E-03   0.9812965414E-03   0.1061308067E+01   0.1884565289E-02   0.1884565289E-02  -0.3258613147E-02  -0.3258613147E-02   0.4645986188E-07   0.0000000000E+00   0.1059513754E+01
   0.2010400000E+01   0.9990086477E+00   0.9913522689E-03   0.1000000000E-03  -0.1005572745E-04   0.1005572745E-04   0.1030000000E-01  -0.9812965414E-03   0.9812965414E-03   0.1061308067E+01   0.1884565289E-02   0.1884565288E-02   0.3258613147E-02  -0.3258613147E-02  -0.4645968651E-07   0.0000000000E+00   0.1059513753E+01
   0.2010400000E+01   0.9913522689E-03   0.9990086477E+00   0.1000000000E-03   0.1005572745E-04  -0.1005572745E-04   0.1030000000E-01   0.9812965414E-03  -0.9812965414E-03   0.1061308067E+01   0.1884565288E-02   0.1884565289E-02  -0.3258613147E-02   0.3258613147E-02  -0.4645968649E-07   0.0000000000E+00   0.1059513753E+01
   0.2010400000E+01   0.9990086477E+00   0.9990086477E+00   0.1000000000E-03  -0.1005572745E-04  -0.1005572745E-04   0.1030000000E-01  -0.9812965414E-03  -0.9812965414E-03   0.1061308067E+01   0.1884565289E-02   0.1884565289E-02   0.3258613147E-02   0.3258613147E-02   0.4645951113E-07   0.0000000000E+00   0.1059513753E+01
     1     2     3     4     5     6     7     8
     2     9    10     3     6    11    12     7
 VARIABLES = X,Y,Z,DU1,DU2,DU3,U1,U2,U3,S11,S22,S33,S12,S13,S23,Vf,SMISES
 ZONE, T="0.1050D+01" F=FEPOINT, I=   12 J=    2 ET=BRICK
   0.0000000000E+00   0.1509012144E-02   0.1509012144E-02   0.0000000000E+00   0.1399220625E-04   0.1399220625E-04   0.0000000000E+00   0.1495019938E-02   0.1495019938E-02   0.1033781592E+01  -0.2864630916E-01  -0.2864630916E-01  -0.3276360480E-02  -0.3276360480E-02   0.5602558312E-07   0.0000000000E+00   0.1062518872E+01
   0.1005737567E+01   0.1184198311E-02   0.1184198311E-02   0.4848032703E-04   0.1228425818E-04   0.1228425818E-04   0.5689086191E-02   0.1171914053E-02   0.1171914053E-02   0.1050713918E+01  -0.1017297225E-01  -0.1017297225E-01  -0.3327015161E-02  -0.3327015161E-02   0.5126366784E-07   0.0000000000E+00   0.1060980849E+01
   0.1005737567E+01   0.9988158017E+00   0.1184198311E-02   0.4848032703E-04  -0.1228425818E-04   0.1228425818E-04   0.5689086191E-02  -0.1171914053E-02   0.1171914053E-02   0.1050713918E+01  -0.1017297225E-01  -0.1017297225E-01   0.3327015162E-02  -0.3327015161E-02  -0.5126364900E-07   0.0000000000E+00   0.1060980849E+01
   0.0000000000E+00   0.9984909879E+00   0.1509012144E-02   0.0000000000E+00  -0.1399220625E-04   0.1399220625E-04   0.0000000000E+00  -0.1495019938E-02   0.1495019938E-02   0.1033781592E+01  -0.2864630916E-01  -0.2864630916E-01   0.3276360480E-02  -0.3276360480E-02  -0.5602568556E-07   0.0000000000E+00   0.1062518872E+01
   0.0000000000E+00   0.1509012144E-02   0.9984909879E+00   0.0000000000E+00   0.1399220625E-04  -0.1399220625E-04   0.0000000000E+00   0.1495019938E-02  -0.1495019938E-02   0.1033781592E+01  -0.2864630916E-01  -0.2864630916E-01  -0.3276360480E-02   0.3276360480E-02  -0.5602568554E-07   0.0000000000E+00   0.1062518872E+01
   0.1005737567E+01   0.1184198311E-02   0.9988158017E+00   0.4848032703E-04   0.1228425818E-04  -0.1228425818E-04   0.5689086191E-02   0.1171914053E-02  -0.1171914053E-02   0.1050713918E+01  -0.1017297225E-01  -0.1017297225E-01  -0.3327015161E-02   0.3327015162E-02  -0.5126364899E-07   0.0000000000E+00   0.1060980849E+01
   0.1005737567E+01   0.9988158017E+00   0.9988158017E+00   0.4848032703E-04  -0.1228425818E-04  -0.1228425818E-04   0.5689086191E-02  -0.1171914053E-02  -0.1171914053E-02   0.1050713918E+01  -0.1017297225E-01  -0.1017297225E-01   0.3327015162E-02   0.3327015162E-02   0.5126363014E-07   0.0000000000E+00   0.1060980849E+01
   0.0000000000E+00   0.9984909879E+00   0.9984909879E+00   0.0000000000E+00  -0.1399220625E-04  -0.1399220625E-04   0.0000000000E+00  -0.1495019938E-02  -0.1495019938E-02   0.1033781592E+01  -0.2864630916E-01  -0.2864630916E-01   0.3276360480E-02   0.3276360480E-02   0.5602578792E-07   0.0000000000E+00   0.1062518872E+01
   0.2010500000E+01   0.1001709114E-02   0.1001709114E-02   0.1000000000E-03   0.1035684518E-04   0.1035684518E-04   0.1040000000E-01   0.9913522689E-03   0.9913522689E-03   0.1067518088E+01   0.8364442888E-02   0.8364442888E-02  -0.3385508155E-02  -0.3385508155E-02   0.4665103779E-07   0.0000000000E+00   0.1059251082E+01
   0.2010500000E+01   0.9989982909E+00   0.1001709114E-02   0.1000000000E-03  -0.1035684518E-04   0.1035684518E-04   0.1040000000E-01  -0.9913522688E-03   0.9913522689E-03   0.1067518088E+01   0.8364442888E-02   0.8364442888E-02   0.3385508155E-02  -0.3385508155E-02  -0.4665083956E-07   0.0000000000E+00   0.1059251082E+01
   0.2010500000E+01   0.1001709114E-02   0.9989982909E+00   0.1000000000E-03   0.1035684518E-04  -0.1035684518E-04   0.1040000000E-01   0.9913522689E-03  -0.9913522688E-03   0.1067518088E+01   0.8364442888E-02   0.8364442888E-02  -0.3385508155E-02   0.3385508155E-02  -0.4665083954E-07   0.0000000000E+00   0.1059251082E+01
   0.2010500000E+01   0.9989982909E+00   0.9989982909E+00   0.1000000000E-03  -0.1035684518E-04  -0.1035684518E-04   0.1040000000E-01  -0.9913522688E-03  -0.9913522688E-03   0.1067518088E+01   0.8364442888E-02   0.8364442888E-02   0.3385508155E-02   0.3385508155E-02   0.4665064133E-07   0.0000000000E+00   0.1059251082E+01
     1     2     3     4     5     6     7     8
     2     9    10     3     6    11    12     7
 VARIABLES = X,Y,Z,DU1,DU2,DU3,U1,U2,U3,S11,S22,S33,S12,S13,S23,Vf,SMISES
 ZONE, T="0.1060D+01" F=FEPOINT, I=   12 J=    2 ET=BRICK
   0.0000000000E+00   0.1522235385E-02   0.1522235385E-02   0.0000000000E+00   0.1322324058E-04   0.1322324058E-04   0.0000000000E+00   0.1509012144E-02   0.1509012144E-02   0.1028949356E+01  -0.3283146107E-01  -0.3283146107E-01  -0.3312373150E-02  -0.3312373150E-02   0.5493566328E-07   0.0000000000E+00   0.1061873852E+01
   0.1005786560E+01   0.1196303394E-02   0.1196303394E-02   0.4899358056E-04   0.1210508326E-04   0.1210508326E-04   0.5737566518E-02   0.1184198311E-02   0.1184198311E-02   0.1051106885E+01  -0.9334697527E-02  -0.9334697527E-02  -0.3375545305E-02  -0.3375545305E-02   0.5059214492E-07   0.0000000000E+00   0.1060538331E+01
   0.1005786560E+01   0.9988036966E+00   0.1196303394E-02   0.4899358056E-04  -0.1210508326E-04   0.1210508326E-04   0.5737566518E-02  -0.1184198311E-02   0.1184198311E-02   0.1051106885E+01  -0.9334697527E-02  -0.9334697527E-02   0.3375545305E-02  -0.3375545305E-02  -0.5059212095E-07   0.0000000000E+00   0.1060538331E+01
   0.0000000000E+00   0.9984777646E+00   0.1522235385E-02   0.0000000000E+00  -0.1322324058E-04   0.1322324058E-04   0.0000000000E+00  -0.1509012144E-02   0.1509012144E-02   0.1028949356E+01  -0.3283146106E-01  -0.3283146106E-01   0.3312373150E-02  -0.3312373150E-02  -0.5493577650E-07   0.0000000000E+00   0.1061873852E+01
   0.0000000000E+00   0.1522235385E-02   0.9984777646E+00   0.0000000000E+00   0.1322324058E-04  -0.1322324058E-04   0.0000000000E+00   0.1509012144E-02  -0.1509012144E-02   0.1028949356E+01  -0.3283146106E-01  -0.3283146106E-01  -0.3312373150E-02   0.3312373150E-02  -0.5493577648E-07   0.0000000000E+00   0.1061873852E+01
   0.1005786560E+01   0.1196303394E-02   0.9988036966E+00   0.4899358056E-04   0.1210508326E-04  -0.1210508326E-04   0.5737566518E-02   0.1184198311E-02  -0.1184198311E-02   0.1051106885E+01  -0.9334697527E-02  -0.9334697527E-02  -0.3375545305E-02   0.3375545305E-02  -0.5059212094E-07   0.0000000000E+00   0.1060538331E+01
   0.1005786560E+01   0.9988036966E+00   0.9988036966E+00   0.4899358056E-04  -0.1210508326E-04  -0.1210508326E-04   0.5737566518E-02  -0.1184198311E-02  -0.1184198311E-02   0.1051106885E+01  -0.9334697526E-02  -0.9334697526E-02   0.3375545305E-02   0.3375545305E-02   0.5059209695E-07   0.0000000000E+00   0.1060538331E+01
   0.0000000000E+00   0.9984777646E+00   0.9984777646E+00   0.0000000000E+00  -0.1322324058E-04  -0.1322324058E-04   0.0000000000E+00  -0.1509012144E-02  -0.1509012144E-02   0.1028949356E+01  -0.3283146106E-01  -0.3283146106E-01   0.3312373150E-02   0.3312373150E-02   0.5493588964E-07   0.0000000000E+00   0.1061873852E+01
   0.2010600000E+01   0.1012478957E-02   0.1012478957E-02   0.1000000000E-03   0.1076984326E-04   0.1076984326E-04   0.1050000000E-01   0.1001709114E-02   0.1001709114E-02   0.1073137001E+01   0.1422577299E-01   0.1422577299E-01  -0.3446566497E-02  -0.3446566497E-02   0.4639649150E-07   0.0000000000E+00   0.1059012230E+01
   0.2010600000E+01   0.9989875210E+00   0.1012478957E-02   0.1000000000E-03  -0.1076984326E-04   0.1076984326E-04   0.1050000000E-01  -0.1001709114E-02   0.1001709114E-02   0.1073137001E+01   0.1422577298E-01   0.1422577298E-01   0.3446566497E-02  -0.3446566497E-02  -0.4639627430E-07   0.0000000000E+00   0.1059012230E+01
   0.2010600000E+01   0.1012478957E-02   0.9989875210E+00   0.1000000000E-03   0.1076984326E-04  -0.1076984326E-04   0.1050000000E-01   0.1001709114E-02  -0.1001709114E-02   0.1073137001E+01   0.1422577298E-01   0.1422577298E-01  -0.3446566497E-02   0.3446566497E-02  -0.4639627428E-07   0.0000000000E+00   0.1059012230E+01
   0.2010600000E+01   0.9989875210E+00   0.9989875210E+00   0.1000000000E-03  -0.1076984326E-04  -0.1076984326E-04   0.1050000000E-01  -0.1001709114E-02  -0.1001709114E-02   0.1073137001E+01   0.1422577298E-01   0.1422577298E-01   0.3446566497E-02   0.3446566497E-02   0.4639605709E-07   0.0000000000E+00   0.1059012230E+01
     1     2     3     4     5     6     7     8
     2     9    10     3     6    11    12     7
 VARIABLES = X,Y,Z,DU1,DU2,DU3,U1,U2,U3,S11,S22,S33,S12,S13,S23,Vf,SMISES
 ZONE, T="0.1070D+01" F=FEPOINT, I=   12 J=    2 ET=BRICK
   0.0000000000E+00   0.1534678613E-02   0.1534678613E-02   0.0000000000E+00   0.1244322861E-04   0.1244322861E-04   0.0000000000E+00   0.1522235385E-02   0.1522235385E-02   0.1026446164E+01  -0.3464008690E-01  -0.3464008690E-01  -0.3277817264E-02  -0.3277817264E-02   0.5332445543E-07   0.0000000000E+00   0.1061177413E+01
   0.1005836120E+01   0.1208266825E-02   0.1208266825E-02   0.4955973460E-04   0.1196343062E-04   0.1196343062E-04   0.5786560098E-02   0.1196303394E-02   0.1196303394E-02   0.1052200197E+01  -0.7799016169E-02  -0.7799016169E-02  -0.3352294283E-02  -0.3352294283E-02   0.4936483383E-07   0.0000000000E+00   0.1060094666E+01
   0.1005836120E+01   0.9987917332E+00   0.1208266825E-02   0.4955973460E-04  -0.1196343062E-04   0.1196343062E-04   0.5786560098E-02  -0.1196303394E-02   0.1196303394E-02   0.1052200197E+01  -0.7799016169E-02  -0.7799016169E-02   0.3352294283E-02  -0.3352294283E-02  -0.4936480365E-07   0.0000000000E+00   0.1060094666E+01
   0.0000000000E+00   0.9984653214E+00   0.1534678613E-02   0.0000000000E+00  -0.1244322861E-04   0.1244322861E-04   0.0000000000E+00  -0.1522235385E-02   0.1522235385E-02   0.1026446164E+01  -0.3464008690E-01  -0.3464008690E-01   0.3277817264E-02  -0.3277817264E-02  -0.5332457285E-07   0.0000000000E+00   0.1061177413E+01
   0.0000000000E+00   0.1534678613E-02   0.9984653214E+00   0.0000000000E+00   0.1244322861E-04  -0.1244322861E-04   0.0000000000E+00   0.1522235385E-02  -0.1522235385E-02   0.1026446164E+01  -0.3464008690E-01  -0.3464008690E-01  -0.3277817264E-02   0.3277817264E-02  -0.5332457284E-07   0.0000000000E+00   0.1061177413E+01
   0.1005836120E+01   0.1208266825E-02   0.9987917332E+00   0.4955973460E-04   0.1196343062E-04  -0.1196343062E-04   0.5786560098E-02   0.1196303394E-02  -0.1196303394E-02   0.1052200197E+01  -0.7799016169E-02  -0.7799016169E-02  -0.3352294283E-02   0.3352294283E-02  -0.4936480365E-07   0.0000000000E+00   0.1060094666E+01
   0.1005836120E+01   0.9987917332E+00   0.9987917332E+00   0.4955973460E-04  -0.1196343062E-04  -0.1196343062E-04   0.5786560098E-02  -0.1196303394E-02  -0.1196303394E-02   0.1052200197E+01  -0.7799016168E-02  -0.7799016168E-02   0.3352294283E-02   0.3352294283E-02   0.4936477346E-07   0.0000000000E+00   0.1060094666E+01
   0.0000000000E+00   0.9984653214E+00   0.9984653214E+00   0.0000000000E+00  -0.1244322861E-04  -0.1244322861E-04   0.0000000000E+00  -0.1522235385E-02  -0.1522235385E-02   0.1026446164E+01  -0.3464008690E-01  -0.3464008690E-01   0.3277817263E-02   0.3277817263E-02   0.5332469020E-07   0.0000000000E+00   0.1061177413E+01
   0.2010700000E+01   0.1023748828E-02   0.1023748828E-02   0.1000000000E-03   0.1126987084E-04   0.1126987084E-04   0.1060000000E-01   0.1012478957E-02   0.1012478957E-02   0.1077828641E+01   0.1910484898E-01   0.1910484898E-01  -0.3434627041E-02  -0.3434627041E-02   0.4555224214E-07   0.0000000000E+00   0.1058824111E+01
   0.2010700000E+01   0.9989762512E+00   0.1023748828E-02   0.1000000000E-03  -0.1126987084E-04   0.1126987084E-04   0.1060000000E-01  -0.1012478957E-02   0.1012478957E-02   0.1077828641E+01   0.1910484898E-01   0.1910484898E-01   0.3434627041E-02  -0.3434627041E-02  -0.4555201055E-07   0.0000000000E+00   0.1058824111E+01
   0.2010700000E+01   0.1023748828E-02   0.9989762512E+00   0.1000000000E-03   0.1126987084E-04  -0.1126987084E-04   0.1060000000E-01   0.1012478957E-02  -0.1012478957E-02   0.1077828641E+01   0.1910484898E-01   0.1910484898E-01  -0.3434627041E-02   0.3434627041E-02  -0.4555201053E-07   0.0000000000E+00   0.1058824111E+01
   0.2010700000E+01   0.9989762512E+00   0.9989762512E+00   0.1000000000E-03  -0.1126987084E-04  -0.1126987084E-04   0.1060000000E-01  -0.1012478957E-02  -0.1012478957E-02   0.1077828641E+01   0.1910484898E-01   0.1910484898E-01   0.3434627040E-02   0.3434627040E-02   0.4555177898E-07   0.0000000000E+00   0.1058824111E+01
     1     2     3     4     5     6     7     8
     2     9    10     3     6    11    12     7
 VARIABLES = X,Y,Z,DU1,DU2,DU3,U1,U2,U3,S11,S22,S33,S12,S13,S23,Vf,SMISES
 ZONE, T="0.1080D+01" F=FEPOINT, I=   12 J=    2 ET=BRICK
   0.0000000000E+00   0.1546379432E-02   0.1546379432E-02   0.0000000000E+00   0.1170081870E-04   0.1170081870E-04   0.0000000000E+00   0.1534678613E-02   0.1534678613E-02   0.1026303077E+01  -0.3408837163E-01  -0.3408837163E-01  -0.3170475215E-02  -0.3170475215E-02   0.5114172846E-07   0.0000000000E+00   0.1060476793E+01
   0.1005886261E+01   0.1220135332E-02   0.1220135332E-02   0.5014130529E-04   0.1186850655E-04   0.1186850655E-04   0.5836119833E-02   0.1208266825E-02   0.1208266825E-02   0.1053868774E+01  -0.5725971597E-02  -0.5725971597E-02  -0.3254974604E-02  -0.3254974604E-02   0.4752365518E-07   0.0000000000E+00   0.1059684769E+01
   0.1005886261E+01   0.9987798647E+00   0.1220135332E-02   0.5014130529E-04  -0.1186850655E-04   0.1186850655E-04   0.5836119833E-02  -0.1208266825E-02   0.1208266825E-02   0.1053868774E+01  -0.5725971596E-02  -0.5725971596E-02   0.3254974604E-02  -0.3254974603E-02  -0.4752361819E-07   0.0000000000E+00   0.1059684769E+01
   0.0000000000E+00   0.9984536206E+00   0.1546379432E-02   0.0000000000E+00  -0.1170081870E-04   0.1170081870E-04   0.0000000000E+00  -0.1534678613E-02   0.1534678613E-02   0.1026303077E+01  -0.3408837163E-01  -0.3408837163E-01   0.3170475214E-02  -0.3170475214E-02  -0.5114184392E-07   0.0000000000E+00   0.1060476793E+01
   0.0000000000E+00   0.1546379432E-02   0.9984536206E+00   0.0000000000E+00   0.1170081870E-04  -0.1170081870E-04   0.0000000000E+00   0.1534678613E-02  -0.1534678613E-02   0.1026303077E+01  -0.3408837163E-01  -0.3408837163E-01  -0.3170475214E-02   0.3170475214E-02  -0.5114184390E-07   0.0000000000E+00   0.1060476793E+01
   0.1005886261E+01   0.1220135332E-02   0.9987798647E+00   0.5014130529E-04   0.1186850655E-04  -0.1186850655E-04   0.5836119833E-02   0.1208266825E-02  -0.1208266825E-02   0.1053868774E+01  -0.5725971596E-02  -0.5725971596E-02  -0.3254974603E-02   0.3254974604E-02  -0.4752361819E-07   0.0000000000E+00   0.1059684769E+01
   0.1005886261E+01   0.9987798647E+00   0.9987798647E+00   0.5014130529E-04  -0.1186850655E-04  -0.1186850655E-04   0.5836119833E-02  -0.1208266825E-02  -0.1208266825E-02   0.1053868774E+01  -0.5725971596E-02  -0.5725971596E-02   0.3254974604E-02   0.3254974604E-02   0.4752358120E-07   0.0000000000E+00   0.1059684769E+01
   0.0000000000E+00   0.9984536206E+00   0.9984536206E+00   0.0000000000E+00  -0.1170081870E-04  -0.1170081870E-04   0.0000000000E+00  -0.1534678613E-02  -0.1534678613E-02   0.1026303077E+01  -0.3408837163E-01  -0.3408837163E-01   0.3170475214E-02   0.3170475214E-02   0.5114195931E-07   0.0000000000E+00   0.1060476793E+01
   0.2010800000E+01   0.1035575418E-02   0.1035575418E-02   0.1000000000E-03   0.1182658944E-04   0.1182658944E-04   0.1070000000E-01   0.1023748828E-02   0.1023748828E-02   0.1081311445E+01   0.2269794176E-01   0.2269794176E-01  -0.3347310508E-02  -0.3347310508E-02   0.4405214720E-07   0.0000000000E+00   0.1058708795E+01
   0.2010800000E+01   0.9989644246E+00   0.1035575418E-02   0.1000000000E-03  -0.1182658944E-04   0.1182658944E-04   0.1070000000E-01  -0.1023748828E-02   0.1023748828E-02   0.1081311445E+01   0.2269794176E-01   0.2269794175E-01   0.3347310508E-02  -0.3347310508E-02  -0.4405190639E-07   0.0000000000E+00   0.1058708795E+01
   0.2010800000E+01   0.1035575418E-02   0.9989644246E+00   0.1000000000E-03   0.1182658944E-04  -0.1182658944E-04   0.1070000000E-01   0.1023748828E-02  -0.1023748828E-02   0.1081311445E+01   0.2269794175E-01   0.2269794176E-01  -0.3347310508E-02   0.3347310508E-02  -0.4405190637E-07   0.0000000000E+00   0.1058708795E+01
   0.2010800000E+01   0.9989644246E+00   0.9989644246E+00   0.1000000000E-03  -0.1182658944E-04  -0.1182658944E-04   0.1070000000E-01  -0.1023748828E-02  -0.1023748828E-02   0.1081311445E+01   0.2269794175E-01   0.2269794175E-01   0.3347310507E-02   0.3347310507E-02   0.4405166560E-07   0.0000000000E+00   0.1058708795E+01
     1     2     3     4     5     6     7     8
     2     9    10     3     6    11    12     7
 VARIABLES = X,Y,Z,DU1,DU2,DU3,U1,U2,U3,S11,S22,S33,S12,S13,S23,Vf,SMISES
 ZONE, T="0.1090D+01" F=FEPOINT, I=   12 J=    2 ET=BRICK
   0.0000000000E+00   0.1557419179E-02   0.1557419179E-02   0.0000000000E+00   0.1103974679E-04   0.1103974679E-04   0.0000000000E+00   0.1546379432E-02   0.1546379432E-02   0.1028399210E+01  -0.3134197979E-01  -0.3134197979E-01  -0.2992773413E-02  -0.2992773413E-02   0.4842178094E-07   0.0000000000E+00   0.1059817282E+01
   0.1005936962E+01   0.1231960603E-02   0.1231960603E-02   0.5070124366E-04   0.1182527144E-04   0.1182527144E-04   0.5886261138E-02   0.1220135332E-02   0.1220135332E-02   0.1055948184E+01  -0.3310088336E-02  -0.3310088336E-02  -0.3086011446E-02  -0.3086011446E-02   0.4509763384E-07   0.0000000000E+00   0.1059339219E+01
   0.1005936962E+01   0.9987680394E+00   0.1231960603E-02   0.5070124366E-04  -0.1182527144E-04   0.1182527144E-04   0.5886261138E-02  -0.1220135332E-02   0.1220135332E-02   0.1055948184E+01  -0.3310088336E-02  -0.3310088336E-02   0.3086011446E-02  -0.3086011445E-02  -0.4509758998E-07   0.0000000000E+00   0.1059339219E+01
   0.0000000000E+00   0.9984425808E+00   0.1557419179E-02   0.0000000000E+00  -0.1103974679E-04   0.1103974679E-04   0.0000000000E+00  -0.1546379432E-02   0.1546379432E-02   0.1028399210E+01  -0.3134197979E-01  -0.3134197979E-01   0.2992773413E-02  -0.2992773413E-02  -0.4842188900E-07   0.0000000000E+00   0.1059817282E+01
   0.0000000000E+00   0.1557419179E-02   0.9984425808E+00   0.0000000000E+00   0.1103974679E-04  -0.1103974679E-04   0.0000000000E+00   0.1546379432E-02  -0.1546379432E-02   0.1028399210E+01  -0.3134197979E-01  -0.3134197979E-01  -0.2992773413E-02   0.2992773413E-02  -0.4842188898E-07   0.0000000000E+00   0.1059817282E+01
   0.1005936962E+01   0.1231960603E-02   0.9987680394E+00   0.5070124366E-04   0.1182527144E-04  -0.1182527144E-04   0.5886261138E-02   0.1220135332E-02  -0.1220135332E-02   0.1055948184E+01  -0.3310088336E-02  -0.3310088336E-02  -0.3086011445E-02   0.3086011446E-02  -0.4509758997E-07   0.0000000000E+00   0.1059339219E+01
   0.1005936962E+01   0.9987680394E+00   0.9987680394E+00   0.5070124366E-04  -0.1182527144E-04  -0.1182527144E-04   0.5886261138E-02  -0.1220135332E-02  -0.1220135332E-02   0.1055948184E+01  -0.3310088336E-02  -0.3310088336E-02   0.3086011446E-02   0.3086011446E-02   0.4509754612E-07   0.0000000000E+00   0.1059339219E+01
   0.0000000000E+00   0.9984425808E+00   0.9984425808E+00   0.0000000000E+00  -0.1103974679E-04  -0.1103974679E-04   0.0000000000E+00  -0.1546379432E-02  -0.1546379432E-02   0.1028399210E+01  -0.3134197979E-01  -0.3134197979E-01   0.2992773412E-02   0.2992773412E-02   0.4842199699E-07   0.0000000000E+00   0.1059817282E+01
   0.2010900000E+01   0.1047981504E-02   0.1047981504E-02   0.1000000000E-03   0.1240608629E-04   0.1240608629E-04   0.1080000000E-01   0.1035575418E-02   0.1035575418E-02   0.1083377107E+01   0.2478182877E-01   0.2478182877E-01  -0.3187021524E-02  -0.3187021524E-02   0.4191969560E-07   0.0000000000E+00   0.1058681665E+01
   0.2010900000E+01   0.9989520185E+00   0.1047981504E-02   0.1000000000E-03  -0.1240608629E-04   0.1240608629E-04   0.1080000000E-01  -0.1035575418E-02   0.1035575418E-02   0.1083377107E+01   0.2478182877E-01   0.2478182877E-01   0.3187021524E-02  -0.3187021524E-02  -0.4191945104E-07   0.0000000000E+00   0.1058681665E+01
   0.2010900000E+01   0.1047981504E-02   0.9989520185E+00   0.1000000000E-03   0.1240608629E-04  -0.1240608629E-04   0.1080000000E-01   0.1035575418E-02  -0.1035575418E-02   0.1083377107E+01   0.2478182877E-01   0.2478182877E-01  -0.3187021524E-02   0.3187021524E-02  -0.4191945102E-07   0.0000000000E+00   0.1058681665E+01
   0.2010900000E+01   0.9989520185E+00   0.9989520185E+00   0.1000000000E-03  -0.1240608629E-04  -0.1240608629E-04   0.1080000000E-01  -0.1035575418E-02  -0.1035575418E-02   0.1083377107E+01   0.2478182877E-01   0.2478182877E-01   0.3187021523E-02   0.3187021523E-02   0.4191920651E-07   0.0000000000E+00   0.1058681665E+01
     1     2     3     4     5     6     7     8
     2     9    10     3     6    11    12     7
 VARIABLES = X,Y,Z,DU1,DU2,DU3,U1,U2,U3,S11,S22,S33,S12,S13,S23,Vf,SMISES
 ZONE, T="0.1100D+01" F=FEPOINT, I=   12 J=    2 ET=BRICK
   0.0000000000E+00   0.1567915516E-02   0.1567915516E-02   0.0000000000E+00   0.1049633745E-04   0.1049633745E-04   0.0000000000E+00   0.1557419179E-02   0.1557419179E-02   0.1032478146E+01  -0.2669661997E-01  -0.2669661997E-01  -0.2751504666E-02  -0.2751504666E-02   0.4527738591E-07   0.0000000000E+00   0.1059239121E+01
   0.1005988168E+01   0.1243794873E-02   0.1243794873E-02   0.5120515382E-04   0.1183426991E-04   0.1183426991E-04   0.5936962382E-02   0.1231960603E-02   0.1231960603E-02   0.1058249894E+01  -0.7629742768E-03  -0.7629742768E-03  -0.2852261472E-02  -0.2852261472E-02   0.4219742788E-07   0.0000000000E+00   0.1059082038E+01
   0.1005988168E+01   0.9987562051E+00   0.1243794873E-02   0.5120515382E-04  -0.1183426991E-04   0.1183426991E-04   0.5936962382E-02  -0.1231960603E-02   0.1231960603E-02   0.1058249894E+01  -0.7629742767E-03  -0.7629742768E-03   0.2852261473E-02  -0.2852261472E-02  -0.4219737763E-07   0.0000000000E+00   0.1059082038E+01
   0.0000000000E+00   0.9984320845E+00   0.1567915516E-02   0.0000000000E+00  -0.1049633745E-04   0.1049633745E-04   0.0000000000E+00  -0.1557419179E-02   0.1557419179E-02   0.1032478146E+01  -0.2669661997E-01  -0.2669661997E-01   0.2751504666E-02  -0.2751504666E-02  -0.4527748214E-07   0.0000000000E+00   0.1059239121E+01
   0.0000000000E+00   0.1567915516E-02   0.9984320845E+00   0.0000000000E+00   0.1049633745E-04  -0.1049633745E-04   0.0000000000E+00   0.1557419179E-02  -0.1557419179E-02   0.1032478146E+01  -0.2669661997E-01  -0.2669661997E-01  -0.2751504666E-02   0.2751504666E-02  -0.4527748212E-07   0.0000000000E+00   0.1059239121E+01
   0.1005988168E+01   0.1243794873E-02   0.9987562051E+00   0.5120515382E-04   0.1183426991E-04  -0.1183426991E-04   0.5936962382E-02   0.1231960603E-02  -0.1231960603E-02   0.1058249894E+01  -0.7629742768E-03  -0.7629742767E-03  -0.2852261472E-02   0.2852261473E-02  -0.4219737762E-07   0.0000000000E+00   0.1059082038E+01
   0.1005988168E+01   0.9987562051E+00   0.9987562051E+00   0.5120515382E-04  -0.1183426991E-04  -0.1183426991E-04   0.5936962382E-02  -0.1231960603E-02  -0.1231960603E-02   0.1058249894E+01  -0.7629742767E-03  -0.7629742767E-03   0.2852261472E-02   0.2852261472E-02   0.4219732738E-07   0.0000000000E+00   0.1059082038E+01
   0.0000000000E+00   0.9984320845E+00   0.9984320845E+00   0.0000000000E+00  -0.1049633745E-04  -0.1049633745E-04   0.0000000000E+00  -0.1557419179E-02  -0.1557419179E-02   0.1032478146E+01  -0.2669661996E-01  -0.2669661996E-01   0.2751504666E-02   0.2751504666E-02   0.4527757831E-07   0.0000000000E+00   0.1059239121E+01
   0.2011000000E+01   0.1060954539E-02   0.1060954539E-02   0.1000000000E-03   0.1297303503E-04   0.1297303503E-04   0.1090000000E-01   0.1047981504E-02   0.1047981504E-02   0.1083904717E+01   0.2522913408E-01   0.2522913408E-01  -0.2960665979E-02  -0.2960665979E-02   0.3926320568E-07   0.0000000000E+00   0.1058750129E+01
   0.2011000000E+01   0.9989390455E+00   0.1060954539E-02   0.1000000000E-03  -0.1297303503E-04   0.1297303503E-04   0.1090000000E-01  -0.1047981504E-02   0.1047981504E-02   0.1083904717E+01   0.2522913408E-01   0.2522913408E-01   0.2960665979E-02  -0.2960665979E-02  -0.3926296292E-07   0.0000000000E+00   0.1058750129E+01
   0.2011000000E+01   0.1060954539E-02   0.9989390455E+00   0.1000000000E-03   0.1297303503E-04  -0.1297303503E-04   0.1090000000E-01   0.1047981504E-02  -0.1047981504E-02   0.1083904717E+01   0.2522913408E-01   0.2522913408E-01  -0.2960665979E-02   0.2960665979E-02  -0.3926296290E-07   0.0000000000E+00   0.1058750129E+01
   0.2011000000E+01   0.9989390455E+00   0.9989390455E+00   0.1000000000E-03  -0.1297303503E-04  -0.1297303503E-04   0.1090000000E-01  -0.1047981504E-02  -0.1047981504E-02   0.1083904717E+01   0.2522913408E-01   0.2522913408E-01   0.2960665979E-02   0.2960665979E-02   0.3926272019E-07   0.0000000000E+00   0.1058750129E+01
     1     2     3     4     5     6     7     8
     2     9    10     3     6    11    12     7
 VARIABLES = X,Y,Z,DU1,DU2,DU3,U1,U2,U3,S11,S22,S33,S12,S13,S23,Vf,SMISES
 ZONE, T="0.1110D+01" F=FEPOINT, I=   12 J=    2 ET=BRICK
   0.0000000000E+00   0.1578013142E-02   0.1578013142E-02   0.0000000000E+00   0.1009762558E-04   0.1009762558E-04   0.0000000000E+00   0.1567915516E-02   0.1567915516E-02   0.1038172109E+01  -0.2055136902E-01  -0.2055136902E-01  -0.2457306335E-02  -0.2457306335E-02   0.4187931349E-07   0.0000000000E+00   0.1058774830E+01
   0.1006039791E+01   0.1255686697E-02   0.1255686697E-02   0.5162327717E-04   0.1189182358E-04   0.1189182358E-04   0.5988167536E-02   0.1243794873E-02   0.1243794873E-02   0.1060577634E+01   0.1704528038E-02   0.1704528038E-02  -0.2564477373E-02  -0.2564477373E-02   0.3899494304E-07   0.0000000000E+00   0.1058929038E+01
   0.1006039791E+01   0.9987443133E+00   0.1255686697E-02   0.5162327717E-04  -0.1189182358E-04   0.1189182358E-04   0.5988167536E-02  -0.1243794873E-02   0.1243794873E-02   0.1060577634E+01   0.1704528038E-02   0.1704528038E-02   0.2564477373E-02  -0.2564477373E-02  -0.3899488740E-07   0.0000000000E+00   0.1058929038E+01
   0.0000000000E+00   0.9984219869E+00   0.1578013142E-02   0.0000000000E+00  -0.1009762558E-04   0.1009762558E-04   0.0000000000E+00  -0.1567915516E-02   0.1567915516E-02   0.1038172109E+01  -0.2055136902E-01  -0.2055136902E-01   0.2457306335E-02  -0.2457306335E-02  -0.4187939467E-07   0.0000000000E+00   0.1058774830E+01
   0.0000000000E+00   0.1578013142E-02   0.9984219869E+00   0.0000000000E+00   0.1009762558E-04  -0.1009762558E-04   0.0000000000E+00   0.1567915516E-02  -0.1567915516E-02   0.1038172109E+01  -0.2055136902E-01  -0.2055136902E-01  -0.2457306335E-02   0.2457306335E-02  -0.4187939466E-07   0.0000000000E+00   0.1058774830E+01
   0.1006039791E+01   0.1255686697E-02   0.9987443133E+00   0.5162327717E-04   0.1189182358E-04  -0.1189182358E-04   0.5988167536E-02   0.1243794873E-02  -0.1243794873E-02   0.1060577634E+01   0.1704528038E-02   0.1704528038E-02  -0.2564477373E-02   0.2564477373E-02  -0.3899488739E-07   0.0000000000E+00   0.1058929038E+01
   0.1006039791E+01   0.9987443133E+00   0.9987443133E+00   0.5162327717E-04  -0.1189182358E-04  -0.1189182358E-04   0.5988167536E-02  -0.1243794873E-02  -0.1243794873E-02   0.1060577634E+01   0.1704528038E-02   0.1704528038E-02   0.2564477373E-02   0.2564477373E-02   0.3899483175E-07   0.0000000000E+00   0.1058929038E+01
   0.0000000000E+00   0.9984219869E+00   0.9984219869E+00   0.0000000000E+00  -0.1009762558E-04  -0.1009762558E-04   0.0000000000E+00  -0.1567915516E-02  -0.1567915516E-02   0.1038172109E+01  -0.2055136902E-01  -0.2055136902E-01   0.2457306335E-02   0.2457306335E-02   0.4187947581E-07   0.0000000000E+00   0.1058774830E+01
   0.2011100000E+01   0.1074447499E-02   0.1074447499E-02   0.1000000000E-03   0.1349296033E-04   0.1349296033E-04   0.1100000000E-01   0.1060954539E-02   0.1060954539E-02   0.1082869340E+01   0.2401733518E-01   0.2401733518E-01  -0.2679103325E-02  -0.2679103325E-02   0.3625558761E-07   0.0000000000E+00   0.1058913038E+01
   0.2011100000E+01   0.9989255525E+00   0.1074447499E-02   0.1000000000E-03  -0.1349296033E-04   0.1349296033E-04   0.1100000000E-01  -0.1060954539E-02   0.1060954539E-02   0.1082869339E+01   0.2401733518E-01   0.2401733518E-01   0.2679103325E-02  -0.2679103325E-02  -0.3625535200E-07   0.0000000000E+00   0.1058913038E+01
   0.2011100000E+01   0.1074447499E-02   0.9989255525E+00   0.1000000000E-03   0.1349296033E-04  -0.1349296033E-04   0.1100000000E-01   0.1060954539E-02  -0.1060954539E-02   0.1082869339E+01   0.2401733518E-01   0.2401733518E-01  -0.2679103325E-02   0.2679103325E-02  -0.3625535197E-07   0.0000000000E+00   0.1058913038E+01
   0.2011100000E+01   0.9989255525E+00   0.9989255525E+00   0.1000000000E-03  -0.1349296033E-04  -0.1349296033E-04   0.1100000000E-01  -0.1060954539E-02  -0.1060954539E-02   0.1082869339E+01   0.2401733518E-01   0.2401733518E-01   0.2679103325E-02   0.2679103325E-02   0.3625511641E-07   0.0000000000E+00   0.1058913038E+01
     1     2     3     4     5     6     7     8
     2     9    10     3     6    11    12     7
 VARIABLES = X,Y,Z,DU1,DU2,DU3,U1,U2,U3,S11,S22,S33,S12,S13,S23,Vf,SMISES
 ZONE, T="0.1120D+01" F=FEPOINT, I=   12 J=    2 ET=BRICK
   0.0000000000E+00   0.1587873323E-02   0.1587873323E-02   0.0000000000E+00   0.9860181216E-05   0.9860181216E-05   0.0000000000E+00   0.1578013142E-02   0.1578013142E-02   0.1045031829E+01  -0.1337697125E-01  -0.1337697125E-01  -0.2123924640E-02  -0.2123924640E-02   0.3842584596E-07   0.0000000000E+00   0.1058447178E+01
   0.1006091723E+01   0.1267677248E-02   0.1267677248E-02   0.5193213085E-04   0.1199055178E-04   0.1199055178E-04   0.6039790813E-02   0.1255686697E-02   0.1255686697E-02   0.1062743503E+01   0.3899183109E-02   0.3899183109E-02  -0.2236551229E-02  -0.2236551229E-02   0.3569251891E-07   0.0000000000E+00   0.1058886875E+01
   0.1006091723E+01   0.9987323228E+00   0.1267677248E-02   0.5193213085E-04  -0.1199055178E-04   0.1199055178E-04   0.6039790813E-02  -0.1255686696E-02   0.1255686697E-02   0.1062743503E+01   0.3899183109E-02   0.3899183109E-02   0.2236551228E-02  -0.2236551228E-02  -0.3569245931E-07   0.0000000000E+00   0.1058886875E+01
   0.0000000000E+00   0.9984121267E+00   0.1587873323E-02   0.0000000000E+00  -0.9860181216E-05   0.9860181216E-05   0.0000000000E+00  -0.1578013142E-02   0.1578013142E-02   0.1045031829E+01  -0.1337697125E-01  -0.1337697125E-01   0.2123924640E-02  -0.2123924640E-02  -0.3842591020E-07   0.0000000000E+00   0.1058447178E+01
   0.0000000000E+00   0.1587873323E-02   0.9984121267E+00   0.0000000000E+00   0.9860181216E-05  -0.9860181216E-05   0.0000000000E+00   0.1578013142E-02  -0.1578013142E-02   0.1045031829E+01  -0.1337697125E-01  -0.1337697125E-01  -0.2123924640E-02   0.2123924640E-02  -0.3842591019E-07   0.0000000000E+00   0.1058447178E+01
   0.1006091723E+01   0.1267677248E-02   0.9987323228E+00   0.5193213085E-04   0.1199055178E-04  -0.1199055178E-04   0.6039790813E-02   0.1255686697E-02  -0.1255686696E-02   0.1062743503E+01   0.3899183109E-02   0.3899183109E-02  -0.2236551228E-02   0.2236551228E-02  -0.3569245931E-07   0.0000000000E+00   0.1058886875E+01
   0.1006091723E+01   0.9987323228E+00   0.9987323228E+00   0.5193213085E-04  -0.1199055178E-04  -0.1199055178E-04   0.6039790813E-02  -0.1255686696E-02  -0.1255686696E-02   0.1062743503E+01   0.3899183109E-02   0.3899183109E-02   0.2236551228E-02   0.2236551228E-02   0.3569239972E-07   0.0000000000E+00   0.1058886875E+01
   0.0000000000E+00   0.9984121267E+00   0.9984121267E+00   0.0000000000E+00  -0.9860181216E-05  -0.9860181216E-05   0.0000000000E+00  -0.1578013142E-02  -0.1578013142E-02   0.1045031829E+01  -0.1337697125E-01  -0.1337697125E-01   0.2123924640E-02   0.2123924640E-02   0.3842597440E-07   0.0000000000E+00   0.1058447178E+01
   0.2011200000E+01   0.1088381954E-02   0.1088381954E-02   0.1000000000E-03   0.1393445451E-04   0.1393445451E-04   0.1110000000E-01   0.1074447499E-02   0.1074447499E-02   0.1080344373E+01   0.2123073923E-01   0.2123073923E-01  -0.2356369560E-02  -0.2356369560E-02   0.3310321765E-07   0.0000000000E+00   0.1059160840E+01
   0.2011200000E+01   0.9989116180E+00   0.1088381954E-02   0.1000000000E-03  -0.1393445451E-04   0.1393445451E-04   0.1110000000E-01  -0.1074447499E-02   0.1074447499E-02   0.1080344373E+01   0.2123073923E-01   0.2123073923E-01   0.2356369560E-02  -0.2356369560E-02  -0.3310299409E-07   0.0000000000E+00   0.1059160840E+01
   0.2011200000E+01   0.1088381954E-02   0.9989116180E+00   0.1000000000E-03   0.1393445451E-04  -0.1393445451E-04   0.1110000000E-01   0.1074447499E-02  -0.1074447499E-02   0.1080344373E+01   0.2123073923E-01   0.2123073923E-01  -0.2356369560E-02   0.2356369560E-02  -0.3310299407E-07   0.0000000000E+00   0.1059160840E+01
   0.2011200000E+01   0.9989116180E+00   0.9989116180E+00   0.1000000000E-03  -0.1393445451E-04  -0.1393445451E-04   0.1110000000E-01  -0.1074447499E-02  -0.1074447499E-02   0.1080344373E+01   0.2123073922E-01   0.2123073922E-01   0.2356369559E-02   0.2356369559E-02   0.3310277055E-07   0.0000000000E+00   0.1059160840E+01
     1     2     3     4     5     6     7     8
     2     9    10     3     6    11    12     7
 VARIABLES = X,Y,Z,DU1,DU2,DU3,U1,U2,U3,S11,S22,S33,S12,S13,S23,Vf,SMISES
 ZONE, T="0.1130D+01" F=FEPOINT, I=   12 J=    2 ET=BRICK
   0.0000000000E+00   0.1597662992E-02   0.1597662992E-02   0.0000000000E+00   0.9789669149E-05   0.9789669149E-05   0.0000000000E+00   0.1587873323E-02   0.1587873323E-02   0.1052559835E+01  -0.5681517815E-02  -0.5681517815E-02  -0.1767307613E-02  -0.1767307613E-02   0.3510877121E-07   0.0000000000E+00   0.1058267932E+01
   0.1006143839E+01   0.1279797409E-02   0.1279797409E-02   0.5211571273E-04   0.1212016104E-04   0.1212016104E-04   0.6091722944E-02   0.1267677248E-02   0.1267677248E-02   0.1064582553E+01   0.5659896907E-02   0.5659896907E-02  -0.1884583339E-02  -0.1884583339E-02   0.3248831711E-07   0.0000000000E+00   0.1058952885E+01
   0.1006143839E+01   0.9987202026E+00   0.1279797409E-02   0.5211571273E-04  -0.1212016104E-04   0.1212016104E-04   0.6091722944E-02  -0.1267677248E-02   0.1267677248E-02   0.1064582553E+01   0.5659896906E-02   0.5659896906E-02   0.1884583339E-02  -0.1884583339E-02  -0.3248825535E-07   0.0000000000E+00   0.1058952885E+01
   0.0000000000E+00   0.9984023370E+00   0.1597662992E-02   0.0000000000E+00  -0.9789669149E-05   0.9789669149E-05   0.0000000000E+00  -0.1587873323E-02   0.1587873323E-02   0.1052559835E+01  -0.5681517815E-02  -0.5681517815E-02   0.1767307613E-02  -0.1767307613E-02  -0.3510881794E-07   0.0000000000E+00   0.1058267932E+01
   0.0000000000E+00   0.1597662992E-02   0.9984023370E+00   0.0000000000E+00   0.9789669149E-05  -0.9789669149E-05   0.0000000000E+00   0.1587873323E-02  -0.1587873323E-02   0.1052559835E+01  -0.5681517815E-02  -0.5681517815E-02  -0.1767307613E-02   0.1767307613E-02  -0.3510881792E-07   0.0000000000E+00   0.1058267932E+01
   0.1006143839E+01   0.1279797409E-02   0.9987202026E+00   0.5211571273E-04   0.1212016104E-04  -0.1212016104E-04   0.6091722944E-02   0.1267677248E-02  -0.1267677248E-02   0.1064582553E+01   0.5659896906E-02   0.5659896906E-02  -0.1884583339E-02   0.1884583339E-02  -0.3248825534E-07   0.0000000000E+00   0.1058952885E+01
   0.1006143839E+01   0.9987202026E+00   0.9987202026E+00   0.5211571273E-04  -0.1212016104E-04  -0.1212016104E-04   0.6091722944E-02  -0.1267677248E-02  -0.1267677248E-02   0.1064582553E+01   0.5659896906E-02   0.5659896906E-02   0.1884583339E-02   0.1884583339E-02   0.3248819359E-07   0.0000000000E+00   0.1058952885E+01
   0.0000000000E+00   0.9984023370E+00   0.9984023370E+00   0.0000000000E+00  -0.9789669149E-05  -0.9789669149E-05   0.0000000000E+00  -0.1587873323E-02  -0.1587873323E-02   0.1052559835E+01  -0.5681517815E-02  -0.5681517815E-02   0.1767307613E-02   0.1767307613E-02   0.3510886464E-07   0.0000000000E+00   0.1058267932E+01
   0.2011300000E+01   0.1102653150E-02   0.1102653150E-02   0.1000000000E-03   0.1427119642E-04   0.1427119642E-04   0.1120000000E-01   0.1088381954E-02   0.1088381954E-02   0.1076497426E+01   0.1705523457E-01   0.1705523457E-01  -0.2008721774E-02  -0.2008721774E-02   0.3001070053E-07   0.0000000000E+00   0.1059476489E+01
   0.2011300000E+01   0.9988973468E+00   0.1102653150E-02   0.1000000000E-03  -0.1427119642E-04   0.1427119642E-04   0.1120000000E-01  -0.1088381954E-02   0.1088381954E-02   0.1076497426E+01   0.1705523457E-01   0.1705523457E-01   0.2008721773E-02  -0.2008721774E-02  -0.3001049321E-07   0.0000000000E+00   0.1059476489E+01
   0.2011300000E+01   0.1102653150E-02   0.9988973468E+00   0.1000000000E-03   0.1427119642E-04  -0.1427119642E-04   0.1120000000E-01   0.1088381954E-02  -0.1088381954E-02   0.1076497426E+01   0.1705523457E-01   0.1705523457E-01  -0.2008721774E-02   0.2008721773E-02  -0.3001049319E-07   0.0000000000E+00   0.1059476489E+01
   0.2011300000E+01   0.9988973468E+00   0.9988973468E+00   0.1000000000E-03  -0.1427119642E-04  -0.1427119642E-04   0.1120000000E-01  -0.1088381954E-02  -0.1088381954E-02   0.1076497426E+01   0.1705523457E-01   0.1705523457E-01   0.2008721773E-02   0.2008721773E-02   0.3001028592E-07   0.0000000000E+00   0.1059476489E+01
     1     2     3     4     5     6     7     8
     2     9    10     3     6    11    12     7
 VARIABLES = X,Y,Z,DU1,DU2,DU3,U1,U2,U3,S11,S22,S33,S12,S13,S23,Vf,SMISES
 ZONE, T="0.1140D+01" F=FEPOINT, I=   12 J=    2 ET=BRICK
   0.0000000000E+00   0.1607544117E-02   0.1607544117E-02   0.0000000000E+00   0.9881124871E-05   0.9881124871E-05   0.0000000000E+00   0.1597662992E-02   0.1597662992E-02   0.1060244795E+01   0.2024077086E-02   0.2024077086E-02  -0.1404580519E-02  -0.1404580519E-02   0.3208289160E-07   0.0000000000E+00   0.1058237511E+01
   0.1006196005E+01   0.1292065835E-02   0.1292065835E-02   0.5216621446E-04   0.1226842566E-04   0.1226842566E-04   0.6143838657E-02   0.1279797409E-02   0.1279797409E-02   0.1065964779E+01   0.6868899604E-02   0.6868899604E-02  -0.1525835075E-02  -0.1525835075E-02   0.2954510772E-07   0.0000000000E+00   0.1059115712E+01
   0.1006196005E+01   0.9987079342E+00   0.1292065835E-02   0.5216621446E-04  -0.1226842566E-04   0.1226842566E-04   0.6143838657E-02  -0.1279797409E-02   0.1279797409E-02   0.1065964779E+01   0.6868899604E-02   0.6868899604E-02   0.1525835075E-02  -0.1525835075E-02  -0.2954504576E-07   0.0000000000E+00   0.1059115712E+01
   0.0000000000E+00   0.9983924559E+00   0.1607544117E-02   0.0000000000E+00  -0.9881124870E-05   0.9881124871E-05   0.0000000000E+00  -0.1597662992E-02   0.1597662992E-02   0.1060244795E+01   0.2024077086E-02   0.2024077086E-02   0.1404580519E-02  -0.1404580519E-02  -0.3208292153E-07   0.0000000000E+00   0.1058237511E+01
   0.0000000000E+00   0.1607544117E-02   0.9983924559E+00   0.0000000000E+00   0.9881124871E-05  -0.9881124870E-05   0.0000000000E+00   0.1597662992E-02  -0.1597662992E-02   0.1060244795E+01   0.2024077086E-02   0.2024077086E-02  -0.1404580519E-02   0.1404580519E-02  -0.3208292152E-07   0.0000000000E+00   0.1058237511E+01
   0.1006196005E+01   0.1292065835E-02   0.9987079342E+00   0.5216621446E-04   0.1226842566E-04  -0.1226842566E-04   0.6143838657E-02   0.1279797409E-02  -0.1279797409E-02   0.1065964779E+01   0.6868899604E-02   0.6868899604E-02  -0.1525835075E-02   0.1525835075E-02  -0.2954504576E-07   0.0000000000E+00   0.1059115712E+01
   0.1006196005E+01   0.9987079342E+00   0.9987079342E+00   0.5216621446E-04  -0.1226842566E-04  -0.1226842566E-04   0.6143838657E-02  -0.1279797409E-02  -0.1279797409E-02   0.1065964778E+01   0.6868899604E-02   0.6868899604E-02   0.1525835075E-02   0.1525835075E-02   0.2954498383E-07   0.0000000000E+00   0.1059115712E+01
   0.0000000000E+00   0.9983924559E+00   0.9983924559E+00   0.0000000000E+00  -0.9881124871E-05  -0.9881124871E-05   0.0000000000E+00  -0.1597662992E-02  -0.1597662992E-02   0.1060244795E+01   0.2024077086E-02   0.2024077086E-02   0.1404580519E-02   0.1404580519E-02   0.3208295144E-07   0.0000000000E+00   0.1058237511E+01
   0.2011400000E+01   0.1117136786E-02   0.1117136786E-02   0.1000000000E-03   0.1448363577E-04   0.1448363577E-04   0.1130000000E-01   0.1102653150E-02   0.1102653150E-02   0.1071579917E+01   0.1176614470E-01   0.1176614470E-01  -0.1653567661E-02  -0.1653567661E-02   0.2714888716E-07   0.0000000000E+00   0.1059837009E+01
   0.2011400000E+01   0.9988828632E+00   0.1117136786E-02   0.1000000000E-03  -0.1448363577E-04   0.1448363577E-04   0.1130000000E-01  -0.1102653150E-02   0.1102653150E-02   0.1071579917E+01   0.1176614470E-01   0.1176614470E-01   0.1653567661E-02  -0.1653567661E-02  -0.2714869940E-07   0.0000000000E+00   0.1059837009E+01
   0.2011400000E+01   0.1117136786E-02   0.9988828632E+00   0.1000000000E-03   0.1448363577E-04  -0.1448363577E-04   0.1130000000E-01   0.1102653150E-02  -0.1102653150E-02   0.1071579917E+01   0.1176614470E-01   0.1176614470E-01  -0.1653567661E-02   0.1653567661E-02  -0.2714869937E-07   0.0000000000E+00   0.1059837009E+01
   0.2011400000E+01   0.9988828632E+00   0.9988828632E+00   0.1000000000E-03  -0.1448363577E-04  -0.1448363577E-04   0.1130000000E-01  -0.1102653150E-02  -0.1102653150E-02   0.1071579917E+01   0.1176614470E-01   0.1176614470E-01   0.1653567661E-02   0.1653567661E-02   0.2714851165E-07   0.0000000000E+00   0.1059837009E+01
     1     2     3     4     5     6     7     8
     2     9    10     3     6    11    12     7
 VARIABLES = X,Y,Z,DU1,DU2,DU3,U1,U2,U3,S11,S22,S33,S12,S13,S23,Vf,SMISES
 ZONE, T="0.1150D+01" F=FEPOINT, I=   12 J=    2 ET=BRICK
   0.0000000000E+00   0.1617664001E-02   0.1617664001E-02   0.0000000000E+00   0.1011988333E-04   0.1011988333E-04   0.0000000000E+00   0.1607544117E-02   0.1607544117E-02   0.1067594660E+01   0.9258541813E-02   0.9258541813E-02  -0.1052966799E-02  -0.1052966799E-02   0.2944503325E-07   0.0000000000E+00   0.1058345560E+01
   0.1006248089E+01   0.1304488106E-02   0.1304488106E-02   0.5208421595E-04   0.1242227058E-04   0.1242227058E-04   0.6196004871E-02   0.1292065835E-02   0.1292065835E-02   0.1066803670E+01   0.7458859450E-02   0.7458859450E-02  -0.1177633012E-02  -0.1177633012E-02   0.2696856160E-07   0.0000000000E+00   0.1059356647E+01
   0.1006248089E+01   0.9986955119E+00   0.1304488106E-02   0.5208421595E-04  -0.1242227058E-04   0.1242227058E-04   0.6196004871E-02  -0.1292065835E-02   0.1292065835E-02   0.1066803670E+01   0.7458859450E-02   0.7458859450E-02   0.1177633011E-02  -0.1177633012E-02  -0.2696850151E-07   0.0000000000E+00   0.1059356647E+01
   0.0000000000E+00   0.9983823360E+00   0.1617664001E-02   0.0000000000E+00  -0.1011988333E-04   0.1011988333E-04   0.0000000000E+00  -0.1607544117E-02   0.1607544117E-02   0.1067594660E+01   0.9258541813E-02   0.9258541813E-02   0.1052966798E-02  -0.1052966799E-02  -0.2944504822E-07   0.0000000000E+00   0.1058345560E+01
   0.0000000000E+00   0.1617664001E-02   0.9983823360E+00   0.0000000000E+00   0.1011988333E-04  -0.1011988333E-04   0.0000000000E+00   0.1607544117E-02  -0.1607544117E-02   0.1067594660E+01   0.9258541813E-02   0.9258541813E-02  -0.1052966799E-02   0.1052966798E-02  -0.2944504821E-07   0.0000000000E+00   0.1058345560E+01
   0.1006248089E+01   0.1304488106E-02   0.9986955119E+00   0.5208421595E-04   0.1242227058E-04  -0.1242227058E-04   0.6196004871E-02   0.1292065835E-02  -0.1292065835E-02   0.1066803670E+01   0.7458859449E-02   0.7458859450E-02  -0.1177633012E-02   0.1177633011E-02  -0.2696850151E-07   0.0000000000E+00   0.1059356647E+01
   0.1006248089E+01   0.9986955119E+00   0.9986955119E+00   0.5208421595E-04  -0.1242227058E-04  -0.1242227058E-04   0.6196004871E-02  -0.1292065835E-02  -0.1292065835E-02   0.1066803670E+01   0.7458859449E-02   0.7458859449E-02   0.1177633011E-02   0.1177633011E-02   0.2696844145E-07   0.0000000000E+00   0.1059356647E+01
   0.0000000000E+00   0.9983823360E+00   0.9983823360E+00   0.0000000000E+00  -0.1011988333E-04  -0.1011988333E-04   0.0000000000E+00  -0.1607544117E-02  -0.1607544117E-02   0.1067594660E+01   0.9258541812E-02   0.9258541812E-02   0.1052966798E-02   0.1052966798E-02   0.2944506320E-07   0.0000000000E+00   0.1058345560E+01
   0.2011500000E+01   0.1131697015E-02   0.1131697015E-02   0.1000000000E-03   0.1456022926E-04   0.1456022926E-04   0.1140000000E-01   0.1117136786E-02   0.1117136786E-02   0.1065911017E+01   0.5710008695E-02   0.5710008695E-02  -0.1308351696E-02  -0.1308351696E-02   0.2463239557E-07   0.0000000000E+00   0.1060215555E+01
   0.2011500000E+01   0.9988683030E+00   0.1131697015E-02   0.1000000000E-03  -0.1456022926E-04   0.1456022926E-04   0.1140000000E-01  -0.1117136786E-02   0.1117136786E-02   0.1065911017E+01   0.5710008695E-02   0.5710008694E-02   0.1308351696E-02  -0.1308351696E-02  -0.2463222962E-07   0.0000000000E+00   0.1060215555E+01
   0.2011500000E+01   0.1131697015E-02   0.9988683030E+00   0.1000000000E-03   0.1456022926E-04  -0.1456022926E-04   0.1140000000E-01   0.1117136786E-02  -0.1117136786E-02   0.1065911017E+01   0.5710008694E-02   0.5710008695E-02  -0.1308351696E-02   0.1308351696E-02  -0.2463222960E-07   0.0000000000E+00   0.1060215555E+01
   0.2011500000E+01   0.9988683030E+00   0.9988683030E+00   0.1000000000E-03  -0.1456022926E-04  -0.1456022926E-04   0.1140000000E-01  -0.1117136786E-02  -0.1117136786E-02   0.1065911017E+01   0.5710008694E-02   0.5710008694E-02   0.1308351696E-02   0.1308351696E-02   0.2463206368E-07   0.0000000000E+00   0.1060215555E+01
     1     2     3     4     5     6     7     8
     2     9    10     3     6    11    12     7
 VARIABLES = X,Y,Z,DU1,DU2,DU3,U1,U2,U3,S11,S22,S33,S12,S13,S23,Vf,SMISES
 ZONE, T="0.1160D+01" F=FEPOINT, I=   12 J=    2 ET=BRICK
   0.0000000000E+00   0.1628147060E-02   0.1628147060E-02   0.0000000000E+00   0.1048305909E-04   0.1048305909E-04   0.0000000000E+00   0.1617664001E-02   0.1617664001E-02   0.1074166535E+01   0.1559869218E-01   0.1559869218E-01  -0.7287230414E-03  -0.7287230414E-03   0.2722617593E-07   0.0000000000E+00   0.1058572369E+01
   0.1006299967E+01   0.1317056970E-02   0.1317056970E-02   0.5187836641E-04   0.1256886428E-04   0.1256886428E-04   0.6248089087E-02   0.1304488106E-02   0.1304488106E-02   0.1067060849E+01   0.7415577774E-02   0.7415577774E-02  -0.8562957411E-03  -0.8562957411E-03   0.2479872992E-07   0.0000000000E+00   0.1059651560E+01
   0.1006299967E+01   0.9986829430E+00   0.1317056970E-02   0.5187836641E-04  -0.1256886428E-04   0.1256886428E-04   0.6248089087E-02  -0.1304488106E-02   0.1304488106E-02   0.1067060849E+01   0.7415577774E-02   0.7415577773E-02   0.8562957408E-03  -0.8562957410E-03  -0.2479867366E-07   0.0000000000E+00   0.1059651560E+01
   0.0000000000E+00   0.9983718529E+00   0.1628147060E-02   0.0000000000E+00  -0.1048305909E-04   0.1048305909E-04   0.0000000000E+00  -0.1617664001E-02   0.1617664001E-02   0.1074166535E+01   0.1559869218E-01   0.1559869218E-01   0.7287230411E-03  -0.7287230414E-03  -0.2722617872E-07   0.0000000000E+00   0.1058572369E+01
   0.0000000000E+00   0.1628147060E-02   0.9983718529E+00   0.0000000000E+00   0.1048305909E-04  -0.1048305909E-04   0.0000000000E+00   0.1617664001E-02  -0.1617664001E-02   0.1074166535E+01   0.1559869218E-01   0.1559869218E-01  -0.7287230414E-03   0.7287230411E-03  -0.2722617871E-07   0.0000000000E+00   0.1058572369E+01
   0.1006299967E+01   0.1317056970E-02   0.9986829430E+00   0.5187836641E-04   0.1256886428E-04  -0.1256886428E-04   0.6248089087E-02   0.1304488106E-02  -0.1304488106E-02   0.1067060849E+01   0.7415577773E-02   0.7415577774E-02  -0.8562957410E-03   0.8562957408E-03  -0.2479867366E-07   0.0000000000E+00   0.1059651560E+01
   0.1006299967E+01   0.9986829430E+00   0.9986829430E+00   0.5187836641E-04  -0.1256886428E-04  -0.1256886428E-04   0.6248089087E-02  -0.1304488106E-02  -0.1304488106E-02   0.1067060849E+01   0.7415577773E-02   0.7415577773E-02   0.8562957408E-03   0.8562957408E-03   0.2479861744E-07   0.0000000000E+00   0.1059651559E+01
   0.0000000000E+00   0.9983718529E+00   0.9983718529E+00   0.0000000000E+00  -0.1048305909E-04  -0.1048305909E-04   0.0000000000E+00  -0.1617664001E-02  -0.1617664001E-02   0.1074166535E+01   0.1559869218E-01   0.1559869218E-01   0.7287230410E-03   0.7287230410E-03   0.2722618152E-07   0.0000000000E+00   0.1058572369E+01
   0.2011600000E+01   0.1146195161E-02   0.1146195161E-02   0.1000000000E-03   0.1449814555E-04   0.1449814555E-04   0.1150000000E-01   0.1131697015E-02   0.1131697015E-02   0.1059856998E+01  -0.7184534914E-03  -0.7184534914E-03  -0.9894723511E-03  -0.9894723511E-03   0.2251039420E-07   0.0000000000E+00   0.1060583773E+01
   0.2011600000E+01   0.9988538048E+00   0.1146195161E-02   0.1000000000E-03  -0.1449814555E-04   0.1449814555E-04   0.1150000000E-01  -0.1131697015E-02   0.1131697015E-02   0.1059856998E+01  -0.7184534912E-03  -0.7184534915E-03   0.9894723506E-03  -0.9894723510E-03  -0.2251025122E-07   0.0000000000E+00   0.1060583773E+01
   0.2011600000E+01   0.1146195161E-02   0.9988538048E+00   0.1000000000E-03   0.1449814555E-04  -0.1449814555E-04   0.1150000000E-01   0.1131697015E-02  -0.1131697015E-02   0.1059856998E+01  -0.7184534915E-03  -0.7184534912E-03  -0.9894723510E-03   0.9894723506E-03  -0.2251025120E-07   0.0000000000E+00   0.1060583773E+01
   0.2011600000E+01   0.9988538048E+00   0.9988538048E+00   0.1000000000E-03  -0.1449814555E-04  -0.1449814555E-04   0.1150000000E-01  -0.1131697015E-02  -0.1131697015E-02   0.1059856998E+01  -0.7184534913E-03  -0.7184534913E-03   0.9894723505E-03   0.9894723505E-03   0.2251010823E-07   0.0000000000E+00   0.1060583773E+01
     1     2     3     4     5     6     7     8
     2     9    10     3     6    11    12     7
 VARIABLES = X,Y,Z,DU1,DU2,DU3,U1,U2,U3,S11,S22,S33,S12,S13,S23,Vf,SMISES
 ZONE, T="0.1170D+01" F=FEPOINT, I=   12 J=    2 ET=BRICK
   0.0000000000E+00   0.1639088508E-02   0.1639088508E-02   0.0000000000E+00   0.1094144800E-04   0.1094144800E-04   0.0000000000E+00   0.1628147060E-02   0.1628147060E-02   0.1079591597E+01   0.2070230202E-01   0.2070230202E-01  -0.4461570333E-03  -0.4461570333E-03   0.2539724196E-07   0.0000000000E+00   0.1058890997E+01
   0.1006351532E+01   0.1329753604E-02   0.1329753604E-02   0.5156458857E-04   0.1269663380E-04   0.1269663380E-04   0.6299967453E-02   0.1317056970E-02   0.1317056970E-02   0.1066746593E+01   0.6776289387E-02   0.6776289387E-02  -0.5761532410E-03  -0.5761532410E-03   0.2301525500E-07   0.0000000000E+00   0.1059973188E+01
   0.1006351532E+01   0.9986702464E+00   0.1329753604E-02   0.5156458857E-04  -0.1269663380E-04   0.1269663380E-04   0.6299967453E-02  -0.1317056970E-02   0.1317056970E-02   0.1066746593E+01   0.6776289387E-02   0.6776289387E-02   0.5761532407E-03  -0.5761532409E-03  -0.2301520432E-07   0.0000000000E+00   0.1059973188E+01
   0.0000000000E+00   0.9983609115E+00   0.1639088508E-02   0.0000000000E+00  -0.1094144800E-04   0.1094144800E-04   0.0000000000E+00  -0.1628147060E-02   0.1628147060E-02   0.1079591597E+01   0.2070230202E-01   0.2070230202E-01   0.4461570330E-03  -0.4461570333E-03  -0.2539723601E-07   0.0000000000E+00   0.1058890997E+01
   0.0000000000E+00   0.1639088508E-02   0.9983609115E+00   0.0000000000E+00   0.1094144800E-04  -0.1094144800E-04   0.0000000000E+00   0.1628147060E-02  -0.1628147060E-02   0.1079591597E+01   0.2070230202E-01   0.2070230202E-01  -0.4461570333E-03   0.4461570330E-03  -0.2539723600E-07   0.0000000000E+00   0.1058890997E+01
   0.1006351532E+01   0.1329753604E-02   0.9986702464E+00   0.5156458857E-04   0.1269663380E-04  -0.1269663380E-04   0.6299967453E-02   0.1317056970E-02  -0.1317056970E-02   0.1066746593E+01   0.6776289387E-02   0.6776289387E-02  -0.5761532409E-03   0.5761532407E-03  -0.2301520431E-07   0.0000000000E+00   0.1059973188E+01
   0.1006351532E+01   0.9986702464E+00   0.9986702464E+00   0.5156458857E-04  -0.1269663380E-04  -0.1269663380E-04   0.6299967453E-02  -0.1317056970E-02  -0.1317056970E-02   0.1066746593E+01   0.6776289387E-02   0.6776289387E-02   0.5761532406E-03   0.5761532406E-03   0.2301515367E-07   0.0000000000E+00   0.1059973188E+01
   0.0000000000E+00   0.9983609115E+00   0.9983609115E+00   0.0000000000E+00  -0.1094144800E-04  -0.1094144800E-04   0.0000000000E+00  -0.1628147060E-02  -0.1628147060E-02   0.1079591597E+01   0.2070230202E-01   0.2070230202E-01   0.4461570329E-03   0.4461570329E-03   0.2539723008E-07   0.0000000000E+00   0.1058890997E+01
   0.2011700000E+01   0.1160498554E-02   0.1160498554E-02   0.1000000000E-03   0.1430339321E-04   0.1430339321E-04   0.1160000000E-01   0.1146195161E-02   0.1146195161E-02   0.1053807330E+01  -0.7102593484E-02  -0.7102593484E-02  -0.7113012180E-03  -0.7113012180E-03   0.2077121081E-07   0.0000000000E+00   0.1060914228E+01
   0.2011700000E+01   0.9988395014E+00   0.1160498554E-02   0.1000000000E-03  -0.1430339321E-04   0.1430339321E-04   0.1160000000E-01  -0.1146195161E-02   0.1146195161E-02   0.1053807330E+01  -0.7102593484E-02  -0.7102593484E-02   0.7113012175E-03  -0.7113012179E-03  -0.2077109080E-07   0.0000000000E+00   0.1060914228E+01
   0.2011700000E+01   0.1160498554E-02   0.9988395014E+00   0.1000000000E-03   0.1430339321E-04  -0.1430339321E-04   0.1160000000E-01   0.1146195161E-02  -0.1146195161E-02   0.1053807330E+01  -0.7102593484E-02  -0.7102593484E-02  -0.7113012179E-03   0.7113012175E-03  -0.2077109078E-07   0.0000000000E+00   0.1060914228E+01
   0.2011700000E+01   0.9988395014E+00   0.9988395014E+00   0.1000000000E-03  -0.1430339321E-04  -0.1430339321E-04   0.1160000000E-01  -0.1146195161E-02  -0.1146195161E-02   0.1053807330E+01  -0.7102593484E-02  -0.7102593484E-02   0.7113012174E-03   0.7113012174E-03   0.2077097077E-07   0.0000000000E+00   0.1060914228E+01
     1     2     3     4     5     6     7     8
     2     9    10     3     6    11    12     7
 VARIABLES = X,Y,Z,DU1,DU2,DU3,U1,U2,U3,S11,S22,S33,S12,S13,S23,Vf,SMISES
 ZONE, T="0.1180D+01" F=FEPOINT, I=   12 J=    2 ET=BRICK
   0.0000000000E+00   0.1650550210E-02   0.1650550210E-02   0.0000000000E+00   0.1146170273E-04   0.1146170273E-04   0.0000000000E+00   0.1639088508E-02   0.1639088508E-02   0.1083593770E+01   0.2432432704E-01   0.2432432704E-01  -0.2167926594E-03  -0.2167926594E-03   0.2388603582E-07   0.0000000000E+00   0.1059269851E+01
   0.1006402697E+01   0.1342549729E-02   0.1342549729E-02   0.5116486969E-04   0.1279612497E-04   0.1279612497E-04   0.6351532042E-02   0.1329753604E-02   0.1329753604E-02   0.1065916429E+01   0.5623942821E-02   0.5623942821E-02  -0.3487213016E-03  -0.3487213016E-03   0.2155378624E-07   0.0000000000E+00   0.1060293590E+01
   0.1006402697E+01   0.9986574503E+00   0.1342549729E-02   0.5116486969E-04  -0.1279612497E-04   0.1279612497E-04   0.6351532042E-02  -0.1329753604E-02   0.1329753604E-02   0.1065916429E+01   0.5623942820E-02   0.5623942820E-02   0.3487213013E-03  -0.3487213016E-03  -0.2155374254E-07   0.0000000000E+00   0.1060293590E+01
   0.0000000000E+00   0.9983494498E+00   0.1650550210E-02   0.0000000000E+00  -0.1146170273E-04   0.1146170273E-04   0.0000000000E+00  -0.1639088508E-02   0.1639088508E-02   0.1083593770E+01   0.2432432704E-01   0.2432432704E-01   0.2167926590E-03  -0.2167926594E-03  -0.2388602496E-07   0.0000000000E+00   0.1059269851E+01
   0.0000000000E+00   0.1650550210E-02   0.9983494498E+00   0.0000000000E+00   0.1146170273E-04  -0.1146170273E-04   0.0000000000E+00   0.1639088508E-02  -0.1639088508E-02   0.1083593770E+01   0.2432432704E-01   0.2432432704E-01  -0.2167926594E-03   0.2167926590E-03  -0.2388602496E-07   0.0000000000E+00   0.1059269851E+01
   0.1006402697E+01   0.1342549729E-02   0.9986574503E+00   0.5116486969E-04   0.1279612497E-04  -0.1279612497E-04   0.6351532042E-02   0.1329753604E-02  -0.1329753604E-02   0.1065916429E+01   0.5623942820E-02   0.5623942820E-02  -0.3487213016E-03   0.3487213013E-03  -0.2155374254E-07   0.0000000000E+00   0.1060293590E+01
   0.1006402697E+01   0.9986574503E+00   0.9986574503E+00   0.5116486969E-04  -0.1279612497E-04  -0.1279612497E-04   0.6351532042E-02  -0.1329753604E-02  -0.1329753604E-02   0.1065916429E+01   0.5623942820E-02   0.5623942820E-02   0.3487213013E-03   0.3487213013E-03   0.2155369888E-07   0.0000000000E+00   0.1060293590E+01
   0.0000000000E+00   0.9983494498E+00   0.9983494498E+00   0.0000000000E+00  -0.1146170273E-04  -0.1146170273E-04   0.0000000000E+00  -0.1639088508E-02  -0.1639088508E-02   0.1083593770E+01   0.2432432704E-01   0.2432432704E-01   0.2167926590E-03   0.2167926590E-03   0.2388601414E-07   0.0000000000E+00   0.1059269851E+01
   0.2011800000E+01   0.1174488919E-02   0.1174488919E-02   0.1000000000E-03   0.1399036532E-04   0.1399036532E-04   0.1170000000E-01   0.1160498554E-02   0.1160498554E-02   0.1048149180E+01  -0.1303148693E-01  -0.1303148693E-01  -0.4853653472E-03  -0.4853653472E-03   0.1935822755E-07   0.0000000000E+00   0.1061182676E+01
   0.2011800000E+01   0.9988255111E+00   0.1174488919E-02   0.1000000000E-03  -0.1399036532E-04   0.1399036532E-04   0.1170000000E-01  -0.1160498554E-02   0.1160498554E-02   0.1048149180E+01  -0.1303148693E-01  -0.1303148693E-01   0.4853653466E-03  -0.4853653471E-03  -0.1935812943E-07   0.0000000000E+00   0.1061182676E+01
   0.2011800000E+01   0.1174488919E-02   0.9988255111E+00   0.1000000000E-03   0.1399036532E-04  -0.1399036532E-04   0.1170000000E-01   0.1160498554E-02  -0.1160498554E-02   0.1048149180E+01  -0.1303148693E-01  -0.1303148693E-01  -0.4853653471E-03   0.4853653466E-03  -0.1935812941E-07   0.0000000000E+00   0.1061182676E+01
   0.2011800000E+01   0.9988255111E+00   0.9988255111E+00   0.1000000000E-03  -0.1399036532E-04  -0.1399036532E-04   0.1170000000E-01  -0.1160498554E-02  -0.1160498554E-02   0.1048149180E+01  -0.1303148693E-01  -0.1303148693E-01   0.4853653466E-03   0.4853653466E-03   0.1935803130E-07   0.0000000000E+00   0.1061182676E+01
     1     2     3     4     5     6     7     8
     2     9    10     3     6    11    12     7
 VARIABLES = X,Y,Z,DU1,DU2,DU3,U1,U2,U3,S11,S22,S33,S12,S13,S23,Vf,SMISES
 ZONE, T="0.1190D+01" F=FEPOINT, I=   12 J=    2 ET=BRICK
   0.0000000000E+00   0.1662558838E-02   0.1662558838E-02   0.0000000000E+00   0.1200862752E-04   0.1200862752E-04   0.0000000000E+00   0.1650550210E-02   0.1650550210E-02   0.1086001363E+01   0.2632592283E-01   0.2632592283E-01  -0.4873458228E-04  -0.4873458228E-04   0.2260053583E-07   0.0000000000E+00   0.1059675469E+01
   0.1006453403E+01   0.1355410376E-02   0.1355410376E-02   0.5070572644E-04   0.1286064728E-04   0.1286064728E-04   0.6402696912E-02   0.1342549729E-02   0.1342549729E-02   0.1064664273E+01   0.4078134421E-02   0.4078134421E-02  -0.1820809019E-03  -0.1820809019E-03   0.2032879480E-07   0.0000000000E+00   0.1060586496E+01
   0.1006453403E+01   0.9986445896E+00   0.1355410376E-02   0.5070572644E-04  -0.1286064728E-04   0.1286064728E-04   0.6402696912E-02  -0.1342549729E-02   0.1342549729E-02   0.1064664273E+01   0.4078134421E-02   0.4078134421E-02   0.1820809016E-03  -0.1820809019E-03  -0.2032875908E-07   0.0000000000E+00   0.1060586496E+01
   0.0000000000E+00   0.9983374412E+00   0.1662558838E-02   0.0000000000E+00  -0.1200862752E-04   0.1200862752E-04   0.0000000000E+00  -0.1650550210E-02   0.1650550210E-02   0.1086001363E+01   0.2632592283E-01   0.2632592283E-01   0.4873458190E-04  -0.4873458227E-04  -0.2260052402E-07   0.0000000000E+00   0.1059675469E+01
   0.0000000000E+00   0.1662558838E-02   0.9983374412E+00   0.0000000000E+00   0.1200862752E-04  -0.1200862752E-04   0.0000000000E+00   0.1650550210E-02  -0.1650550210E-02   0.1086001363E+01   0.2632592283E-01   0.2632592283E-01  -0.4873458227E-04   0.4873458190E-04  -0.2260052402E-07   0.0000000000E+00   0.1059675469E+01
   0.1006453403E+01   0.1355410376E-02   0.9986445896E+00   0.5070572644E-04   0.1286064728E-04  -0.1286064728E-04   0.6402696912E-02   0.1342549729E-02  -0.1342549729E-02   0.1064664273E+01   0.4078134421E-02   0.4078134421E-02  -0.1820809019E-03   0.1820809016E-03  -0.2032875908E-07   0.0000000000E+00   0.1060586496E+01
   0.1006453403E+01   0.9986445896E+00   0.9986445896E+00   0.5070572644E-04  -0.1286064728E-04  -0.1286064728E-04   0.6402696912E-02  -0.1342549729E-02  -0.1342549729E-02   0.1064664273E+01   0.4078134421E-02   0.4078134421E-02   0.1820809015E-03   0.1820809015E-03   0.2032872340E-07   0.0000000000E+00   0.1060586495E+01
   0.0000000000E+00   0.9983374412E+00   0.9983374412E+00   0.0000000000E+00  -0.1200862752E-04  -0.1200862752E-04   0.0000000000E+00  -0.1650550210E-02  -0.1650550210E-02   0.1086001363E+01   0.2632592283E-01   0.2632592283E-01   0.4873458189E-04   0.4873458189E-04   0.2260051225E-07   0.0000000000E+00   0.1059675469E+01
   0.2011900000E+01   0.1188069754E-02   0.1188069754E-02   0.1000000000E-03   0.1358083443E-04   0.1358083443E-04   0.1180000000E-01   0.1174488919E-02   0.1174488919E-02   0.1043242037E+01  -0.1812708061E-01  -0.1812708061E-01  -0.3197397536E-03  -0.3197397536E-03   0.1819224596E-07   0.0000000000E+00   0.1061369994E+01
   0.2011900000E+01   0.9988119302E+00   0.1188069754E-02   0.1000000000E-03  -0.1358083443E-04   0.1358083443E-04   0.1180000000E-01  -0.1174488919E-02   0.1174488919E-02   0.1043242037E+01  -0.1812708061E-01  -0.1812708061E-01   0.3197397531E-03  -0.3197397536E-03  -0.1819216773E-07   0.0000000000E+00   0.1061369994E+01
   0.2011900000E+01   0.1188069754E-02   0.9988119302E+00   0.1000000000E-03   0.1358083443E-04  -0.1358083443E-04   0.1180000000E-01   0.1174488919E-02  -0.1174488919E-02   0.1043242037E+01  -0.1812708061E-01  -0.1812708061E-01  -0.3197397536E-03   0.3197397531E-03  -0.1819216771E-07   0.0000000000E+00   0.1061369994E+01
   0.2011900000E+01   0.9988119302E+00   0.9988119302E+00   0.1000000000E-03  -0.1358083443E-04  -0.1358083443E-04   0.1180000000E-01  -0.1174488919E-02  -0.1174488919E-02   0.1043242037E+01  -0.1812708061E-01  -0.1812708061E-01   0.3197397531E-03   0.3197397531E-03   0.1819208948E-07   0.0000000000E+00   0.1061369994E+01
     1     2     3     4     5     6     7     8
     2     9    10     3     6    11    12     7
 VARIABLES = X,Y,Z,DU1,DU2,DU3,U1,U2,U3,S11,S22,S33,S12,S13,S23,Vf,SMISES
 ZONE, T="0.1200D+01" F=FEPOINT, I=   12 J=    2 ET=BRICK
   0.0000000000E+00   0.1675106279E-02   0.1675106279E-02   0.0000000000E+00   0.1254744089E-04   0.1254744089E-04   0.0000000000E+00   0.1662558838E-02   0.1662558838E-02   0.1086751398E+01   0.2667620526E-01   0.2667620526E-01   0.5372993758E-04   0.5372993758E-04   0.2145271187E-07   0.0000000000E+00   0.1060075225E+01
   0.1006503619E+01   0.1368297039E-02   0.1368297039E-02   0.5021644721E-04   0.1288666350E-04   0.1288666350E-04   0.6453402638E-02   0.1355410376E-02   0.1355410376E-02   0.1063112840E+01   0.2283598809E-02   0.2283598809E-02  -0.8049592923E-04  -0.8049592923E-04   0.1925698431E-07   0.0000000000E+00   0.1060829375E+01
   0.1006503619E+01   0.9986317030E+00   0.1368297039E-02   0.5021644721E-04  -0.1288666350E-04   0.1288666350E-04   0.6453402638E-02  -0.1355410376E-02   0.1355410376E-02   0.1063112839E+01   0.2283598809E-02   0.2283598809E-02   0.8049592886E-04  -0.8049592922E-04  -0.1925695710E-07   0.0000000000E+00   0.1060829375E+01
   0.0000000000E+00   0.9983248937E+00   0.1675106279E-02   0.0000000000E+00  -0.1254744089E-04   0.1254744089E-04   0.0000000000E+00  -0.1662558838E-02   0.1662558838E-02   0.1086751398E+01   0.2667620526E-01   0.2667620526E-01  -0.5372993796E-04   0.5372993758E-04  -0.2145270288E-07   0.0000000000E+00   0.1060075225E+01
   0.0000000000E+00   0.1675106279E-02   0.9983248937E+00   0.0000000000E+00   0.1254744089E-04  -0.1254744089E-04   0.0000000000E+00   0.1662558838E-02  -0.1662558838E-02   0.1086751398E+01   0.2667620526E-01   0.2667620526E-01   0.5372993758E-04  -0.5372993796E-04  -0.2145270288E-07   0.0000000000E+00   0.1060075225E+01
   0.1006503619E+01   0.1368297039E-02   0.9986317030E+00   0.5021644721E-04   0.1288666350E-04  -0.1288666350E-04   0.6453402638E-02   0.1355410376E-02  -0.1355410376E-02   0.1063112839E+01   0.2283598809E-02   0.2283598809E-02  -0.8049592922E-04   0.8049592886E-04  -0.1925695710E-07   0.0000000000E+00   0.1060829375E+01
   0.1006503619E+01   0.9986317030E+00   0.9986317030E+00   0.5021644721E-04  -0.1288666350E-04  -0.1288666350E-04   0.6453402638E-02  -0.1355410376E-02  -0.1355410376E-02   0.1063112839E+01   0.2283598809E-02   0.2283598809E-02   0.8049592885E-04   0.8049592885E-04   0.1925692993E-07   0.0000000000E+00   0.1060829375E+01
   0.0000000000E+00   0.9983248937E+00   0.9983248937E+00   0.0000000000E+00  -0.1254744089E-04  -0.1254744089E-04   0.0000000000E+00  -0.1662558838E-02  -0.1662558838E-02   0.1086751397E+01   0.2667620525E-01   0.2667620525E-01  -0.5372993796E-04  -0.5372993796E-04   0.2145269394E-07   0.0000000000E+00   0.1060075225E+01
   0.2012000000E+01   0.1201172223E-02   0.1201172223E-02   0.1000000000E-03   0.1310246895E-04   0.1310246895E-04   0.1190000000E-01   0.1188069754E-02   0.1188069754E-02   0.1039394220E+01  -0.2206897703E-01  -0.2206897703E-01  -0.2186796381E-03  -0.2186796381E-03   0.1719453312E-07   0.0000000000E+00   0.1061463612E+01
   0.2012000000E+01   0.9987988278E+00   0.1201172223E-02   0.1000000000E-03  -0.1310246895E-04   0.1310246895E-04   0.1190000000E-01  -0.1188069754E-02   0.1188069754E-02   0.1039394220E+01  -0.2206897702E-01  -0.2206897702E-01   0.2186796376E-03  -0.2186796381E-03  -0.1719447198E-07   0.0000000000E+00   0.1061463612E+01
   0.2012000000E+01   0.1201172223E-02   0.9987988278E+00   0.1000000000E-03   0.1310246895E-04  -0.1310246895E-04   0.1190000000E-01   0.1188069754E-02  -0.1188069754E-02   0.1039394220E+01  -0.2206897702E-01  -0.2206897702E-01  -0.2186796381E-03   0.2186796376E-03  -0.1719447197E-07   0.0000000000E+00   0.1061463612E+01
   0.2012000000E+01   0.9987988278E+00   0.9987988278E+00   0.1000000000E-03  -0.1310246895E-04  -0.1310246895E-04   0.1190000000E-01  -0.1188069754E-02  -0.1188069754E-02   0.1039394220E+01  -0.2206897702E-01  -0.2206897702E-01   0.2186796375E-03   0.2186796375E-03   0.1719441082E-07   0.0000000000E+00   0.1061463612E+01
     1     2     3     4     5     6     7     8
     2     9    10     3     6    11    12     7
 VARIABLES = X,Y,Z,DU1,DU2,DU3,U1,U2,U3,S11,S22,S33,S12,S13,S23,Vf,SMISES
 ZONE, T="0.1210D+01" F=FEPOINT, I=   12 J=    2 ET=BRICK
   0.0000000000E+00   0.1688152147E-02   0.1688152147E-02   0.0000000000E+00   0.1304586826E-04   0.1304586826E-04   0.0000000000E+00   0.1675106279E-02   0.1675106279E-02   0.1085886829E+01   0.2544716944E-01   0.2544716944E-01   0.9027325086E-04   0.9027325086E-04   0.2037744920E-07   0.0000000000E+00   0.1060439735E+01
   0.1006553346E+01   0.1381170946E-02   0.1381170946E-02   0.4972722557E-04   0.1287390637E-04   0.1287390637E-04   0.6503619085E-02   0.1368297039E-02   0.1368297039E-02   0.1061402251E+01   0.3973024819E-03   0.3973024819E-03  -0.4428418834E-04  -0.4428418834E-04   0.1827592824E-07   0.0000000000E+00   0.1061005048E+01
   0.1006553346E+01   0.9986188291E+00   0.1381170946E-02   0.4972722557E-04  -0.1287390637E-04   0.1287390637E-04   0.6503619085E-02  -0.1368297039E-02   0.1368297039E-02   0.1061402251E+01   0.3973024819E-03   0.3973024819E-03   0.4428418797E-04  -0.4428418834E-04  -0.1827590959E-07   0.0000000000E+00   0.1061005048E+01
   0.0000000000E+00   0.9983118479E+00   0.1688152147E-02   0.0000000000E+00  -0.1304586826E-04   0.1304586826E-04   0.0000000000E+00  -0.1675106279E-02   0.1675106279E-02   0.1085886829E+01   0.2544716944E-01   0.2544716944E-01  -0.9027325125E-04   0.9027325086E-04  -0.2037744640E-07   0.0000000000E+00   0.1060439735E+01
   0.0000000000E+00   0.1688152147E-02   0.9983118479E+00   0.0000000000E+00   0.1304586826E-04  -0.1304586826E-04   0.0000000000E+00   0.1675106279E-02  -0.1675106279E-02   0.1085886829E+01   0.2544716944E-01   0.2544716944E-01   0.9027325086E-04  -0.9027325125E-04  -0.2037744640E-07   0.0000000000E+00   0.1060439735E+01
   0.1006553346E+01   0.1381170946E-02   0.9986188291E+00   0.4972722557E-04   0.1287390637E-04  -0.1287390637E-04   0.6503619085E-02   0.1368297039E-02  -0.1368297039E-02   0.1061402251E+01   0.3973024819E-03   0.3973024819E-03  -0.4428418834E-04   0.4428418797E-04  -0.1827590959E-07   0.0000000000E+00   0.1061005048E+01
   0.1006553346E+01   0.9986188291E+00   0.9986188291E+00   0.4972722557E-04  -0.1287390637E-04  -0.1287390637E-04   0.6503619085E-02  -0.1368297039E-02  -0.1368297039E-02   0.1061402251E+01   0.3973024819E-03   0.3973024819E-03   0.4428418797E-04   0.4428418797E-04   0.1827589098E-07   0.0000000000E+00   0.1061005048E+01
   0.0000000000E+00   0.9983118479E+00   0.9983118479E+00   0.0000000000E+00  -0.1304586826E-04  -0.1304586826E-04   0.0000000000E+00  -0.1675106279E-02  -0.1675106279E-02   0.1085886829E+01   0.2544716944E-01   0.2544716944E-01  -0.9027325125E-04  -0.9027325125E-04   0.2037744365E-07   0.0000000000E+00   0.1060439735E+01
   0.2012100000E+01   0.1213759196E-02   0.1213759196E-02   0.1000000000E-03   0.1258697381E-04   0.1258697381E-04   0.1200000000E-01   0.1201172223E-02   0.1201172223E-02   0.1036842898E+01  -0.2461517695E-01  -0.2461517695E-01  -0.1825035097E-03  -0.1825035097E-03   0.1630521687E-07   0.0000000000E+00   0.1061458366E+01
   0.2012100000E+01   0.9987862408E+00   0.1213759196E-02   0.1000000000E-03  -0.1258697381E-04   0.1258697381E-04   0.1200000000E-01  -0.1201172223E-02   0.1201172223E-02   0.1036842898E+01  -0.2461517694E-01  -0.2461517694E-01   0.1825035092E-03  -0.1825035097E-03  -0.1630516950E-07   0.0000000000E+00   0.1061458366E+01
   0.2012100000E+01   0.1213759196E-02   0.9987862408E+00   0.1000000000E-03   0.1258697381E-04  -0.1258697381E-04   0.1200000000E-01   0.1201172223E-02  -0.1201172223E-02   0.1036842898E+01  -0.2461517694E-01  -0.2461517694E-01  -0.1825035097E-03   0.1825035092E-03  -0.1630516949E-07   0.0000000000E+00   0.1061458366E+01
   0.2012100000E+01   0.9987862408E+00   0.9987862408E+00   0.1000000000E-03  -0.1258697381E-04  -0.1258697381E-04   0.1200000000E-01  -0.1201172223E-02  -0.1201172223E-02   0.1036842898E+01  -0.2461517694E-01  -0.2461517694E-01   0.1825035091E-03   0.1825035091E-03   0.1630512210E-07   0.0000000000E+00   0.1061458366E+01
     1     2     3     4     5     6     7     8
     2     9    10     3     6    11    12     7
 VARIABLES = X,Y,Z,DU1,DU2,DU3,U1,U2,U3,S11,S22,S33,S12,S13,S23,Vf,SMISES
 ZONE, T="0.1220D+01" F=FEPOINT, I=   12 J=    2 ET=BRICK
   0.0000000000E+00   0.1701628094E-02   0.1701628094E-02   0.0000000000E+00   0.1347594672E-04   0.1347594672E-04   0.0000000000E+00   0.1688152147E-02   0.1688152147E-02   0.1083547318E+01   0.2280258594E-01   0.2280258594E-01   0.6441413766E-04   0.6441413766E-04   0.1934280456E-07   0.0000000000E+00   0.1060744773E+01
   0.1006602614E+01   0.1393996173E-02   0.1393996173E-02   0.4926730145E-04   0.1282522759E-04   0.1282522759E-04   0.6553346311E-02   0.1381170946E-02   0.1381170946E-02   0.1059677855E+01  -0.1424758396E-02  -0.1424758396E-02  -0.6993825321E-04  -0.6993825321E-04   0.1735421446E-07   0.0000000000E+00   0.1061102739E+01
   0.1006602614E+01   0.9986060038E+00   0.1393996173E-02   0.4926730145E-04  -0.1282522759E-04   0.1282522759E-04   0.6553346311E-02  -0.1381170946E-02   0.1381170946E-02   0.1059677855E+01  -0.1424758396E-02  -0.1424758396E-02   0.6993825284E-04  -0.6993825320E-04  -0.1735420397E-07   0.0000000000E+00   0.1061102739E+01
   0.0000000000E+00   0.9982983719E+00   0.1701628094E-02   0.0000000000E+00  -0.1347594672E-04   0.1347594672E-04   0.0000000000E+00  -0.1688152147E-02   0.1688152147E-02   0.1083547318E+01   0.2280258594E-01   0.2280258594E-01  -0.6441413806E-04   0.6441413766E-04  -0.1934281071E-07   0.0000000000E+00   0.1060744773E+01
   0.0000000000E+00   0.1701628094E-02   0.9982983719E+00   0.0000000000E+00   0.1347594672E-04  -0.1347594672E-04   0.0000000000E+00   0.1688152147E-02  -0.1688152147E-02   0.1083547318E+01   0.2280258594E-01   0.2280258594E-01   0.6441413766E-04  -0.6441413806E-04  -0.1934281071E-07   0.0000000000E+00   0.1060744773E+01
   0.1006602614E+01   0.1393996173E-02   0.9986060038E+00   0.4926730145E-04   0.1282522759E-04  -0.1282522759E-04   0.6553346311E-02   0.1381170946E-02  -0.1381170946E-02   0.1059677855E+01  -0.1424758396E-02  -0.1424758396E-02  -0.6993825320E-04   0.6993825284E-04  -0.1735420397E-07   0.0000000000E+00   0.1061102739E+01
   0.1006602614E+01   0.9986060038E+00   0.9986060038E+00   0.4926730145E-04  -0.1282522759E-04  -0.1282522759E-04   0.6553346311E-02  -0.1381170946E-02  -0.1381170946E-02   0.1059677855E+01  -0.1424758396E-02  -0.1424758396E-02   0.6993825283E-04   0.6993825283E-04   0.1735419352E-07   0.0000000000E+00   0.1061102739E+01
   0.0000000000E+00   0.9982983719E+00   0.9982983719E+00   0.0000000000E+00  -0.1347594672E-04  -0.1347594672E-04   0.0000000000E+00  -0.1688152147E-02  -0.1688152147E-02   0.1083547318E+01   0.2280258594E-01   0.2280258594E-01  -0.6441413806E-04  -0.6441413806E-04   0.1934281691E-07   0.0000000000E+00   0.1060744773E+01
   0.2012200000E+01   0.1225827180E-02   0.1225827180E-02   0.1000000000E-03   0.1206798306E-04   0.1206798306E-04   0.1210000000E-01   0.1213759196E-02   0.1213759196E-02   0.1035738973E+01  -0.2561739310E-01  -0.2561739310E-01  -0.2077210147E-03  -0.2077210147E-03   0.1549335301E-07   0.0000000000E+00   0.1061356740E+01
   0.2012200000E+01   0.9987741728E+00   0.1225827180E-02   0.1000000000E-03  -0.1206798306E-04   0.1206798306E-04   0.1210000000E-01  -0.1213759196E-02   0.1213759196E-02   0.1035738973E+01  -0.2561739310E-01  -0.2561739310E-01   0.2077210142E-03  -0.2077210147E-03  -0.1549331578E-07   0.0000000000E+00   0.1061356740E+01
   0.2012200000E+01   0.1225827180E-02   0.9987741728E+00   0.1000000000E-03   0.1206798306E-04  -0.1206798306E-04   0.1210000000E-01   0.1213759196E-02  -0.1213759196E-02   0.1035738973E+01  -0.2561739310E-01  -0.2561739310E-01  -0.2077210147E-03   0.2077210142E-03  -0.1549331577E-07   0.0000000000E+00   0.1061356740E+01
   0.2012200000E+01   0.9987741728E+00   0.9987741728E+00   0.1000000000E-03  -0.1206798306E-04  -0.1206798306E-04   0.1210000000E-01  -0.1213759196E-02  -0.1213759196E-02   0.1035738973E+01  -0.2561739310E-01  -0.2561739310E-01   0.2077210141E-03   0.2077210141E-03   0.1549327851E-07   0.0000000000E+00   0.1061356739E+01
     1     2     3     4     5     6     7     8
     2     9    10     3     6    11    12     7
 VARIABLES = X,Y,Z,DU1,DU2,DU3,U1,U2,U3,S11,S22,S33,S12,S13,S23,Vf,SMISES
 ZONE, T="0.1230D+01" F=FEPOINT, I=   12 J=    2 ET=BRICK
   0.0000000000E+00   0.1715443545E-02   0.1715443545E-02   0.0000000000E+00   0.1381545105E-04   0.1381545105E-04   0.0000000000E+00   0.1701628094E-02   0.1701628094E-02   0.1079954591E+01   0.1898200900E-01   0.1898200900E-01  -0.1683200252E-04  -0.1683200252E-04   0.1835021880E-07   0.0000000000E+00   0.1060972590E+01
   0.1006651477E+01   0.1406742378E-02   0.1406742378E-02   0.4886322207E-04   0.1274620507E-04   0.1274620507E-04   0.6602613612E-02   0.1393996173E-02   0.1393996173E-02   0.1058078280E+01  -0.3039989528E-02  -0.3039989528E-02  -0.1504761704E-03  -0.1504761704E-03   0.1649175249E-07   0.0000000000E+00   0.1061118548E+01
   0.1006651477E+01   0.9985932576E+00   0.1406742378E-02   0.4886322207E-04  -0.1274620507E-04   0.1274620507E-04   0.6602613612E-02  -0.1393996173E-02   0.1393996173E-02   0.1058078280E+01  -0.3039989528E-02  -0.3039989528E-02   0.1504761700E-03  -0.1504761704E-03  -0.1649174937E-07   0.0000000000E+00   0.1061118548E+01
   0.0000000000E+00   0.9982845565E+00   0.1715443545E-02   0.0000000000E+00  -0.1381545105E-04   0.1381545105E-04   0.0000000000E+00  -0.1701628094E-02   0.1701628094E-02   0.1079954591E+01   0.1898200899E-01   0.1898200899E-01   0.1683200211E-04  -0.1683200252E-04  -0.1835023587E-07   0.0000000000E+00   0.1060972590E+01
   0.0000000000E+00   0.1715443545E-02   0.9982845565E+00   0.0000000000E+00   0.1381545105E-04  -0.1381545105E-04   0.0000000000E+00   0.1701628094E-02  -0.1701628094E-02   0.1079954591E+01   0.1898200899E-01   0.1898200899E-01  -0.1683200252E-04   0.1683200211E-04  -0.1835023588E-07   0.0000000000E+00   0.1060972590E+01
   0.1006651477E+01   0.1406742378E-02   0.9985932576E+00   0.4886322207E-04   0.1274620507E-04  -0.1274620507E-04   0.6602613612E-02   0.1393996173E-02  -0.1393996173E-02   0.1058078280E+01  -0.3039989528E-02  -0.3039989528E-02  -0.1504761704E-03   0.1504761700E-03  -0.1649174937E-07   0.0000000000E+00   0.1061118548E+01
   0.1006651477E+01   0.9985932576E+00   0.9985932576E+00   0.4886322207E-04  -0.1274620507E-04  -0.1274620507E-04   0.6602613612E-02  -0.1393996173E-02  -0.1393996173E-02   0.1058078280E+01  -0.3039989527E-02  -0.3039989527E-02   0.1504761700E-03   0.1504761700E-03   0.1649174628E-07   0.0000000000E+00   0.1061118548E+01
   0.0000000000E+00   0.9982845565E+00   0.9982845565E+00   0.0000000000E+00  -0.1381545105E-04  -0.1381545105E-04   0.0000000000E+00  -0.1701628094E-02  -0.1701628094E-02   0.1079954591E+01   0.1898200899E-01   0.1898200899E-01   0.1683200211E-04   0.1683200211E-04   0.1835025301E-07   0.0000000000E+00   0.1060972590E+01
   0.2012300000E+01   0.1237406027E-02   0.1237406027E-02   0.1000000000E-03   0.1157884786E-04   0.1157884786E-04   0.1220000000E-01   0.1225827180E-02   0.1225827180E-02   0.1036137861E+01  -0.2502993362E-01  -0.2502993362E-01  -0.2873843201E-03  -0.2873843201E-03   0.1475734179E-07   0.0000000000E+00   0.1061168502E+01
   0.2012300000E+01   0.9987625940E+00   0.1237406027E-02   0.1000000000E-03  -0.1157884786E-04   0.1157884786E-04   0.1220000000E-01  -0.1225827179E-02   0.1225827180E-02   0.1036137861E+01  -0.2502993362E-01  -0.2502993362E-01   0.2873843195E-03  -0.2873843201E-03  -0.1475731103E-07   0.0000000000E+00   0.1061168502E+01
   0.2012300000E+01   0.1237406027E-02   0.9987625940E+00   0.1000000000E-03   0.1157884786E-04  -0.1157884786E-04   0.1220000000E-01   0.1225827180E-02  -0.1225827179E-02   0.1036137861E+01  -0.2502993362E-01  -0.2502993362E-01  -0.2873843201E-03   0.2873843195E-03  -0.1475731102E-07   0.0000000000E+00   0.1061168502E+01
   0.2012300000E+01   0.9987625940E+00   0.9987625940E+00   0.1000000000E-03  -0.1157884786E-04  -0.1157884786E-04   0.1220000000E-01  -0.1225827179E-02  -0.1225827179E-02   0.1036137861E+01  -0.2502993362E-01  -0.2502993362E-01   0.2873843195E-03   0.2873843195E-03   0.1475728023E-07   0.0000000000E+00   0.1061168502E+01
     1     2     3     4     5     6     7     8
     2     9    10     3     6    11    12     7
 VARIABLES = X,Y,Z,DU1,DU2,DU3,U1,U2,U3,S11,S22,S33,S12,S13,S23,Vf,SMISES
 ZONE, T="0.1240D+01" F=FEPOINT, I=   12 J=    2 ET=BRICK
   0.0000000000E+00   0.1729492425E-02   0.1729492425E-02   0.0000000000E+00   0.1404887981E-04   0.1404887981E-04   0.0000000000E+00   0.1715443545E-02   0.1715443545E-02   0.1075393682E+01   0.1428125044E-01   0.1428125044E-01  -0.1435055993E-03  -0.1435055993E-03   0.1742582631E-07   0.0000000000E+00   0.1061112611E+01
   0.1006700014E+01   0.1419386931E-02   0.1419386931E-02   0.4853732386E-04   0.1264455258E-04   0.1264455258E-04   0.6651476834E-02   0.1406742378E-02   0.1406742378E-02   0.1056724683E+01  -0.4329908795E-02  -0.4329908795E-02  -0.2759885803E-03  -0.2759885803E-03   0.1571137349E-07   0.0000000000E+00   0.1061055324E+01
   0.1006700014E+01   0.9985806131E+00   0.1419386931E-02   0.4853732386E-04  -0.1264455258E-04   0.1264455258E-04   0.6651476834E-02  -0.1406742378E-02   0.1406742378E-02   0.1056724683E+01  -0.4329908795E-02  -0.4329908795E-02   0.2759885799E-03  -0.2759885802E-03  -0.1571137664E-07   0.0000000000E+00   0.1061055324E+01
   0.0000000000E+00   0.9982705076E+00   0.1729492425E-02   0.0000000000E+00  -0.1404887981E-04   0.1404887981E-04   0.0000000000E+00  -0.1715443545E-02   0.1715443545E-02   0.1075393682E+01   0.1428125044E-01   0.1428125044E-01   0.1435055989E-03  -0.1435055993E-03  -0.1742585545E-07   0.0000000000E+00   0.1061112611E+01
   0.0000000000E+00   0.1729492425E-02   0.9982705076E+00   0.0000000000E+00   0.1404887981E-04  -0.1404887981E-04   0.0000000000E+00   0.1715443545E-02  -0.1715443545E-02   0.1075393682E+01   0.1428125044E-01   0.1428125044E-01  -0.1435055993E-03   0.1435055989E-03  -0.1742585546E-07   0.0000000000E+00   0.1061112611E+01
   0.1006700014E+01   0.1419386931E-02   0.9985806131E+00   0.4853732386E-04   0.1264455258E-04  -0.1264455258E-04   0.6651476834E-02   0.1406742378E-02  -0.1406742378E-02   0.1056724683E+01  -0.4329908795E-02  -0.4329908795E-02  -0.2759885802E-03   0.2759885799E-03  -0.1571137664E-07   0.0000000000E+00   0.1061055324E+01
   0.1006700014E+01   0.9985806131E+00   0.9985806131E+00   0.4853732386E-04  -0.1264455258E-04  -0.1264455258E-04   0.6651476834E-02  -0.1406742378E-02  -0.1406742378E-02   0.1056724683E+01  -0.4329908795E-02  -0.4329908795E-02   0.2759885799E-03   0.2759885799E-03   0.1571137982E-07   0.0000000000E+00   0.1061055324E+01
   0.0000000000E+00   0.9982705076E+00   0.9982705076E+00   0.0000000000E+00  -0.1404887981E-04  -0.1404887981E-04   0.0000000000E+00  -0.1715443545E-02  -0.1715443545E-02   0.1075393682E+01   0.1428125044E-01   0.1428125044E-01   0.1435055989E-03   0.1435055989E-03   0.1742588466E-07   0.0000000000E+00   0.1061112611E+01
   0.2012400000E+01   0.1248556496E-02   0.1248556496E-02   0.1000000000E-03   0.1115046869E-04   0.1115046869E-04   0.1230000000E-01   0.1237406027E-02   0.1237406027E-02   0.1037996758E+01  -0.2291160513E-01  -0.2291160513E-01  -0.4116301742E-03  -0.4116301742E-03   0.1411681110E-07   0.0000000000E+00   0.1060909806E+01
   0.2012400000E+01   0.9987514435E+00   0.1248556496E-02   0.1000000000E-03  -0.1115046869E-04   0.1115046869E-04   0.1230000000E-01  -0.1237406027E-02   0.1237406027E-02   0.1037996758E+01  -0.2291160513E-01  -0.2291160513E-01   0.4116301736E-03  -0.4116301742E-03  -0.1411678337E-07   0.0000000000E+00   0.1060909806E+01
   0.2012400000E+01   0.1248556496E-02   0.9987514435E+00   0.1000000000E-03   0.1115046869E-04  -0.1115046869E-04   0.1230000000E-01   0.1237406027E-02  -0.1237406027E-02   0.1037996758E+01  -0.2291160513E-01  -0.2291160513E-01  -0.4116301742E-03   0.4116301736E-03  -0.1411678336E-07   0.0000000000E+00   0.1060909806E+01
   0.2012400000E+01   0.9987514435E+00   0.9987514435E+00   0.1000000000E-03  -0.1115046869E-04  -0.1115046869E-04   0.1230000000E-01  -0.1237406027E-02  -0.1237406027E-02   0.1037996758E+01  -0.2291160513E-01  -0.2291160513E-01   0.4116301736E-03   0.4116301736E-03   0.1411675560E-07   0.0000000000E+00   0.1060909806E+01
     1     2     3     4     5     6     7     8
     2     9    10     3     6    11    12     7
 VARIABLES = X,Y,Z,DU1,DU2,DU3,U1,U2,U3,S11,S22,S33,S12,S13,S23,Vf,SMISES
 ZONE, T="0.1250D+01" F=FEPOINT, I=   12 J=    2 ET=BRICK
   0.0000000000E+00   0.1743660397E-02   0.1743660397E-02   0.0000000000E+00   0.1416797232E-04   0.1416797232E-04   0.0000000000E+00   0.1729492425E-02   0.1729492425E-02   0.1070191534E+01   0.9030788354E-02   0.9030788354E-02  -0.3034128198E-03  -0.3034128198E-03   0.1660602371E-07   0.0000000000E+00   0.1061161531E+01
   0.1006748321E+01   0.1431916320E-02   0.1431916320E-02   0.4830651973E-04   0.1252938927E-04   0.1252938927E-04   0.6700014158E-02   0.1419386931E-02   0.1419386931E-02   0.1055711982E+01  -0.5208369226E-02  -0.5208369226E-02  -0.4343391076E-03  -0.4343391076E-03   0.1504483565E-07   0.0000000000E+00   0.1060922037E+01
   0.1006748321E+01   0.9985680837E+00   0.1431916320E-02   0.4830651973E-04  -0.1252938927E-04   0.1252938927E-04   0.6700014158E-02  -0.1419386931E-02   0.1419386931E-02   0.1055711982E+01  -0.5208369226E-02  -0.5208369226E-02   0.4343391073E-03  -0.4343391076E-03  -0.1504484374E-07   0.0000000000E+00   0.1060922037E+01
   0.0000000000E+00   0.9982563396E+00   0.1743660397E-02   0.0000000000E+00  -0.1416797232E-04   0.1416797232E-04   0.0000000000E+00  -0.1729492425E-02   0.1729492425E-02   0.1070191534E+01   0.9030788354E-02   0.9030788354E-02   0.3034128193E-03  -0.3034128198E-03  -0.1660606518E-07   0.0000000000E+00   0.1061161531E+01
   0.0000000000E+00   0.1743660397E-02   0.9982563396E+00   0.0000000000E+00   0.1416797232E-04  -0.1416797232E-04   0.0000000000E+00   0.1729492425E-02  -0.1729492425E-02   0.1070191534E+01   0.9030788354E-02   0.9030788354E-02  -0.3034128198E-03   0.3034128193E-03  -0.1660606519E-07   0.0000000000E+00   0.1061161531E+01
   0.1006748321E+01   0.1431916320E-02   0.9985680837E+00   0.4830651973E-04   0.1252938927E-04  -0.1252938927E-04   0.6700014158E-02   0.1419386931E-02  -0.1419386931E-02   0.1055711982E+01  -0.5208369226E-02  -0.5208369226E-02  -0.4343391076E-03   0.4343391073E-03  -0.1504484374E-07   0.0000000000E+00   0.1060922037E+01
   0.1006748321E+01   0.9985680837E+00   0.9985680837E+00   0.4830651973E-04  -0.1252938927E-04  -0.1252938927E-04   0.6700014158E-02  -0.1419386931E-02  -0.1419386931E-02   0.1055711982E+01  -0.5208369226E-02  -0.5208369226E-02   0.4343391072E-03   0.4343391072E-03   0.1504485187E-07   0.0000000000E+00   0.1060922037E+01
   0.0000000000E+00   0.9982563396E+00   0.9982563396E+00   0.0000000000E+00  -0.1416797232E-04  -0.1416797232E-04   0.0000000000E+00  -0.1729492425E-02  -0.1729492425E-02   0.1070191534E+01   0.9030788354E-02   0.9030788354E-02   0.3034128193E-03   0.3034128193E-03   0.1660610672E-07   0.0000000000E+00   0.1061161531E+01
   0.2012500000E+01   0.1259365813E-02   0.1259365813E-02   0.1000000000E-03   0.1080931668E-04   0.1080931668E-04   0.1240000000E-01   0.1248556496E-02   0.1248556496E-02   0.1041178517E+01  -0.1942057071E-01  -0.1942057071E-01  -0.5683714606E-03  -0.5683714606E-03   0.1359903280E-07   0.0000000000E+00   0.1060601835E+01
   0.2012500000E+01   0.9987406342E+00   0.1259365813E-02   0.1000000000E-03  -0.1080931668E-04   0.1080931668E-04   0.1240000000E-01  -0.1248556496E-02   0.1248556496E-02   0.1041178517E+01  -0.1942057071E-01  -0.1942057071E-01   0.5683714600E-03  -0.5683714605E-03  -0.1359900512E-07   0.0000000000E+00   0.1060601835E+01
   0.2012500000E+01   0.1259365813E-02   0.9987406342E+00   0.1000000000E-03   0.1080931668E-04  -0.1080931668E-04   0.1240000000E-01   0.1248556496E-02  -0.1248556496E-02   0.1041178517E+01  -0.1942057071E-01  -0.1942057071E-01  -0.5683714605E-03   0.5683714600E-03  -0.1359900511E-07   0.0000000000E+00   0.1060601835E+01
   0.2012500000E+01   0.9987406342E+00   0.9987406342E+00   0.1000000000E-03  -0.1080931668E-04  -0.1080931668E-04   0.1240000000E-01  -0.1248556496E-02  -0.1248556496E-02   0.1041178517E+01  -0.1942057070E-01  -0.1942057070E-01   0.5683714600E-03   0.5683714600E-03   0.1359897739E-07   0.0000000000E+00   0.1060601835E+01
     1     2     3     4     5     6     7     8
     2     9    10     3     6    11    12     7
 VARIABLES = X,Y,Z,DU1,DU2,DU3,U1,U2,U3,S11,S22,S33,S12,S13,S23,Vf,SMISES
 ZONE, T="0.1260D+01" F=FEPOINT, I=   12 J=    2 ET=BRICK
   0.0000000000E+00   0.1757832155E-02   0.1757832155E-02   0.0000000000E+00   0.1417175789E-04   0.1417175789E-04   0.0000000000E+00   0.1743660397E-02   0.1743660397E-02   0.1064694474E+01   0.3573592579E-02   0.3573592579E-02  -0.4829409812E-03  -0.4829409812E-03   0.1592154975E-07   0.0000000000E+00   0.1061122864E+01
   0.1006796502E+01   0.1444326755E-02   0.1444326755E-02   0.4818145470E-04   0.1241043497E-04   0.1241043497E-04   0.6748320678E-02   0.1431916320E-02   0.1431916320E-02   0.1055102679E+01  -0.5626764338E-02  -0.5626764338E-02  -0.6119689329E-03  -0.6119689329E-03   0.1451741557E-07   0.0000000000E+00   0.1060732706E+01
   0.1006796502E+01   0.9985556732E+00   0.1444326755E-02   0.4818145470E-04  -0.1241043496E-04   0.1241043497E-04   0.6748320678E-02  -0.1431916320E-02   0.1431916320E-02   0.1055102679E+01  -0.5626764338E-02  -0.5626764338E-02   0.6119689326E-03  -0.6119689329E-03  -0.1451742721E-07   0.0000000000E+00   0.1060732706E+01
   0.0000000000E+00   0.9982421678E+00   0.1757832155E-02   0.0000000000E+00  -0.1417175789E-04   0.1417175789E-04   0.0000000000E+00  -0.1743660397E-02   0.1743660397E-02   0.1064694474E+01   0.3573592579E-02   0.3573592579E-02   0.4829409807E-03  -0.4829409811E-03  -0.1592160296E-07   0.0000000000E+00   0.1061122864E+01
   0.0000000000E+00   0.1757832155E-02   0.9982421678E+00   0.0000000000E+00   0.1417175789E-04  -0.1417175789E-04   0.0000000000E+00   0.1743660397E-02  -0.1743660397E-02   0.1064694474E+01   0.3573592579E-02   0.3573592579E-02  -0.4829409811E-03   0.4829409807E-03  -0.1592160297E-07   0.0000000000E+00   0.1061122864E+01
   0.1006796502E+01   0.1444326755E-02   0.9985556732E+00   0.4818145470E-04   0.1241043497E-04  -0.1241043496E-04   0.6748320678E-02   0.1431916320E-02  -0.1431916320E-02   0.1055102679E+01  -0.5626764338E-02  -0.5626764338E-02  -0.6119689329E-03   0.6119689326E-03  -0.1451742721E-07   0.0000000000E+00   0.1060732706E+01
   0.1006796502E+01   0.9985556732E+00   0.9985556732E+00   0.4818145470E-04  -0.1241043496E-04  -0.1241043496E-04   0.6748320678E-02  -0.1431916320E-02  -0.1431916320E-02   0.1055102679E+01  -0.5626764338E-02  -0.5626764338E-02   0.6119689326E-03   0.6119689326E-03   0.1451743888E-07   0.0000000000E+00   0.1060732706E+01
   0.0000000000E+00   0.9982421678E+00   0.9982421678E+00   0.0000000000E+00  -0.1417175789E-04  -0.1417175789E-04   0.0000000000E+00  -0.1743660397E-02  -0.1743660397E-02   0.1064694474E+01   0.3573592579E-02   0.3573592579E-02   0.4829409807E-03   0.4829409807E-03   0.1592165624E-07   0.0000000000E+00   0.1061122864E+01
   0.2012600000E+01   0.1269941587E-02   0.1269941587E-02   0.1000000000E-03   0.1057577403E-04   0.1057577403E-04   0.1250000000E-01   0.1259365813E-02   0.1259365813E-02   0.1045461810E+01  -0.1480258447E-01  -0.1480258447E-01  -0.7440919067E-03  -0.7440919067E-03   0.1322398990E-07   0.0000000000E+00   0.1060269100E+01
   0.2012600000E+01   0.9987300584E+00   0.1269941587E-02   0.1000000000E-03  -0.1057577403E-04   0.1057577403E-04   0.1250000000E-01  -0.1259365813E-02   0.1259365813E-02   0.1045461810E+01  -0.1480258447E-01  -0.1480258447E-01   0.7440919061E-03  -0.7440919066E-03  -0.1322395991E-07   0.0000000000E+00   0.1060269100E+01
   0.2012600000E+01   0.1269941587E-02   0.9987300584E+00   0.1000000000E-03   0.1057577403E-04  -0.1057577403E-04   0.1250000000E-01   0.1259365813E-02  -0.1259365813E-02   0.1045461810E+01  -0.1480258447E-01  -0.1480258447E-01  -0.7440919066E-03   0.7440919061E-03  -0.1322395990E-07   0.0000000000E+00   0.1060269100E+01
   0.2012600000E+01   0.9987300584E+00   0.9987300584E+00   0.1000000000E-03  -0.1057577403E-04  -0.1057577403E-04   0.1250000000E-01  -0.1259365813E-02  -0.1259365813E-02   0.1045461810E+01  -0.1480258447E-01  -0.1480258447E-01   0.7440919061E-03   0.7440919061E-03   0.1322392986E-07   0.0000000000E+00   0.1060269100E+01
     1     2     3     4     5     6     7     8
     2     9    10     3     6    11    12     7
 VARIABLES = X,Y,Z,DU1,DU2,DU3,U1,U2,U3,S11,S22,S33,S12,S13,S23,Vf,SMISES
 ZONE, T="0.1270D+01" F=FEPOINT, I=   12 J=    2 ET=BRICK
   0.0000000000E+00   0.1771898322E-02   0.1771898322E-02   0.0000000000E+00   0.1406616715E-04   0.1406616715E-04   0.0000000000E+00   0.1757832155E-02   0.1757832155E-02   0.1059246046E+01  -0.1756231749E-02  -0.1756231749E-02  -0.6679249203E-03  -0.6679249203E-03   0.1538431093E-07   0.0000000000E+00   0.1061006066E+01
   0.1006844668E+01   0.1456623955E-02   0.1456623955E-02   0.4816606872E-04   0.1229719953E-04   0.1229719953E-04   0.6796502133E-02   0.1444326755E-02   0.1444326755E-02   0.1054923612E+01  -0.5575952444E-02  -0.5575952444E-02  -0.7947539216E-03  -0.7947539216E-03   0.1413525128E-07   0.0000000000E+00   0.1060505008E+01
   0.1006844668E+01   0.9985433760E+00   0.1456623955E-02   0.4816606872E-04  -0.1229719952E-04   0.1229719953E-04   0.6796502133E-02  -0.1444326755E-02   0.1444326755E-02   0.1054923612E+01  -0.5575952443E-02  -0.5575952443E-02   0.7947539213E-03  -0.7947539215E-03  -0.1413526505E-07   0.0000000000E+00   0.1060505008E+01
   0.0000000000E+00   0.9982281017E+00   0.1771898322E-02   0.0000000000E+00  -0.1406616715E-04   0.1406616715E-04   0.0000000000E+00  -0.1757832155E-02   0.1757832155E-02   0.1059246046E+01  -0.1756231749E-02  -0.1756231749E-02   0.6679249199E-03  -0.6679249203E-03  -0.1538437452E-07   0.0000000000E+00   0.1061006066E+01
   0.0000000000E+00   0.1771898322E-02   0.9982281017E+00   0.0000000000E+00   0.1406616715E-04  -0.1406616715E-04   0.0000000000E+00   0.1757832155E-02  -0.1757832155E-02   0.1059246046E+01  -0.1756231749E-02  -0.1756231749E-02  -0.6679249203E-03   0.6679249199E-03  -0.1538437453E-07   0.0000000000E+00   0.1061006066E+01
   0.1006844668E+01   0.1456623955E-02   0.9985433760E+00   0.4816606872E-04   0.1229719953E-04  -0.1229719952E-04   0.6796502133E-02   0.1444326755E-02  -0.1444326755E-02   0.1054923612E+01  -0.5575952443E-02  -0.5575952443E-02  -0.7947539215E-03   0.7947539213E-03  -0.1413526505E-07   0.0000000000E+00   0.1060505008E+01
   0.1006844668E+01   0.9985433760E+00   0.9985433760E+00   0.4816606872E-04  -0.1229719952E-04  -0.1229719952E-04   0.6796502133E-02  -0.1444326755E-02  -0.1444326755E-02   0.1054923612E+01  -0.5575952443E-02  -0.5575952443E-02   0.7947539212E-03   0.7947539212E-03   0.1413527885E-07   0.0000000000E+00   0.1060505008E+01
   0.0000000000E+00   0.9982281017E+00   0.9982281017E+00   0.0000000000E+00  -0.1406616715E-04  -0.1406616715E-04   0.0000000000E+00  -0.1757832155E-02  -0.1757832155E-02   0.1059246046E+01  -0.1756231749E-02  -0.1756231749E-02   0.6679249198E-03   0.6679249198E-03   0.1538443816E-07   0.0000000000E+00   0.1061006066E+01
   0.2012700000E+01   0.1280404488E-02   0.1280404488E-02   0.1000000000E-03   0.1046290080E-04   0.1046290080E-04   0.1260000000E-01   0.1269941587E-02   0.1269941587E-02   0.1050556788E+01  -0.9373477906E-02  -0.9373477906E-02  -0.9246951175E-03  -0.9246951175E-03   0.1299220114E-07   0.0000000000E+00   0.1059937531E+01
   0.2012700000E+01   0.9987195955E+00   0.1280404488E-02   0.1000000000E-03  -0.1046290080E-04   0.1046290080E-04   0.1260000000E-01  -0.1269941587E-02   0.1269941587E-02   0.1050556788E+01  -0.9373477906E-02  -0.9373477906E-02   0.9246951169E-03  -0.9246951174E-03  -0.1299216727E-07   0.0000000000E+00   0.1059937531E+01
   0.2012700000E+01   0.1280404488E-02   0.9987195955E+00   0.1000000000E-03   0.1046290080E-04  -0.1046290080E-04   0.1260000000E-01   0.1269941587E-02  -0.1269941587E-02   0.1050556788E+01  -0.9373477906E-02  -0.9373477906E-02  -0.9246951174E-03   0.9246951169E-03  -0.1299216727E-07   0.0000000000E+00   0.1059937531E+01
   0.2012700000E+01   0.9987195955E+00   0.9987195955E+00   0.1000000000E-03  -0.1046290080E-04  -0.1046290080E-04   0.1260000000E-01  -0.1269941587E-02  -0.1269941587E-02   0.1050556788E+01  -0.9373477906E-02  -0.9373477906E-02   0.9246951169E-03   0.9246951169E-03   0.1299213336E-07   0.0000000000E+00   0.1059937531E+01
     1     2     3     4     5     6     7     8
     2     9    10     3     6    11    12     7
 VARIABLES = X,Y,Z,DU1,DU2,DU3,U1,U2,U3,S11,S22,S33,S12,S13,S23,Vf,SMISES
 ZONE, T="0.1280D+01" F=FEPOINT, I=   12 J=    2 ET=BRICK
   0.0000000000E+00   0.1785761582E-02   0.1785761582E-02   0.0000000000E+00   0.1386325968E-04   0.1386325968E-04   0.0000000000E+00   0.1771898322E-02   0.1771898322E-02   0.1054166525E+01  -0.6652744878E-02  -0.6652744878E-02  -0.8445107386E-03  -0.8445107386E-03   0.1498016322E-07   0.0000000000E+00   0.1060825324E+01
   0.1006892926E+01   0.1468822187E-02   0.1468822187E-02   0.4825757934E-04   0.1219823177E-04   0.1219823177E-04   0.6844668201E-02   0.1456623955E-02   0.1456623955E-02   0.1055165736E+01  -0.5084912318E-02  -0.5084912318E-02  -0.9688630094E-03  -0.9688630094E-03   0.1387859871E-07   0.0000000000E+00   0.1060258697E+01
   0.1006892926E+01   0.9985311778E+00   0.1468822187E-02   0.4825757934E-04  -0.1219823177E-04   0.1219823177E-04   0.6844668201E-02  -0.1456623955E-02   0.1456623955E-02   0.1055165736E+01  -0.5084912318E-02  -0.5084912318E-02   0.9688630092E-03  -0.9688630094E-03  -0.1387861332E-07   0.0000000000E+00   0.1060258697E+01
   0.0000000000E+00   0.9982142384E+00   0.1785761582E-02   0.0000000000E+00  -0.1386325967E-04   0.1386325968E-04   0.0000000000E+00  -0.1771898322E-02   0.1771898322E-02   0.1054166525E+01  -0.6652744878E-02  -0.6652744878E-02   0.8445107381E-03  -0.8445107385E-03  -0.1498023517E-07   0.0000000000E+00   0.1060825324E+01
   0.0000000000E+00   0.1785761582E-02   0.9982142384E+00   0.0000000000E+00   0.1386325968E-04  -0.1386325967E-04   0.0000000000E+00   0.1771898322E-02  -0.1771898322E-02   0.1054166525E+01  -0.6652744878E-02  -0.6652744878E-02  -0.8445107385E-03   0.8445107381E-03  -0.1498023518E-07   0.0000000000E+00   0.1060825324E+01
   0.1006892926E+01   0.1468822187E-02   0.9985311778E+00   0.4825757934E-04   0.1219823177E-04  -0.1219823177E-04   0.6844668201E-02   0.1456623955E-02  -0.1456623955E-02   0.1055165736E+01  -0.5084912318E-02  -0.5084912318E-02  -0.9688630094E-03   0.9688630092E-03  -0.1387861332E-07   0.0000000000E+00   0.1060258697E+01
   0.1006892926E+01   0.9985311778E+00   0.9985311778E+00   0.4825757934E-04  -0.1219823177E-04  -0.1219823177E-04   0.6844668201E-02  -0.1456623955E-02  -0.1456623955E-02   0.1055165736E+01  -0.5084912317E-02  -0.5084912317E-02   0.9688630091E-03   0.9688630091E-03   0.1387862796E-07   0.0000000000E+00   0.1060258697E+01
   0.0000000000E+00   0.9982142384E+00   0.9982142384E+00   0.0000000000E+00  -0.1386325967E-04  -0.1386325967E-04   0.0000000000E+00  -0.1771898322E-02  -0.1771898322E-02   0.1054166525E+01  -0.6652744878E-02  -0.6652744878E-02   0.8445107381E-03   0.8445107381E-03   0.1498030717E-07   0.0000000000E+00   0.1060825324E+01
   0.2012800000E+01   0.1290880193E-02   0.1290880193E-02   0.1000000000E-03   0.1047570492E-04   0.1047570492E-04   0.1270000000E-01   0.1280404488E-02   0.1280404488E-02   0.1056125114E+01  -0.3497162597E-02  -0.3497162597E-02  -0.1096358791E-02  -0.1096358791E-02   0.1287842595E-07   0.0000000000E+00   0.1059632490E+01
   0.2012800000E+01   0.9987091198E+00   0.1290880193E-02   0.1000000000E-03  -0.1047570491E-04   0.1047570492E-04   0.1270000000E-01  -0.1280404488E-02   0.1280404488E-02   0.1056125114E+01  -0.3497162597E-02  -0.3497162597E-02   0.1096358790E-02  -0.1096358791E-02  -0.1287838750E-07   0.0000000000E+00   0.1059632490E+01
   0.2012800000E+01   0.1290880193E-02   0.9987091198E+00   0.1000000000E-03   0.1047570492E-04  -0.1047570491E-04   0.1270000000E-01   0.1280404488E-02  -0.1280404488E-02   0.1056125114E+01  -0.3497162597E-02  -0.3497162597E-02  -0.1096358791E-02   0.1096358790E-02  -0.1287838750E-07   0.0000000000E+00   0.1059632490E+01
   0.2012800000E+01   0.9987091198E+00   0.9987091198E+00   0.1000000000E-03  -0.1047570492E-04  -0.1047570492E-04   0.1270000000E-01  -0.1280404488E-02  -0.1280404488E-02   0.1056125114E+01  -0.3497162597E-02  -0.3497162597E-02   0.1096358790E-02   0.1096358790E-02   0.1287834901E-07   0.0000000000E+00   0.1059632490E+01
     1     2     3     4     5     6     7     8
     2     9    10     3     6    11    12     7
 VARIABLES = X,Y,Z,DU1,DU2,DU3,U1,U2,U3,S11,S22,S33,S12,S13,S23,Vf,SMISES
 ZONE, T="0.1290D+01" F=FEPOINT, I=   12 J=    2 ET=BRICK
   0.0000000000E+00   0.1799341722E-02   0.1799341722E-02   0.0000000000E+00   0.1358014083E-04   0.1358014083E-04   0.0000000000E+00   0.1785761582E-02   0.1785761582E-02   0.1049735238E+01  -0.1085440716E-01  -0.1085440716E-01  -0.9999670949E-03  -0.9999670949E-03   0.1466915683E-07   0.0000000000E+00   0.1060598135E+01
   0.1006941373E+01   0.1480942672E-02   0.1480942672E-02   0.4844687142E-04   0.1212048519E-04   0.1212048519E-04   0.6892925781E-02   0.1468822187E-02   0.1468822187E-02   0.1055786781E+01  -0.4216405166E-02  -0.4216405166E-02  -0.1121569172E-02  -0.1121569172E-02   0.1370248573E-07   0.0000000000E+00   0.1060013943E+01
   0.1006941373E+01   0.9985190573E+00   0.1480942672E-02   0.4844687142E-04  -0.1212048519E-04   0.1212048519E-04   0.6892925781E-02  -0.1468822187E-02   0.1468822187E-02   0.1055786781E+01  -0.4216405166E-02  -0.4216405166E-02   0.1121569171E-02  -0.1121569172E-02  -0.1370250008E-07   0.0000000000E+00   0.1060013943E+01
   0.0000000000E+00   0.9982006583E+00   0.1799341722E-02   0.0000000000E+00  -0.1358014083E-04   0.1358014083E-04   0.0000000000E+00  -0.1785761582E-02   0.1785761582E-02   0.1049735238E+01  -0.1085440716E-01  -0.1085440716E-01   0.9999670944E-03  -0.9999670948E-03  -0.1466923462E-07   0.0000000000E+00   0.1060598134E+01
   0.0000000000E+00   0.1799341722E-02   0.9982006583E+00   0.0000000000E+00   0.1358014083E-04  -0.1358014083E-04   0.0000000000E+00   0.1785761582E-02  -0.1785761582E-02   0.1049735238E+01  -0.1085440716E-01  -0.1085440716E-01  -0.9999670948E-03   0.9999670944E-03  -0.1466923464E-07   0.0000000000E+00   0.1060598134E+01
   0.1006941373E+01   0.1480942672E-02   0.9985190573E+00   0.4844687142E-04   0.1212048519E-04  -0.1212048519E-04   0.6892925781E-02   0.1468822187E-02  -0.1468822187E-02   0.1055786781E+01  -0.4216405166E-02  -0.4216405166E-02  -0.1121569172E-02   0.1121569171E-02  -0.1370250008E-07   0.0000000000E+00   0.1060013943E+01
   0.1006941373E+01   0.9985190573E+00   0.9985190573E+00   0.4844687142E-04  -0.1212048519E-04  -0.1212048519E-04   0.6892925781E-02  -0.1468822187E-02  -0.1468822187E-02   0.1055786781E+01  -0.4216405166E-02  -0.4216405166E-02   0.1121569171E-02   0.1121569171E-02   0.1370251446E-07   0.0000000000E+00   0.1060013943E+01
   0.0000000000E+00   0.9982006583E+00   0.9982006583E+00   0.0000000000E+00  -0.1358014083E-04  -0.1358014083E-04   0.0000000000E+00  -0.1785761582E-02  -0.1785761582E-02   0.1049735238E+01  -0.1085440716E-01  -0.1085440716E-01   0.9999670944E-03   0.9999670944E-03   0.1466931247E-07   0.0000000000E+00   0.1060598134E+01
   0.2012900000E+01   0.1301491149E-02   0.1301491149E-02   0.1000000000E-03   0.1061095685E-04   0.1061095685E-04   0.1280000000E-01   0.1290880193E-02   0.1290880193E-02   0.1061802940E+01   0.2439288606E-02   0.2439288606E-02  -0.1246346494E-02  -0.1246346494E-02   0.1283271618E-07   0.0000000000E+00   0.1059376853E+01
   0.2012900000E+01   0.9986985089E+00   0.1301491149E-02   0.1000000000E-03  -0.1061095685E-04   0.1061095685E-04   0.1280000000E-01  -0.1290880192E-02   0.1290880193E-02   0.1061802940E+01   0.2439288606E-02   0.2439288606E-02   0.1246346493E-02  -0.1246346494E-02  -0.1283267335E-07   0.0000000000E+00   0.1059376853E+01
   0.2012900000E+01   0.1301491149E-02   0.9986985089E+00   0.1000000000E-03   0.1061095685E-04  -0.1061095685E-04   0.1280000000E-01   0.1290880193E-02  -0.1290880192E-02   0.1061802940E+01   0.2439288606E-02   0.2439288606E-02  -0.1246346494E-02   0.1246346493E-02  -0.1283267335E-07   0.0000000000E+00   0.1059376853E+01
   0.2012900000E+01   0.9986985089E+00   0.9986985089E+00   0.1000000000E-03  -0.1061095685E-04  -0.1061095685E-04   0.1280000000E-01  -0.1290880192E-02  -0.1290880192E-02   0.1061802940E+01   0.2439288606E-02   0.2439288606E-02   0.1246346493E-02   0.1246346493E-02   0.1283263048E-07   0.0000000000E+00   0.1059376853E+01
     1     2     3     4     5     6     7     8
     2     9    10     3     6    11    12     7
 VARIABLES = X,Y,Z,DU1,DU2,DU3,U1,U2,U3,S11,S22,S33,S12,S13,S23,Vf,SMISES
 ZONE, T="0.1300D+01" F=FEPOINT, I=   12 J=    2 ET=BRICK
   0.0000000000E+00   0.1812579376E-02   0.1812579376E-02   0.0000000000E+00   0.1323765383E-04   0.1323765383E-04   0.0000000000E+00   0.1799341722E-02   0.1799341722E-02   0.1046176559E+01  -0.1415650972E-01  -0.1415650972E-01  -0.1123400037E-02  -0.1123400037E-02   0.1439282097E-07   0.0000000000E+00   0.1060343785E+01
   0.1006990092E+01   0.1493011517E-02   0.1493011517E-02   0.4871925656E-04   0.1206884538E-04   0.1206884538E-04   0.6941372652E-02   0.1480942672E-02   0.1480942672E-02   0.1056716412E+01  -0.3060146263E-02  -0.3060146263E-02  -0.1241968814E-02  -0.1241968814E-02   0.1354433512E-07   0.0000000000E+00   0.1059789730E+01
   0.1006990092E+01   0.9985069885E+00   0.1493011517E-02   0.4871925656E-04  -0.1206884537E-04   0.1206884538E-04   0.6941372652E-02  -0.1480942672E-02   0.1480942672E-02   0.1056716412E+01  -0.3060146262E-02  -0.3060146262E-02   0.1241968814E-02  -0.1241968814E-02  -0.1354434837E-07   0.0000000000E+00   0.1059789730E+01
   0.0000000000E+00   0.9981874206E+00   0.1812579376E-02   0.0000000000E+00  -0.1323765383E-04   0.1323765383E-04   0.0000000000E+00  -0.1799341722E-02   0.1799341722E-02   0.1046176559E+01  -0.1415650972E-01  -0.1415650972E-01   0.1123400036E-02  -0.1123400037E-02  -0.1439290177E-07   0.0000000000E+00   0.1060343784E+01
   0.0000000000E+00   0.1812579376E-02   0.9981874206E+00   0.0000000000E+00   0.1323765383E-04  -0.1323765383E-04   0.0000000000E+00   0.1799341722E-02  -0.1799341722E-02   0.1046176559E+01  -0.1415650972E-01  -0.1415650972E-01  -0.1123400037E-02   0.1123400036E-02  -0.1439290179E-07   0.0000000000E+00   0.1060343784E+01
   0.1006990092E+01   0.1493011517E-02   0.9985069885E+00   0.4871925656E-04   0.1206884538E-04  -0.1206884537E-04   0.6941372652E-02   0.1480942672E-02  -0.1480942672E-02   0.1056716412E+01  -0.3060146262E-02  -0.3060146262E-02  -0.1241968814E-02   0.1241968814E-02  -0.1354434838E-07   0.0000000000E+00   0.1059789730E+01
   0.1006990092E+01   0.9985069885E+00   0.9985069885E+00   0.4871925656E-04  -0.1206884537E-04  -0.1206884537E-04   0.6941372652E-02  -0.1480942672E-02  -0.1480942672E-02   0.1056716412E+01  -0.3060146262E-02  -0.3060146262E-02   0.1241968814E-02   0.1241968814E-02   0.1354436165E-07   0.0000000000E+00   0.1059789730E+01
   0.0000000000E+00   0.9981874206E+00   0.9981874206E+00   0.0000000000E+00  -0.1323765383E-04  -0.1323765383E-04   0.0000000000E+00  -0.1799341722E-02  -0.1799341722E-02   0.1046176559E+01  -0.1415650972E-01  -0.1415650972E-01   0.1123400036E-02   0.1123400036E-02   0.1439298263E-07   0.0000000000E+00   0.1060343784E+01
   0.2013000000E+01   0.1312348702E-02   0.1312348702E-02   0.1000000000E-03   0.1085755291E-04   0.1085755291E-04   0.1290000000E-01   0.1301491149E-02   0.1301491149E-02   0.1067225229E+01   0.8051735004E-02   0.8051735004E-02  -0.1363732626E-02  -0.1363732626E-02   0.1278838187E-07   0.0000000000E+00   0.1059189302E+01
   0.2013000000E+01   0.9986876513E+00   0.1312348702E-02   0.1000000000E-03  -0.1085755291E-04   0.1085755291E-04   0.1290000000E-01  -0.1301491149E-02   0.1301491149E-02   0.1067225229E+01   0.8051735004E-02   0.8051735004E-02   0.1363732625E-02  -0.1363732626E-02  -0.1278833569E-07   0.0000000000E+00   0.1059189302E+01
   0.2013000000E+01   0.1312348702E-02   0.9986876513E+00   0.1000000000E-03   0.1085755291E-04  -0.1085755291E-04   0.1290000000E-01   0.1301491149E-02  -0.1301491149E-02   0.1067225229E+01   0.8051735004E-02   0.8051735004E-02  -0.1363732626E-02   0.1363732625E-02  -0.1278833569E-07   0.0000000000E+00   0.1059189302E+01
   0.2013000000E+01   0.9986876513E+00   0.9986876513E+00   0.1000000000E-03  -0.1085755291E-04  -0.1085755291E-04   0.1290000000E-01  -0.1301491149E-02  -0.1301491149E-02   0.1067225229E+01   0.8051735004E-02   0.8051735004E-02   0.1363732625E-02   0.1363732625E-02   0.1278828948E-07   0.0000000000E+00   0.1059189301E+01
     1     2     3     4     5     6     7     8
     2     9    10     3     6    11    12     7
 VARIABLES = X,Y,Z,DU1,DU2,DU3,U1,U2,U3,S11,S22,S33,S12,S13,S23,Vf,SMISES
 ZONE, T="0.1310D+01" F=FEPOINT, I=   12 J=    2 ET=BRICK
   0.0000000000E+00   0.1825438316E-02   0.1825438316E-02   0.0000000000E+00   0.1285893964E-04   0.1285893964E-04   0.0000000000E+00   0.1812579376E-02   0.1812579376E-02   0.1043650126E+01  -0.1641935754E-01  -0.1641935754E-01  -0.1206334679E-02  -0.1206334679E-02   0.1408637536E-07   0.0000000000E+00   0.1060081842E+01
   0.1007039147E+01   0.1505057366E-02   0.1505057366E-02   0.4905554417E-04   0.1204584862E-04   0.1204584862E-04   0.6990091909E-02   0.1493011517E-02   0.1493011517E-02   0.1057863351E+01  -0.1724166588E-02  -0.1724166588E-02  -0.1321571585E-02  -0.1321571585E-02   0.1333644074E-07   0.0000000000E+00   0.1059602421E+01
   0.1007039147E+01   0.9984949426E+00   0.1505057366E-02   0.4905554417E-04  -0.1204584862E-04   0.1204584862E-04   0.6990091909E-02  -0.1493011517E-02   0.1493011517E-02   0.1057863351E+01  -0.1724166588E-02  -0.1724166588E-02   0.1321571585E-02  -0.1321571585E-02  -0.1333645235E-07   0.0000000000E+00   0.1059602421E+01
   0.0000000000E+00   0.9981745617E+00   0.1825438316E-02   0.0000000000E+00  -0.1285893964E-04   0.1285893964E-04   0.0000000000E+00  -0.1812579376E-02   0.1812579376E-02   0.1043650126E+01  -0.1641935754E-01  -0.1641935754E-01   0.1206334678E-02  -0.1206334678E-02  -0.1408645620E-07   0.0000000000E+00   0.1060081842E+01
   0.0000000000E+00   0.1825438316E-02   0.9981745617E+00   0.0000000000E+00   0.1285893964E-04  -0.1285893964E-04   0.0000000000E+00   0.1812579376E-02  -0.1812579376E-02   0.1043650126E+01  -0.1641935754E-01  -0.1641935754E-01  -0.1206334678E-02   0.1206334678E-02  -0.1408645621E-07   0.0000000000E+00   0.1060081842E+01
   0.1007039147E+01   0.1505057366E-02   0.9984949426E+00   0.4905554417E-04   0.1204584862E-04  -0.1204584862E-04   0.6990091909E-02   0.1493011517E-02  -0.1493011517E-02   0.1057863351E+01  -0.1724166588E-02  -0.1724166588E-02  -0.1321571585E-02   0.1321571585E-02  -0.1333645236E-07   0.0000000000E+00   0.1059602421E+01
   0.1007039147E+01   0.9984949426E+00   0.9984949426E+00   0.4905554417E-04  -0.1204584862E-04  -0.1204584862E-04   0.6990091909E-02  -0.1493011517E-02  -0.1493011517E-02   0.1057863351E+01  -0.1724166588E-02  -0.1724166588E-02   0.1321571585E-02   0.1321571585E-02   0.1333646398E-07   0.0000000000E+00   0.1059602421E+01
   0.0000000000E+00   0.9981745617E+00   0.9981745617E+00   0.0000000000E+00  -0.1285893964E-04  -0.1285893964E-04   0.0000000000E+00  -0.1812579376E-02  -0.1812579376E-02   0.1043650126E+01  -0.1641935754E-01  -0.1641935754E-01   0.1206334678E-02   0.1206334678E-02   0.1408653707E-07   0.0000000000E+00   0.1060081842E+01
   0.2013100000E+01   0.1323546096E-02   0.1323546096E-02   0.1000000000E-03   0.1119739348E-04   0.1119739348E-04   0.1300000000E-01   0.1312348702E-02   0.1312348702E-02   0.1072049763E+01   0.1298443048E-01   0.1298443048E-01  -0.1440001194E-02  -0.1440001194E-02   0.1267474979E-07   0.0000000000E+00   0.1059082959E+01
   0.2013100000E+01   0.9986764539E+00   0.1323546096E-02   0.1000000000E-03  -0.1119739348E-04   0.1119739348E-04   0.1300000000E-01  -0.1312348702E-02   0.1312348702E-02   0.1072049763E+01   0.1298443047E-01   0.1298443047E-01   0.1440001194E-02  -0.1440001194E-02  -0.1267470205E-07   0.0000000000E+00   0.1059082959E+01
   0.2013100000E+01   0.1323546096E-02   0.9986764539E+00   0.1000000000E-03   0.1119739348E-04  -0.1119739348E-04   0.1300000000E-01   0.1312348702E-02  -0.1312348702E-02   0.1072049763E+01   0.1298443047E-01   0.1298443047E-01  -0.1440001194E-02   0.1440001194E-02  -0.1267470205E-07   0.0000000000E+00   0.1059082959E+01
   0.2013100000E+01   0.9986764539E+00   0.9986764539E+00   0.1000000000E-03  -0.1119739348E-04  -0.1119739348E-04   0.1300000000E-01  -0.1312348702E-02  -0.1312348702E-02   0.1072049763E+01   0.1298443047E-01   0.1298443047E-01   0.1440001194E-02   0.1440001194E-02   0.1267465427E-07   0.0000000000E+00   0.1059082959E+01
     1     2     3     4     5     6     7     8
     2     9    10     3     6    11    12     7
 VARIABLES = X,Y,Z,DU1,DU2,DU3,U1,U2,U3,S11,S22,S33,S12,S13,S23,Vf,SMISES
 ZONE, T="0.1320D+01" F=FEPOINT, I=   12 J=    2 ET=BRICK
   0.0000000000E+00   0.1837906274E-02   0.1837906274E-02   0.0000000000E+00   0.1246795781E-04   0.1246795781E-04   0.0000000000E+00   0.1825438316E-02   0.1825438316E-02   0.1042245567E+01  -0.1757205673E-01  -0.1757205673E-01  -0.1243135483E-02  -0.1243135483E-02   0.1369267813E-07   0.0000000000E+00   0.1059830750E+01
   0.1007088581E+01   0.1517108970E-02   0.1517108970E-02   0.4943334901E-04   0.1205160426E-04   0.1205160426E-04   0.7039147453E-02   0.1505057366E-02   0.1505057366E-02   0.1059123779E+01  -0.3251575142E-03  -0.3251575142E-03  -0.1354730268E-02  -0.1354730268E-02   0.1302009679E-07   0.0000000000E+00   0.1059464592E+01
   0.1007088581E+01   0.9984828910E+00   0.1517108970E-02   0.4943334901E-04  -0.1205160426E-04   0.1205160426E-04   0.7039147453E-02  -0.1505057366E-02   0.1505057366E-02   0.1059123779E+01  -0.3251575142E-03  -0.3251575141E-03   0.1354730268E-02  -0.1354730268E-02  -0.1302010652E-07   0.0000000000E+00   0.1059464592E+01
   0.0000000000E+00   0.9981620937E+00   0.1837906274E-02   0.0000000000E+00  -0.1246795781E-04   0.1246795781E-04   0.0000000000E+00  -0.1825438316E-02   0.1825438316E-02   0.1042245567E+01  -0.1757205672E-01  -0.1757205672E-01   0.1243135482E-02  -0.1243135483E-02  -0.1369275605E-07   0.0000000000E+00   0.1059830750E+01
   0.0000000000E+00   0.1837906274E-02   0.9981620937E+00   0.0000000000E+00   0.1246795781E-04  -0.1246795781E-04   0.0000000000E+00   0.1825438316E-02  -0.1825438316E-02   0.1042245567E+01  -0.1757205672E-01  -0.1757205672E-01  -0.1243135483E-02   0.1243135482E-02  -0.1369275607E-07   0.0000000000E+00   0.1059830750E+01
   0.1007088581E+01   0.1517108970E-02   0.9984828910E+00   0.4943334901E-04   0.1205160426E-04  -0.1205160426E-04   0.7039147453E-02   0.1505057366E-02  -0.1505057366E-02   0.1059123779E+01  -0.3251575141E-03  -0.3251575142E-03  -0.1354730268E-02   0.1354730268E-02  -0.1302010652E-07   0.0000000000E+00   0.1059464592E+01
   0.1007088581E+01   0.9984828910E+00   0.9984828910E+00   0.4943334901E-04  -0.1205160426E-04  -0.1205160426E-04   0.7039147453E-02  -0.1505057366E-02  -0.1505057366E-02   0.1059123779E+01  -0.3251575141E-03  -0.3251575141E-03   0.1354730268E-02   0.1354730268E-02   0.1302011626E-07   0.0000000000E+00   0.1059464592E+01
   0.0000000000E+00   0.9981620937E+00   0.9981620937E+00   0.0000000000E+00  -0.1246795781E-04  -0.1246795781E-04   0.0000000000E+00  -0.1825438316E-02  -0.1825438316E-02   0.1042245567E+01  -0.1757205672E-01  -0.1757205672E-01   0.1243135482E-02   0.1243135482E-02   0.1369283400E-07   0.0000000000E+00   0.1059830750E+01
   0.2013200000E+01   0.1335152804E-02   0.1335152804E-02   0.1000000000E-03   0.1160670777E-04   0.1160670777E-04   0.1310000000E-01   0.1323546096E-02   0.1323546096E-02   0.1075979234E+01   0.1693312013E-01   0.1693312013E-01  -0.1469485936E-02  -0.1469485936E-02   0.1243149861E-07   0.0000000000E+00   0.1059064469E+01
   0.2013200000E+01   0.9986648472E+00   0.1335152804E-02   0.1000000000E-03  -0.1160670777E-04   0.1160670777E-04   0.1310000000E-01  -0.1323546096E-02   0.1323546096E-02   0.1075979234E+01   0.1693312013E-01   0.1693312013E-01   0.1469485935E-02  -0.1469485935E-02  -0.1243145166E-07   0.0000000000E+00   0.1059064469E+01
   0.2013200000E+01   0.1335152804E-02   0.9986648472E+00   0.1000000000E-03   0.1160670777E-04  -0.1160670777E-04   0.1310000000E-01   0.1323546096E-02  -0.1323546096E-02   0.1075979234E+01   0.1693312013E-01   0.1693312013E-01  -0.1469485935E-02   0.1469485935E-02  -0.1243145167E-07   0.0000000000E+00   0.1059064469E+01
   0.2013200000E+01   0.9986648472E+00   0.9986648472E+00   0.1000000000E-03  -0.1160670777E-04  -0.1160670777E-04   0.1310000000E-01  -0.1323546096E-02  -0.1323546096E-02   0.1075979234E+01   0.1693312013E-01   0.1693312013E-01   0.1469485935E-02   0.1469485935E-02   0.1243140468E-07   0.0000000000E+00   0.1059064469E+01
     1     2     3     4     5     6     7     8
     2     9    10     3     6    11    12     7
 VARIABLES = X,Y,Z,DU1,DU2,DU3,U1,U2,U3,S11,S22,S33,S12,S13,S23,Vf,SMISES
 ZONE, T="0.1330D+01" F=FEPOINT, I=   12 J=    2 ET=BRICK
   0.0000000000E+00   0.1849994330E-02   0.1849994330E-02   0.0000000000E+00   0.1208805652E-04   0.1208805652E-04   0.0000000000E+00   0.1837906274E-02   0.1837906274E-02   0.1041981698E+01  -0.1761203491E-01  -0.1761203491E-01  -0.1231246249E-02  -0.1231246249E-02   0.1317446325E-07   0.0000000000E+00   0.1059606612E+01
   0.1007138409E+01   0.1529192886E-02   0.1529192886E-02   0.4982854835E-04   0.1208391609E-04   0.1208391609E-04   0.7088580802E-02   0.1517108970E-02   0.1517108970E-02   0.1060390297E+01   0.1021366638E-02   0.1021366638E-02  -0.1338889515E-02  -0.1338889515E-02   0.1255791373E-07   0.0000000000E+00   0.1059384219E+01
   0.1007138409E+01   0.9984708071E+00   0.1529192886E-02   0.4982854835E-04  -0.1208391609E-04   0.1208391609E-04   0.7088580802E-02  -0.1517108970E-02   0.1517108970E-02   0.1060390297E+01   0.1021366638E-02   0.1021366638E-02   0.1338889515E-02  -0.1338889515E-02  -0.1255792165E-07   0.0000000000E+00   0.1059384219E+01
   0.0000000000E+00   0.9981500057E+00   0.1849994330E-02   0.0000000000E+00  -0.1208805652E-04   0.1208805652E-04   0.0000000000E+00  -0.1837906274E-02   0.1837906274E-02   0.1041981698E+01  -0.1761203491E-01  -0.1761203491E-01   0.1231246248E-02  -0.1231246249E-02  -0.1317453551E-07   0.0000000000E+00   0.1059606612E+01
   0.0000000000E+00   0.1849994330E-02   0.9981500057E+00   0.0000000000E+00   0.1208805652E-04  -0.1208805652E-04   0.0000000000E+00   0.1837906274E-02  -0.1837906274E-02   0.1041981698E+01  -0.1761203491E-01  -0.1761203491E-01  -0.1231246249E-02   0.1231246248E-02  -0.1317453552E-07   0.0000000000E+00   0.1059606612E+01
   0.1007138409E+01   0.1529192886E-02   0.9984708071E+00   0.4982854835E-04   0.1208391609E-04  -0.1208391609E-04   0.7088580802E-02   0.1517108970E-02  -0.1517108970E-02   0.1060390297E+01   0.1021366638E-02   0.1021366638E-02  -0.1338889515E-02   0.1338889515E-02  -0.1255792165E-07   0.0000000000E+00   0.1059384219E+01
   0.1007138409E+01   0.9984708071E+00   0.9984708071E+00   0.4982854835E-04  -0.1208391609E-04  -0.1208391609E-04   0.7088580802E-02  -0.1517108970E-02  -0.1517108970E-02   0.1060390297E+01   0.1021366638E-02   0.1021366638E-02   0.1338889515E-02   0.1338889515E-02   0.1255792957E-07   0.0000000000E+00   0.1059384219E+01
   0.0000000000E+00   0.9981500057E+00   0.9981500057E+00   0.0000000000E+00  -0.1208805652E-04  -0.1208805652E-04   0.0000000000E+00  -0.1837906274E-02  -0.1837906274E-02   0.1041981698E+01  -0.1761203491E-01  -0.1761203491E-01   0.1231246248E-02   0.1231246248E-02   0.1317460778E-07   0.0000000000E+00   0.1059606612E+01
   0.2013300000E+01   0.1347210531E-02   0.1347210531E-02   0.1000000000E-03   0.1205772772E-04   0.1205772772E-04   0.1320000000E-01   0.1335152804E-02   0.1335152804E-02   0.1078779970E+01   0.1966423082E-01   0.1966423082E-01  -0.1449628160E-02  -0.1449628160E-02   0.1202107751E-07   0.0000000000E+00   0.1059133600E+01
   0.2013300000E+01   0.9986527895E+00   0.1347210531E-02   0.1000000000E-03  -0.1205772772E-04   0.1205772772E-04   0.1320000000E-01  -0.1335152803E-02   0.1335152804E-02   0.1078779970E+01   0.1966423082E-01   0.1966423082E-01   0.1449628159E-02  -0.1449628159E-02  -0.1202103412E-07   0.0000000000E+00   0.1059133600E+01
   0.2013300000E+01   0.1347210531E-02   0.9986527895E+00   0.1000000000E-03   0.1205772772E-04  -0.1205772772E-04   0.1320000000E-01   0.1335152804E-02  -0.1335152803E-02   0.1078779970E+01   0.1966423082E-01   0.1966423082E-01  -0.1449628159E-02   0.1449628159E-02  -0.1202103412E-07   0.0000000000E+00   0.1059133600E+01
   0.2013300000E+01   0.9986527895E+00   0.9986527895E+00   0.1000000000E-03  -0.1205772772E-04  -0.1205772772E-04   0.1320000000E-01  -0.1335152803E-02  -0.1335152803E-02   0.1078779970E+01   0.1966423082E-01   0.1966423082E-01   0.1449628159E-02   0.1449628159E-02   0.1202099070E-07   0.0000000000E+00   0.1059133600E+01
     1     2     3     4     5     6     7     8
     2     9    10     3     6    11    12     7
 VARIABLES = X,Y,Z,DU1,DU2,DU3,U1,U2,U3,S11,S22,S33,S12,S13,S23,Vf,SMISES
 ZONE, T="0.1340D+01" F=FEPOINT, I=   12 J=    2 ET=BRICK
   0.0000000000E+00   0.1861735000E-02   0.1861735000E-02   0.0000000000E+00   0.1174067004E-04   0.1174067004E-04   0.0000000000E+00   0.1849994330E-02   0.1849994330E-02   0.1042809916E+01  -0.1660066555E-01  -0.1660066555E-01  -0.1171240956E-02  -0.1171240956E-02   0.1252199121E-07   0.0000000000E+00   0.1059422238E+01
   0.1007188626E+01   0.1541331468E-02   0.1541331468E-02   0.5021679564E-04   0.1213858229E-04   0.1213858229E-04   0.7138409350E-02   0.1529192886E-02   0.1529192886E-02   0.1061560695E+01   0.2210282820E-02   0.2210282820E-02  -0.1274642526E-02  -0.1274642526E-02   0.1194142416E-07   0.0000000000E+00   0.1059364270E+01
   0.1007188626E+01   0.9984586685E+00   0.1541331468E-02   0.5021679564E-04  -0.1213858229E-04   0.1213858229E-04   0.7138409350E-02  -0.1529192886E-02   0.1529192886E-02   0.1061560695E+01   0.2210282820E-02   0.2210282820E-02   0.1274642526E-02  -0.1274642526E-02  -0.1194143058E-07   0.0000000000E+00   0.1059364270E+01
   0.0000000000E+00   0.9981382650E+00   0.1861735000E-02   0.0000000000E+00  -0.1174067004E-04   0.1174067004E-04   0.0000000000E+00  -0.1849994330E-02   0.1849994330E-02   0.1042809916E+01  -0.1660066554E-01  -0.1660066554E-01   0.1171240956E-02  -0.1171240956E-02  -0.1252205539E-07   0.0000000000E+00   0.1059422238E+01
   0.0000000000E+00   0.1861735000E-02   0.9981382650E+00   0.0000000000E+00   0.1174067004E-04  -0.1174067004E-04   0.0000000000E+00   0.1849994330E-02  -0.1849994330E-02   0.1042809916E+01  -0.1660066554E-01  -0.1660066554E-01  -0.1171240956E-02   0.1171240956E-02  -0.1252205540E-07   0.0000000000E+00   0.1059422238E+01
   0.1007188626E+01   0.1541331468E-02   0.9984586685E+00   0.5021679564E-04   0.1213858229E-04  -0.1213858229E-04   0.7138409350E-02   0.1529192886E-02  -0.1529192886E-02   0.1061560695E+01   0.2210282820E-02   0.2210282820E-02  -0.1274642526E-02   0.1274642526E-02  -0.1194143059E-07   0.0000000000E+00   0.1059364270E+01
   0.1007188626E+01   0.9984586685E+00   0.9984586685E+00   0.5021679564E-04  -0.1213858229E-04  -0.1213858229E-04   0.7138409350E-02  -0.1529192886E-02  -0.1529192886E-02   0.1061560695E+01   0.2210282820E-02   0.2210282820E-02   0.1274642526E-02   0.1274642526E-02   0.1194143700E-07   0.0000000000E+00   0.1059364270E+01
   0.0000000000E+00   0.9981382650E+00   0.9981382650E+00   0.0000000000E+00  -0.1174067004E-04  -0.1174067004E-04   0.0000000000E+00  -0.1849994330E-02  -0.1849994330E-02   0.1042809916E+01  -0.1660066554E-01  -0.1660066554E-01   0.1171240956E-02   0.1171240956E-02   0.1252211958E-07   0.0000000000E+00   0.1059422238E+01
   0.2013400000E+01   0.1359731123E-02   0.1359731123E-02   0.1000000000E-03   0.1252059133E-04   0.1252059133E-04   0.1330000000E-01   0.1347210531E-02   0.1347210531E-02   0.1080296102E+01   0.2102891690E-01   0.2102891690E-01  -0.1381039349E-02  -0.1381039349E-02   0.1143628441E-07   0.0000000000E+00   0.1059283393E+01
   0.2013400000E+01   0.9986402689E+00   0.1359731123E-02   0.1000000000E-03  -0.1252059133E-04   0.1252059133E-04   0.1330000000E-01  -0.1347210531E-02   0.1347210531E-02   0.1080296102E+01   0.2102891690E-01   0.2102891690E-01   0.1381039348E-02  -0.1381039348E-02  -0.1143624752E-07   0.0000000000E+00   0.1059283393E+01
   0.2013400000E+01   0.1359731123E-02   0.9986402689E+00   0.1000000000E-03   0.1252059133E-04  -0.1252059133E-04   0.1330000000E-01   0.1347210531E-02  -0.1347210531E-02   0.1080296102E+01   0.2102891690E-01   0.2102891690E-01  -0.1381039348E-02   0.1381039348E-02  -0.1143624752E-07   0.0000000000E+00   0.1059283393E+01
   0.2013400000E+01   0.9986402689E+00   0.9986402689E+00   0.1000000000E-03  -0.1252059133E-04  -0.1252059133E-04   0.1330000000E-01  -0.1347210531E-02  -0.1347210531E-02   0.1080296102E+01   0.2102891690E-01   0.2102891690E-01   0.1381039348E-02   0.1381039348E-02   0.1143621059E-07   0.0000000000E+00   0.1059283393E+01
     1     2     3     4     5     6     7     8
     2     9    10     3     6    11    12     7
 VARIABLES = X,Y,Z,DU1,DU2,DU3,U1,U2,U3,S11,S22,S33,S12,S13,S23,Vf,SMISES
 ZONE, T="0.1350D+01" F=FEPOINT, I=   12 J=    2 ET=BRICK
   0.0000000000E+00   0.1873179209E-02   0.1873179209E-02   0.0000000000E+00   0.1144420875E-04   0.1144420875E-04   0.0000000000E+00   0.1861735000E-02   0.1861735000E-02   0.1044621270E+01  -0.1465556232E-01  -0.1465556232E-01  -0.1066687120E-02  -0.1066687120E-02   0.1175445268E-07   0.0000000000E+00   0.1059286502E+01
   0.1007239201E+01   0.1553541309E-02   0.1553541309E-02   0.5057499753E-04   0.1220984019E-04   0.1220984019E-04   0.7188626146E-02   0.1541331468E-02   0.1541331468E-02   0.1062545858E+01   0.3154739476E-02   0.3154739476E-02  -0.1165596039E-02  -0.1165596039E-02   0.1119230969E-07   0.0000000000E+00   0.1059402711E+01
   0.1007239201E+01   0.9984464587E+00   0.1553541309E-02   0.5057499754E-04  -0.1220984019E-04   0.1220984019E-04   0.7188626146E-02  -0.1541331468E-02   0.1541331468E-02   0.1062545858E+01   0.3154739476E-02   0.3154739476E-02   0.1165596039E-02  -0.1165596039E-02  -0.1119231513E-07   0.0000000000E+00   0.1059402711E+01
   0.0000000000E+00   0.9981268208E+00   0.1873179209E-02   0.0000000000E+00  -0.1144420875E-04   0.1144420875E-04   0.0000000000E+00  -0.1861735000E-02   0.1861735000E-02   0.1044621270E+01  -0.1465556232E-01  -0.1465556232E-01   0.1066687119E-02  -0.1066687120E-02  -0.1175450682E-07   0.0000000000E+00   0.1059286502E+01
   0.0000000000E+00   0.1873179209E-02   0.9981268208E+00   0.0000000000E+00   0.1144420875E-04  -0.1144420875E-04   0.0000000000E+00   0.1861735000E-02  -0.1861735000E-02   0.1044621270E+01  -0.1465556232E-01  -0.1465556232E-01  -0.1066687120E-02   0.1066687119E-02  -0.1175450684E-07   0.0000000000E+00   0.1059286502E+01
   0.1007239201E+01   0.1553541309E-02   0.9984464587E+00   0.5057499754E-04   0.1220984019E-04  -0.1220984019E-04   0.7188626146E-02   0.1541331468E-02  -0.1541331468E-02   0.1062545858E+01   0.3154739476E-02   0.3154739476E-02  -0.1165596039E-02   0.1165596039E-02  -0.1119231513E-07   0.0000000000E+00   0.1059402711E+01
   0.1007239201E+01   0.9984464587E+00   0.9984464587E+00   0.5057499754E-04  -0.1220984019E-04  -0.1220984019E-04   0.7188626146E-02  -0.1541331468E-02  -0.1541331468E-02   0.1062545858E+01   0.3154739476E-02   0.3154739476E-02   0.1165596039E-02   0.1165596039E-02   0.1119232057E-07   0.0000000000E+00   0.1059402711E+01
   0.0000000000E+00   0.9981268208E+00   0.9981268208E+00   0.0000000000E+00  -0.1144420875E-04  -0.1144420875E-04   0.0000000000E+00  -0.1861735000E-02  -0.1861735000E-02   0.1044621270E+01  -0.1465556232E-01  -0.1465556232E-01   0.1066687119E-02   0.1066687119E-02   0.1175456097E-07   0.0000000000E+00   0.1059286502E+01
   0.2013500000E+01   0.1372696465E-02   0.1372696465E-02   0.1000000000E-03   0.1296534282E-04   0.1296534282E-04   0.1340000000E-01   0.1359731123E-02   0.1359731123E-02   0.1080458313E+01   0.2097110793E-01   0.2097110793E-01  -0.1267367592E-02  -0.1267367592E-02   0.1070132246E-07   0.0000000000E+00   0.1059500852E+01
   0.2013500000E+01   0.9986273035E+00   0.1372696465E-02   0.1000000000E-03  -0.1296534282E-04   0.1296534282E-04   0.1340000000E-01  -0.1359731123E-02   0.1359731123E-02   0.1080458313E+01   0.2097110793E-01   0.2097110793E-01   0.1267367592E-02  -0.1267367592E-02  -0.1070129492E-07   0.0000000000E+00   0.1059500852E+01
   0.2013500000E+01   0.1372696465E-02   0.9986273035E+00   0.1000000000E-03   0.1296534282E-04  -0.1296534282E-04   0.1340000000E-01   0.1359731123E-02  -0.1359731123E-02   0.1080458313E+01   0.2097110793E-01   0.2097110793E-01  -0.1267367592E-02   0.1267367592E-02  -0.1070129493E-07   0.0000000000E+00   0.1059500852E+01
   0.2013500000E+01   0.9986273035E+00   0.9986273035E+00   0.1000000000E-03  -0.1296534282E-04  -0.1296534282E-04   0.1340000000E-01  -0.1359731123E-02  -0.1359731123E-02   0.1080458313E+01   0.2097110792E-01   0.2097110792E-01   0.1267367592E-02   0.1267367592E-02   0.1070126737E-07   0.0000000000E+00   0.1059500852E+01
     1     2     3     4     5     6     7     8
     2     9    10     3     6    11    12     7
 VARIABLES = X,Y,Z,DU1,DU2,DU3,U1,U2,U3,S11,S22,S33,S12,S13,S23,Vf,SMISES
 ZONE, T="0.1360D+01" F=FEPOINT, I=   12 J=    2 ET=BRICK
   0.0000000000E+00   0.1884392400E-02   0.1884392400E-02   0.0000000000E+00   0.1121319063E-04   0.1121319063E-04   0.0000000000E+00   0.1873179209E-02   0.1873179209E-02   0.1047256532E+01  -0.1194025145E-01  -0.1194025145E-01  -0.9238339121E-03  -0.9238339121E-03   0.1091500763E-07   0.0000000000E+00   0.1059204038E+01
   0.1007290084E+01   0.1565832221E-02   0.1565832221E-02   0.5088266596E-04   0.1229091214E-04   0.1229091214E-04   0.7239201143E-02   0.1553541309E-02   0.1553541309E-02   0.1063276212E+01   0.3792140099E-02   0.3792140099E-02  -0.1018055627E-02  -0.1018055627E-02   0.1035714553E-07   0.0000000000E+00   0.1059492922E+01
   0.1007290084E+01   0.9984341678E+00   0.1565832221E-02   0.5088266596E-04  -0.1229091214E-04   0.1229091214E-04   0.7239201143E-02  -0.1553541309E-02   0.1553541309E-02   0.1063276212E+01   0.3792140099E-02   0.3792140099E-02   0.1018055627E-02  -0.1018055627E-02  -0.1035715064E-07   0.0000000000E+00   0.1059492922E+01
   0.0000000000E+00   0.9981156076E+00   0.1884392400E-02   0.0000000000E+00  -0.1121319063E-04   0.1121319063E-04   0.0000000000E+00  -0.1873179209E-02   0.1873179209E-02   0.1047256532E+01  -0.1194025145E-01  -0.1194025145E-01   0.9238339118E-03  -0.9238339120E-03  -0.1091505032E-07   0.0000000000E+00   0.1059204038E+01
   0.0000000000E+00   0.1884392400E-02   0.9981156076E+00   0.0000000000E+00   0.1121319063E-04  -0.1121319063E-04   0.0000000000E+00   0.1873179209E-02  -0.1873179209E-02   0.1047256532E+01  -0.1194025145E-01  -0.1194025145E-01  -0.9238339120E-03   0.9238339118E-03  -0.1091505034E-07   0.0000000000E+00   0.1059204038E+01
   0.1007290084E+01   0.1565832221E-02   0.9984341678E+00   0.5088266596E-04   0.1229091214E-04  -0.1229091214E-04   0.7239201143E-02   0.1553541309E-02  -0.1553541309E-02   0.1063276212E+01   0.3792140099E-02   0.3792140099E-02  -0.1018055627E-02   0.1018055627E-02  -0.1035715065E-07   0.0000000000E+00   0.1059492922E+01
   0.1007290084E+01   0.9984341678E+00   0.9984341678E+00   0.5088266596E-04  -0.1229091214E-04  -0.1229091214E-04   0.7239201143E-02  -0.1553541309E-02  -0.1553541309E-02   0.1063276211E+01   0.3792140099E-02   0.3792140099E-02   0.1018055627E-02   0.1018055627E-02   0.1035715575E-07   0.0000000000E+00   0.1059492922E+01
   0.0000000000E+00   0.9981156076E+00   0.9981156076E+00   0.0000000000E+00  -0.1121319063E-04  -0.1121319063E-04   0.0000000000E+00  -0.1873179209E-02  -0.1873179209E-02   0.1047256532E+01  -0.1194025145E-01  -0.1194025145E-01   0.9238339117E-03   0.9238339117E-03   0.1091509302E-07   0.0000000000E+00   0.1059204038E+01
   0.2013600000E+01   0.1386060359E-02   0.1386060359E-02   0.1000000000E-03   0.1336389343E-04   0.1336389343E-04   0.1350000000E-01   0.1372696465E-02   0.1372696465E-02   0.1079286669E+01   0.1952914239E-01   0.1952914239E-01  -0.1114979592E-02  -0.1114979592E-02   0.9866244777E-08   0.0000000000E+00   0.1059768087E+01
   0.2013600000E+01   0.9986139396E+00   0.1386060359E-02   0.1000000000E-03  -0.1336389343E-04   0.1336389343E-04   0.1350000000E-01  -0.1372696465E-02   0.1372696465E-02   0.1079286669E+01   0.1952914239E-01   0.1952914239E-01   0.1114979592E-02  -0.1114979592E-02  -0.9866229194E-08   0.0000000000E+00   0.1059768087E+01
   0.2013600000E+01   0.1386060359E-02   0.9986139396E+00   0.1000000000E-03   0.1336389343E-04  -0.1336389343E-04   0.1350000000E-01   0.1372696465E-02  -0.1372696465E-02   0.1079286669E+01   0.1952914239E-01   0.1952914239E-01  -0.1114979592E-02   0.1114979592E-02  -0.9866229205E-08   0.0000000000E+00   0.1059768087E+01
   0.2013600000E+01   0.9986139396E+00   0.9986139396E+00   0.1000000000E-03  -0.1336389343E-04  -0.1336389343E-04   0.1350000000E-01  -0.1372696465E-02  -0.1372696465E-02   0.1079286669E+01   0.1952914239E-01   0.1952914239E-01   0.1114979592E-02   0.1114979592E-02   0.9866213603E-08   0.0000000000E+00   0.1059768087E+01
     1     2     3     4     5     6     7     8
     2     9    10     3     6    11    12     7
 VARIABLES = X,Y,Z,DU1,DU2,DU3,U1,U2,U3,S11,S22,S33,S12,S13,S23,Vf,SMISES
 ZONE, T="0.1370D+01" F=FEPOINT, I=   12 J=    2 ET=BRICK
   0.0000000000E+00   0.1895450046E-02   0.1895450046E-02   0.0000000000E+00   0.1105764581E-04   0.1105764581E-04   0.0000000000E+00   0.1884392400E-02   0.1884392400E-02   0.1050518466E+01  -0.8652014425E-02  -0.8652014425E-02  -0.7511474624E-03  -0.7511474624E-03   0.1006083419E-07   0.0000000000E+00   0.1059175276E+01
   0.1007341207E+01   0.1578206824E-02   0.1578206824E-02   0.5112306787E-04   0.1237460334E-04   0.1237460334E-04   0.7290083809E-02   0.1565832221E-02   0.1565832221E-02   0.1063706276E+01   0.4087853228E-02   0.4087853228E-02  -0.8405544580E-03  -0.8405544580E-03   0.9497076106E-08   0.0000000000E+00   0.1059624466E+01
   0.1007341207E+01   0.9984217932E+00   0.1578206824E-02   0.5112306787E-04  -0.1237460334E-04   0.1237460334E-04   0.7290083809E-02  -0.1565832221E-02   0.1565832221E-02   0.1063706276E+01   0.4087853227E-02   0.4087853227E-02   0.8405544581E-03  -0.8405544580E-03  -0.9497081595E-08   0.0000000000E+00   0.1059624466E+01
   0.0000000000E+00   0.9981045500E+00   0.1895450046E-02   0.0000000000E+00  -0.1105764581E-04   0.1105764581E-04   0.0000000000E+00  -0.1884392400E-02   0.1884392400E-02   0.1050518466E+01  -0.8652014425E-02  -0.8652014425E-02   0.7511474621E-03  -0.7511474624E-03  -0.1006086461E-07   0.0000000000E+00   0.1059175276E+01
   0.0000000000E+00   0.1895450046E-02   0.9981045500E+00   0.0000000000E+00   0.1105764581E-04  -0.1105764581E-04   0.0000000000E+00   0.1884392400E-02  -0.1884392400E-02   0.1050518466E+01  -0.8652014425E-02  -0.8652014425E-02  -0.7511474624E-03   0.7511474621E-03  -0.1006086463E-07   0.0000000000E+00   0.1059175276E+01
   0.1007341207E+01   0.1578206824E-02   0.9984217932E+00   0.5112306787E-04   0.1237460334E-04  -0.1237460334E-04   0.7290083809E-02   0.1565832221E-02  -0.1565832221E-02   0.1063706276E+01   0.4087853227E-02   0.4087853227E-02  -0.8405544580E-03   0.8405544581E-03  -0.9497081603E-08   0.0000000000E+00   0.1059624466E+01
   0.1007341207E+01   0.9984217932E+00   0.9984217932E+00   0.5112306787E-04  -0.1237460334E-04  -0.1237460334E-04   0.7290083809E-02  -0.1565832221E-02  -0.1565832221E-02   0.1063706276E+01   0.4087853227E-02   0.4087853227E-02   0.8405544581E-03   0.8405544581E-03   0.9497087079E-08   0.0000000000E+00   0.1059624466E+01
   0.0000000000E+00   0.9981045500E+00   0.9981045500E+00   0.0000000000E+00  -0.1105764581E-04  -0.1105764581E-04   0.0000000000E+00  -0.1884392400E-02  -0.1884392400E-02   0.1050518466E+01  -0.8652014425E-02  -0.8652014425E-02   0.7511474621E-03   0.7511474621E-03   0.1006089501E-07   0.0000000000E+00   0.1059175276E+01
   0.2013700000E+01   0.1399752171E-02   0.1399752171E-02   0.1000000000E-03   0.1369181240E-04   0.1369181240E-04   0.1360000000E-01   0.1386060359E-02   0.1386060359E-02   0.1076887472E+01   0.1683102803E-01   0.1683102803E-01  -0.9324822484E-03  -0.9324822484E-03   0.8996242412E-08   0.0000000000E+00   0.1060063829E+01
   0.2013700000E+01   0.9986002478E+00   0.1399752171E-02   0.1000000000E-03  -0.1369181240E-04   0.1369181240E-04   0.1360000000E-01  -0.1386060359E-02   0.1386060359E-02   0.1076887472E+01   0.1683102803E-01   0.1683102803E-01   0.9324822482E-03  -0.9324822484E-03  -0.8996240895E-08   0.0000000000E+00   0.1060063829E+01
   0.2013700000E+01   0.1399752171E-02   0.9986002478E+00   0.1000000000E-03   0.1369181240E-04  -0.1369181240E-04   0.1360000000E-01   0.1386060359E-02  -0.1386060359E-02   0.1076887472E+01   0.1683102803E-01   0.1683102803E-01  -0.9324822484E-03   0.9324822482E-03  -0.8996240907E-08   0.0000000000E+00   0.1060063829E+01
   0.2013700000E+01   0.9986002478E+00   0.9986002478E+00   0.1000000000E-03  -0.1369181240E-04  -0.1369181240E-04   0.1360000000E-01  -0.1386060359E-02  -0.1386060359E-02   0.1076887472E+01   0.1683102803E-01   0.1683102803E-01   0.9324822481E-03   0.9324822481E-03   0.8996239377E-08   0.0000000000E+00   0.1060063829E+01
     1     2     3     4     5     6     7     8
     2     9    10     3     6    11    12     7
 VARIABLES = X,Y,Z,DU1,DU2,DU3,U1,U2,U3,S11,S22,S33,S12,S13,S23,Vf,SMISES
 ZONE, T="0.1380D+01" F=FEPOINT, I=   12 J=    2 ET=BRICK
   0.0000000000E+00   0.1906432854E-02   0.1906432854E-02   0.0000000000E+00   0.1098280848E-04   0.1098280848E-04   0.0000000000E+00   0.1895450046E-02   0.1895450046E-02   0.1054185422E+01  -0.5008724165E-02  -0.5008724165E-02  -0.5587247901E-03  -0.5587247901E-03   0.9250656067E-08   0.0000000000E+00   0.1059196800E+01
   0.1007392491E+01   0.1590660725E-02   0.1590660725E-02   0.5128410977E-04   0.1245390060E-04   0.1245390060E-04   0.7341206877E-02   0.1578206824E-02   0.1578206824E-02   0.1063817058E+01   0.4036477460E-02   0.4036477460E-02  -0.6432586036E-03  -0.6432586036E-03   0.8674945758E-08   0.0000000000E+00   0.1059784132E+01
   0.1007392491E+01   0.9984093393E+00   0.1590660725E-02   0.5128410977E-04  -0.1245390060E-04   0.1245390060E-04   0.7341206877E-02  -0.1578206824E-02   0.1578206824E-02   0.1063817058E+01   0.4036477460E-02   0.4036477460E-02   0.6432586037E-03  -0.6432586036E-03  -0.8674952310E-08   0.0000000000E+00   0.1059784132E+01
   0.0000000000E+00   0.9980935671E+00   0.1906432854E-02   0.0000000000E+00  -0.1098280848E-04   0.1098280848E-04   0.0000000000E+00  -0.1895450045E-02   0.1895450046E-02   0.1054185422E+01  -0.5008724164E-02  -0.5008724164E-02   0.5587247898E-03  -0.5587247900E-03  -0.9250673977E-08   0.0000000000E+00   0.1059196800E+01
   0.0000000000E+00   0.1906432854E-02   0.9980935671E+00   0.0000000000E+00   0.1098280848E-04  -0.1098280848E-04   0.0000000000E+00   0.1895450046E-02  -0.1895450045E-02   0.1054185422E+01  -0.5008724164E-02  -0.5008724164E-02  -0.5587247900E-03   0.5587247898E-03  -0.9250673992E-08   0.0000000000E+00   0.1059196800E+01
   0.1007392491E+01   0.1590660725E-02   0.9984093393E+00   0.5128410977E-04   0.1245390060E-04  -0.1245390060E-04   0.7341206877E-02   0.1578206824E-02  -0.1578206824E-02   0.1063817058E+01   0.4036477460E-02   0.4036477460E-02  -0.6432586036E-03   0.6432586037E-03  -0.8674952317E-08   0.0000000000E+00   0.1059784132E+01
   0.1007392491E+01   0.9984093393E+00   0.9984093393E+00   0.5128410977E-04  -0.1245390060E-04  -0.1245390060E-04   0.7341206877E-02  -0.1578206824E-02  -0.1578206824E-02   0.1063817058E+01   0.4036477460E-02   0.4036477460E-02   0.6432586037E-03   0.6432586037E-03   0.8674958853E-08   0.0000000000E+00   0.1059784132E+01
   0.0000000000E+00   0.9980935671E+00   0.9980935671E+00   0.0000000000E+00  -0.1098280848E-04  -0.1098280848E-04   0.0000000000E+00  -0.1895450045E-02  -0.1895450045E-02   0.1054185422E+01  -0.5008724164E-02  -0.5008724164E-02   0.5587247898E-03   0.5587247898E-03   0.9250691862E-08   0.0000000000E+00   0.1059196800E+01
   0.2013800000E+01   0.1413682004E-02   0.1413682004E-02   0.1000000000E-03   0.1392983273E-04   0.1392983273E-04   0.1370000000E-01   0.1399752171E-02   0.1399752171E-02   0.1073444434E+01   0.1308380933E-01   0.1308380933E-01  -0.7301185522E-03  -0.7301185522E-03   0.8158359750E-08   0.0000000000E+00   0.1060365151E+01
   0.2013800000E+01   0.9985863180E+00   0.1413682004E-02   0.1000000000E-03  -0.1392983273E-04   0.1392983273E-04   0.1370000000E-01  -0.1399752171E-02   0.1399752171E-02   0.1073444434E+01   0.1308380933E-01   0.1308380933E-01   0.7301185520E-03  -0.7301185522E-03  -0.8158373760E-08   0.0000000000E+00   0.1060365151E+01
   0.2013800000E+01   0.1413682004E-02   0.9985863180E+00   0.1000000000E-03   0.1392983273E-04  -0.1392983273E-04   0.1370000000E-01   0.1399752171E-02  -0.1399752171E-02   0.1073444434E+01   0.1308380933E-01   0.1308380933E-01  -0.7301185522E-03   0.7301185520E-03  -0.8158373773E-08   0.0000000000E+00   0.1060365151E+01
   0.2013800000E+01   0.9985863180E+00   0.9985863180E+00   0.1000000000E-03  -0.1392983273E-04  -0.1392983273E-04   0.1370000000E-01  -0.1399752171E-02  -0.1399752171E-02   0.1073444434E+01   0.1308380933E-01   0.1308380933E-01   0.7301185520E-03   0.7301185520E-03   0.8158387776E-08   0.0000000000E+00   0.1060365151E+01
     1     2     3     4     5     6     7     8
     2     9    10     3     6    11    12     7
 VARIABLES = X,Y,Z,DU1,DU2,DU3,U1,U2,U3,S11,S22,S33,S12,S13,S23,Vf,SMISES
 ZONE, T="0.1390D+01" F=FEPOINT, I=   12 J=    2 ET=BRICK
   0.0000000000E+00   0.1917421947E-02   0.1917421947E-02   0.0000000000E+00   0.1098909326E-04   0.1098909326E-04   0.0000000000E+00   0.1906432854E-02   0.1906432854E-02   0.1058025395E+01  -0.1235477941E-02  -0.1235477941E-02  -0.3576250574E-03  -0.3576250574E-03   0.8532677658E-08   0.0000000000E+00   0.1059261961E+01
   0.1007443850E+01   0.1603183249E-02   0.1603183249E-02   0.5135891249E-04   0.1252252443E-04   0.1252252443E-04   0.7392490987E-02   0.1590660725E-02   0.1590660725E-02   0.1063616192E+01   0.3660696744E-02   0.3660696744E-02  -0.4372895531E-03  -0.4372895531E-03   0.7942870558E-08   0.0000000000E+00   0.1059957152E+01
   0.1007443850E+01   0.9983968168E+00   0.1603183249E-02   0.5135891249E-04  -0.1252252443E-04   0.1252252443E-04   0.7392490987E-02  -0.1590660725E-02   0.1590660725E-02   0.1063616192E+01   0.3660696744E-02   0.3660696744E-02   0.4372895532E-03  -0.4372895531E-03  -0.7942878766E-08   0.0000000000E+00   0.1059957152E+01
   0.0000000000E+00   0.9980825781E+00   0.1917421947E-02   0.0000000000E+00  -0.1098909326E-04   0.1098909326E-04   0.0000000000E+00  -0.1906432854E-02   0.1906432854E-02   0.1058025395E+01  -0.1235477941E-02  -0.1235477941E-02   0.3576250572E-03  -0.3576250574E-03  -0.8532683408E-08   0.0000000000E+00   0.1059261961E+01
   0.0000000000E+00   0.1917421947E-02   0.9980825781E+00   0.0000000000E+00   0.1098909326E-04  -0.1098909326E-04   0.0000000000E+00   0.1906432854E-02  -0.1906432854E-02   0.1058025395E+01  -0.1235477941E-02  -0.1235477941E-02  -0.3576250574E-03   0.3576250572E-03  -0.8532683421E-08   0.0000000000E+00   0.1059261961E+01
   0.1007443850E+01   0.1603183249E-02   0.9983968168E+00   0.5135891249E-04   0.1252252443E-04  -0.1252252443E-04   0.7392490987E-02   0.1590660725E-02  -0.1590660725E-02   0.1063616192E+01   0.3660696744E-02   0.3660696744E-02  -0.4372895531E-03   0.4372895532E-03  -0.7942878773E-08   0.0000000000E+00   0.1059957152E+01
   0.1007443850E+01   0.9983968168E+00   0.9983968168E+00   0.5135891249E-04  -0.1252252443E-04  -0.1252252443E-04   0.7392490987E-02  -0.1590660725E-02  -0.1590660725E-02   0.1063616192E+01   0.3660696744E-02   0.3660696744E-02   0.4372895532E-03   0.4372895532E-03   0.7942886962E-08   0.0000000000E+00   0.1059957152E+01
   0.0000000000E+00   0.9980825781E+00   0.9980825781E+00   0.0000000000E+00  -0.1098909326E-04  -0.1098909326E-04   0.0000000000E+00  -0.1906432854E-02  -0.1906432854E-02   0.1058025395E+01  -0.1235477941E-02  -0.1235477941E-02   0.3576250572E-03   0.3576250572E-03   0.8532689124E-08   0.0000000000E+00   0.1059261961E+01
   0.2013900000E+01   0.1427746982E-02   0.1427746982E-02   0.1000000000E-03   0.1406497844E-04   0.1406497844E-04   0.1380000000E-01   0.1413682004E-02   0.1413682004E-02   0.1069204899E+01   0.8557915875E-02   0.8557915875E-02  -0.5190805883E-03  -0.5190805883E-03   0.7408685509E-08   0.0000000000E+00   0.1060649272E+01
   0.2013900000E+01   0.9985722530E+00   0.1427746982E-02   0.1000000000E-03  -0.1406497844E-04   0.1406497844E-04   0.1380000000E-01  -0.1413682004E-02   0.1413682004E-02   0.1069204899E+01   0.8557915874E-02   0.8557915874E-02   0.5190805882E-03  -0.5190805883E-03  -0.7408715745E-08   0.0000000000E+00   0.1060649272E+01
   0.2013900000E+01   0.1427746982E-02   0.9985722530E+00   0.1000000000E-03   0.1406497844E-04  -0.1406497844E-04   0.1380000000E-01   0.1413682004E-02  -0.1413682004E-02   0.1069204899E+01   0.8557915874E-02   0.8557915874E-02  -0.5190805883E-03   0.5190805882E-03  -0.7408715758E-08   0.0000000000E+00   0.1060649272E+01
   0.2013900000E+01   0.9985722530E+00   0.9985722530E+00   0.1000000000E-03  -0.1406497844E-04  -0.1406497844E-04   0.1380000000E-01  -0.1413682004E-02  -0.1413682004E-02   0.1069204899E+01   0.8557915874E-02   0.8557915874E-02   0.5190805882E-03   0.5190805882E-03   0.7408745990E-08   0.0000000000E+00   0.1060649272E+01
     1     2     3     4     5     6     7     8
     2     9    10     3     6    11    12     7
 VARIABLES = X,Y,Z,DU1,DU2,DU3,U1,U2,U3,S11,S22,S33,S12,S13,S23,Vf,SMISES
 ZONE, T="0.1400D+01" F=FEPOINT, I=   12 J=    2 ET=BRICK
   0.0000000000E+00   0.1928494285E-02   0.1928494285E-02   0.0000000000E+00   0.1107233823E-04   0.1107233823E-04   0.0000000000E+00   0.1917421947E-02   0.1917421947E-02   0.1061809718E+01   0.2448231565E-02   0.2448231565E-02  -0.1591615688E-03  -0.1591615688E-03   0.7935606832E-08   0.0000000000E+00   0.1059361703E+01
   0.1007495196E+01   0.1615758642E-02   0.1615758642E-02   0.5134605159E-04   0.1257539249E-04   0.1257539249E-04   0.7443849899E-02   0.1603183249E-02   0.1603183249E-02   0.1063135934E+01   0.3007952054E-02   0.3007952054E-02  -0.2340093225E-03  -0.2340093225E-03   0.7332973970E-08   0.0000000000E+00   0.1060128476E+01
   0.1007495196E+01   0.9983842414E+00   0.1615758642E-02   0.5134605159E-04  -0.1257539249E-04   0.1257539249E-04   0.7443849899E-02  -0.1603183249E-02   0.1603183249E-02   0.1063135934E+01   0.3007952054E-02   0.3007952054E-02   0.2340093227E-03  -0.2340093225E-03  -0.7332984276E-08   0.0000000000E+00   0.1060128476E+01
   0.0000000000E+00   0.9980715057E+00   0.1928494285E-02   0.0000000000E+00  -0.1107233823E-04   0.1107233823E-04   0.0000000000E+00  -0.1917421947E-02   0.1917421947E-02   0.1061809718E+01   0.2448231565E-02   0.2448231565E-02   0.1591615686E-03  -0.1591615688E-03  -0.7935601297E-08   0.0000000000E+00   0.1059361703E+01
   0.0000000000E+00   0.1928494285E-02   0.9980715057E+00   0.0000000000E+00   0.1107233823E-04  -0.1107233823E-04   0.0000000000E+00   0.1917421947E-02  -0.1917421947E-02   0.1061809718E+01   0.2448231565E-02   0.2448231565E-02  -0.1591615688E-03   0.1591615686E-03  -0.7935601309E-08   0.0000000000E+00   0.1059361703E+01
   0.1007495196E+01   0.1615758642E-02   0.9983842414E+00   0.5134605159E-04   0.1257539249E-04  -0.1257539249E-04   0.7443849899E-02   0.1603183249E-02  -0.1603183249E-02   0.1063135934E+01   0.3007952054E-02   0.3007952054E-02  -0.2340093225E-03   0.2340093227E-03  -0.7332984283E-08   0.0000000000E+00   0.1060128476E+01
   0.1007495196E+01   0.9983842414E+00   0.9983842414E+00   0.5134605159E-04  -0.1257539249E-04  -0.1257539249E-04   0.7443849899E-02  -0.1603183249E-02  -0.1603183249E-02   0.1063135934E+01   0.3007952054E-02   0.3007952054E-02   0.2340093227E-03   0.2340093227E-03   0.7332994569E-08   0.0000000000E+00   0.1060128476E+01
   0.0000000000E+00   0.9980715057E+00   0.9980715057E+00   0.0000000000E+00  -0.1107233823E-04  -0.1107233823E-04   0.0000000000E+00  -0.1917421947E-02  -0.1917421947E-02   0.1061809718E+01   0.2448231565E-02   0.2448231565E-02   0.1591615686E-03   0.1591615686E-03   0.7935595722E-08   0.0000000000E+00   0.1059361703E+01
   0.2014000000E+01   0.1441838231E-02   0.1441838231E-02   0.1000000000E-03   0.1409124828E-04   0.1409124828E-04   0.1390000000E-01   0.1427746982E-02   0.1427746982E-02   0.1064462127E+01   0.3567683925E-02   0.3567683925E-02  -0.3107870275E-03  -0.3107870275E-03   0.6782789345E-08   0.0000000000E+00   0.1060895264E+01
   0.2014000000E+01   0.9985581618E+00   0.1441838231E-02   0.1000000000E-03  -0.1409124828E-04   0.1409124828E-04   0.1390000000E-01  -0.1427746982E-02   0.1427746982E-02   0.1064462127E+01   0.3567683925E-02   0.3567683925E-02   0.3107870274E-03  -0.3107870275E-03  -0.6782835672E-08   0.0000000000E+00   0.1060895264E+01
   0.2014000000E+01   0.1441838231E-02   0.9985581618E+00   0.1000000000E-03   0.1409124828E-04  -0.1409124828E-04   0.1390000000E-01   0.1427746982E-02  -0.1427746982E-02   0.1064462127E+01   0.3567683925E-02   0.3567683925E-02  -0.3107870275E-03   0.3107870274E-03  -0.6782835686E-08   0.0000000000E+00   0.1060895264E+01
   0.2014000000E+01   0.9985581618E+00   0.9985581618E+00   0.1000000000E-03  -0.1409124828E-04  -0.1409124828E-04   0.1390000000E-01  -0.1427746982E-02  -0.1427746982E-02   0.1064462127E+01   0.3567683925E-02   0.3567683925E-02   0.3107870274E-03   0.3107870274E-03   0.6782882016E-08   0.0000000000E+00   0.1060895264E+01
     1     2     3     4     5     6     7     8
     2     9    10     3     6    11    12     7
 VARIABLES = X,Y,Z,DU1,DU2,DU3,U1,U2,U3,S11,S22,S33,S12,S13,S23,Vf,SMISES
 ZONE, T="0.1410D+01" F=FEPOINT, I=   12 J=    2 ET=BRICK
   0.0000000000E+00   0.1939718569E-02   0.1939718569E-02   0.0000000000E+00   0.1122428375E-04   0.1122428375E-04   0.0000000000E+00   0.1928494285E-02   0.1928494285E-02   0.1065325647E+01   0.5840161228E-02   0.5840161228E-02   0.2580028370E-04   0.2580028370E-04   0.7464582661E-08   0.0000000000E+00   0.1059485493E+01
   0.1007546445E+01   0.1628367604E-02   0.1628367604E-02   0.5124946022E-04   0.1260896255E-04   0.1260896255E-04   0.7495195951E-02   0.1615758642E-02   0.1615758642E-02   0.1062429280E+01   0.2145316429E-02   0.2145316429E-02  -0.4431475483E-04  -0.4431475483E-04   0.6853123651E-08   0.0000000000E+00   0.1060284006E+01
   0.1007546445E+01   0.9983716324E+00   0.1628367604E-02   0.5124946022E-04  -0.1260896255E-04   0.1260896255E-04   0.7495195951E-02  -0.1615758642E-02   0.1615758642E-02   0.1062429280E+01   0.2145316429E-02   0.2145316429E-02   0.4431475500E-04  -0.4431475484E-04  -0.6853136304E-08   0.0000000000E+00   0.1060284006E+01
   0.0000000000E+00   0.9980602814E+00   0.1939718569E-02   0.0000000000E+00  -0.1122428375E-04   0.1122428375E-04   0.0000000000E+00  -0.1928494285E-02   0.1928494285E-02   0.1065325647E+01   0.5840161228E-02   0.5840161228E-02  -0.2580028386E-04   0.2580028369E-04  -0.7464567169E-08   0.0000000000E+00   0.1059485493E+01
   0.0000000000E+00   0.1939718569E-02   0.9980602814E+00   0.0000000000E+00   0.1122428375E-04  -0.1122428375E-04   0.0000000000E+00   0.1928494285E-02  -0.1928494285E-02   0.1065325647E+01   0.5840161228E-02   0.5840161228E-02   0.2580028369E-04  -0.2580028386E-04  -0.7464567179E-08   0.0000000000E+00   0.1059485493E+01
   0.1007546445E+01   0.1628367604E-02   0.9983716324E+00   0.5124946022E-04   0.1260896255E-04  -0.1260896255E-04   0.7495195951E-02   0.1615758642E-02  -0.1615758642E-02   0.1062429280E+01   0.2145316429E-02   0.2145316429E-02  -0.4431475484E-04   0.4431475500E-04  -0.6853136309E-08   0.0000000000E+00   0.1060284006E+01
   0.1007546445E+01   0.9983716324E+00   0.9983716324E+00   0.5124946022E-04  -0.1260896255E-04  -0.1260896255E-04   0.7495195951E-02  -0.1615758642E-02  -0.1615758642E-02   0.1062429280E+01   0.2145316429E-02   0.2145316429E-02   0.4431475501E-04   0.4431475501E-04   0.6853148945E-08   0.0000000000E+00   0.1060284006E+01
   0.0000000000E+00   0.9980602814E+00   0.9980602814E+00   0.0000000000E+00  -0.1122428375E-04  -0.1122428375E-04   0.0000000000E+00  -0.1928494285E-02  -0.1928494285E-02   0.1065325647E+01   0.5840161228E-02   0.5840161228E-02  -0.2580028385E-04  -0.2580028385E-04   0.7464551634E-08   0.0000000000E+00   0.1059485493E+01
   0.2014100000E+01   0.1455848053E-02   0.1455848053E-02   0.1000000000E-03   0.1400982227E-04   0.1400982227E-04   0.1400000000E-01   0.1441838231E-02   0.1441838231E-02   0.1059534918E+01  -0.1550530724E-02  -0.1550530724E-02  -0.1161731911E-03  -0.1161731911E-03   0.6291263721E-08   0.0000000000E+00   0.1061085564E+01
   0.2014100000E+01   0.9985441519E+00   0.1455848053E-02   0.1000000000E-03  -0.1400982227E-04   0.1400982227E-04   0.1400000000E-01  -0.1441838231E-02   0.1441838231E-02   0.1059534917E+01  -0.1550530724E-02  -0.1550530724E-02   0.1161731910E-03  -0.1161731911E-03  -0.6291325172E-08   0.0000000000E+00   0.1061085564E+01
   0.2014100000E+01   0.1455848053E-02   0.9985441519E+00   0.1000000000E-03   0.1400982227E-04  -0.1400982227E-04   0.1400000000E-01   0.1441838231E-02  -0.1441838231E-02   0.1059534917E+01  -0.1550530724E-02  -0.1550530724E-02  -0.1161731911E-03   0.1161731910E-03  -0.6291325186E-08   0.0000000000E+00   0.1061085564E+01
   0.2014100000E+01   0.9985441519E+00   0.9985441519E+00   0.1000000000E-03  -0.1400982227E-04  -0.1400982227E-04   0.1400000000E-01  -0.1441838231E-02  -0.1441838231E-02   0.1059534917E+01  -0.1550530724E-02  -0.1550530724E-02   0.1161731910E-03   0.1161731910E-03   0.6291386646E-08   0.0000000000E+00   0.1061085564E+01
     1     2     3     4     5     6     7     8
     2     9    10     3     6    11    12     7
 VARIABLES = X,Y,Z,DU1,DU2,DU3,U1,U2,U3,S11,S22,S33,S12,S13,S23,Vf,SMISES
 ZONE, T="0.1420D+01" F=FEPOINT, I=   12 J=    2 ET=BRICK
   0.0000000000E+00   0.1951151815E-02   0.1951151815E-02   0.0000000000E+00   0.1143324603E-04   0.1143324603E-04   0.0000000000E+00   0.1939718569E-02   0.1939718569E-02   0.1068387239E+01   0.8765252414E-02   0.8765252414E-02   0.1874953270E-03   0.1874953270E-03   0.7102587663E-08   0.0000000000E+00   0.1059622286E+01
   0.1007597523E+01   0.1640989038E-02   0.1640989038E-02   0.5107801131E-04   0.1262143380E-04   0.1262143380E-04   0.7546445411E-02   0.1628367604E-02   0.1628367604E-02   0.1061564610E+01   0.1153080572E-02   0.1153080572E-02   0.1220146117E-03   0.1220146117E-03   0.6488246381E-08   0.0000000000E+00   0.1060411678E+01
   0.1007597523E+01   0.9983590110E+00   0.1640989038E-02   0.5107801131E-04  -0.1262143380E-04   0.1262143380E-04   0.7546445411E-02  -0.1628367604E-02   0.1628367604E-02   0.1061564610E+01   0.1153080572E-02   0.1153080572E-02  -0.1220146115E-03   0.1220146117E-03  -0.6488261415E-08   0.0000000000E+00   0.1060411678E+01
   0.0000000000E+00   0.9980488482E+00   0.1951151815E-02   0.0000000000E+00  -0.1143324602E-04   0.1143324603E-04   0.0000000000E+00  -0.1939718569E-02   0.1939718569E-02   0.1068387239E+01   0.8765252413E-02   0.8765252413E-02  -0.1874953271E-03   0.1874953270E-03  -0.7102563902E-08   0.0000000000E+00   0.1059622286E+01
   0.0000000000E+00   0.1951151815E-02   0.9980488482E+00   0.0000000000E+00   0.1143324603E-04  -0.1143324602E-04   0.0000000000E+00   0.1939718569E-02  -0.1939718569E-02   0.1068387239E+01   0.8765252413E-02   0.8765252413E-02   0.1874953270E-03  -0.1874953271E-03  -0.7102563909E-08   0.0000000000E+00   0.1059622286E+01
   0.1007597523E+01   0.1640989038E-02   0.9983590110E+00   0.5107801131E-04   0.1262143380E-04  -0.1262143380E-04   0.7546445411E-02   0.1628367604E-02  -0.1628367604E-02   0.1061564610E+01   0.1153080572E-02   0.1153080572E-02   0.1220146117E-03  -0.1220146115E-03  -0.6488261419E-08   0.0000000000E+00   0.1060411678E+01
   0.1007597523E+01   0.9983590110E+00   0.9983590110E+00   0.5107801131E-04  -0.1262143380E-04  -0.1262143380E-04   0.7546445411E-02  -0.1628367604E-02  -0.1628367604E-02   0.1061564610E+01   0.1153080572E-02   0.1153080572E-02  -0.1220146115E-03  -0.1220146115E-03   0.6488276437E-08   0.0000000000E+00   0.1060411678E+01
   0.0000000000E+00   0.9980488482E+00   0.9980488482E+00   0.0000000000E+00  -0.1143324602E-04  -0.1143324602E-04   0.0000000000E+00  -0.1939718569E-02  -0.1939718569E-02   0.1068387239E+01   0.8765252413E-02   0.8765252413E-02  -0.1874953271E-03  -0.1874953271E-03   0.7102540093E-08   0.0000000000E+00   0.1059622286E+01
   0.2014200000E+01   0.1469676844E-02   0.1469676844E-02   0.1000000000E-03   0.1382879058E-04   0.1382879058E-04   0.1410000000E-01   0.1455848053E-02   0.1455848053E-02   0.1054746018E+01  -0.6461109937E-02  -0.6461109937E-02   0.5496133556E-04   0.5496133556E-04   0.5920945487E-08   0.0000000000E+00   0.1061207155E+01
   0.2014200000E+01   0.9985303232E+00   0.1469676844E-02   0.1000000000E-03  -0.1382879058E-04   0.1382879058E-04   0.1410000000E-01  -0.1455848053E-02   0.1455848053E-02   0.1054746018E+01  -0.6461109936E-02  -0.6461109936E-02  -0.5496133560E-04   0.5496133553E-04  -0.5921020313E-08   0.0000000000E+00   0.1061207155E+01
   0.2014200000E+01   0.1469676844E-02   0.9985303232E+00   0.1000000000E-03   0.1382879058E-04  -0.1382879058E-04   0.1410000000E-01   0.1455848053E-02  -0.1455848053E-02   0.1054746018E+01  -0.6461109936E-02  -0.6461109936E-02   0.5496133553E-04  -0.5496133560E-04  -0.5921020328E-08   0.0000000000E+00   0.1061207155E+01
   0.2014200000E+01   0.9985303232E+00   0.9985303232E+00   0.1000000000E-03  -0.1382879058E-04  -0.1382879058E-04   0.1410000000E-01  -0.1455848053E-02  -0.1455848053E-02   0.1054746018E+01  -0.6461109936E-02  -0.6461109936E-02  -0.5496133558E-04  -0.5496133558E-04   0.5921095167E-08   0.0000000000E+00   0.1061207155E+01
     1     2     3     4     5     6     7     8
     2     9    10     3     6    11    12     7
 VARIABLES = X,Y,Z,DU1,DU2,DU3,U1,U2,U3,S11,S22,S33,S12,S13,S23,Vf,SMISES
 ZONE, T="0.1430D+01" F=FEPOINT, I=   12 J=    2 ET=BRICK
   0.0000000000E+00   0.1962836752E-02   0.1962836752E-02   0.0000000000E+00   0.1168493707E-04   0.1168493707E-04   0.0000000000E+00   0.1951151815E-02   0.1951151815E-02   0.1070844033E+01   0.1108346458E-01   0.1108346458E-01   0.3178218298E-03   0.3178218298E-03   0.6816625232E-08   0.0000000000E+00   0.1059761427E+01
   0.1007648368E+01   0.1653601836E-02   0.1653601836E-02   0.5084481529E-04   0.1261279830E-04   0.1261279830E-04   0.7597523423E-02   0.1640989038E-02   0.1640989038E-02   0.1060619371E+01   0.1176293437E-03   0.1176293437E-03   0.2568761200E-03   0.2568761200E-03   0.6206484977E-08   0.0000000000E+00   0.1060502320E+01
   0.1007648368E+01   0.9983463982E+00   0.1653601836E-02   0.5084481529E-04  -0.1261279830E-04   0.1261279830E-04   0.7597523423E-02  -0.1640989038E-02   0.1640989038E-02   0.1060619371E+01   0.1176293437E-03   0.1176293437E-03  -0.2568761198E-03   0.2568761200E-03  -0.6206502205E-08   0.0000000000E+00   0.1060502320E+01
   0.0000000000E+00   0.9980371632E+00   0.1962836752E-02   0.0000000000E+00  -0.1168493707E-04   0.1168493707E-04   0.0000000000E+00  -0.1951151815E-02   0.1951151815E-02   0.1070844033E+01   0.1108346458E-01   0.1108346458E-01  -0.3178218299E-03   0.3178218297E-03  -0.6816595136E-08   0.0000000000E+00   0.1059761427E+01
   0.0000000000E+00   0.1962836752E-02   0.9980371632E+00   0.0000000000E+00   0.1168493707E-04  -0.1168493707E-04   0.0000000000E+00   0.1951151815E-02  -0.1951151815E-02   0.1070844033E+01   0.1108346458E-01   0.1108346458E-01   0.3178218297E-03  -0.3178218299E-03  -0.6816595141E-08   0.0000000000E+00   0.1059761427E+01
   0.1007648368E+01   0.1653601836E-02   0.9983463982E+00   0.5084481529E-04   0.1261279830E-04  -0.1261279830E-04   0.7597523423E-02   0.1640989038E-02  -0.1640989038E-02   0.1060619371E+01   0.1176293437E-03   0.1176293437E-03   0.2568761200E-03  -0.2568761198E-03  -0.6206502208E-08   0.0000000000E+00   0.1060502320E+01
   0.1007648368E+01   0.9983463982E+00   0.9983463982E+00   0.5084481529E-04  -0.1261279830E-04  -0.1261279830E-04   0.7597523423E-02  -0.1640989038E-02  -0.1640989038E-02   0.1060619371E+01   0.1176293437E-03   0.1176293437E-03  -0.2568761198E-03  -0.2568761198E-03   0.6206519419E-08   0.0000000000E+00   0.1060502320E+01
   0.0000000000E+00   0.9980371632E+00   0.9980371632E+00   0.0000000000E+00  -0.1168493707E-04  -0.1168493707E-04   0.0000000000E+00  -0.1951151815E-02  -0.1951151815E-02   0.1070844033E+01   0.1108346457E-01   0.1108346457E-01  -0.3178218298E-03  -0.3178218298E-03   0.6816564988E-08   0.0000000000E+00   0.1059761427E+01
   0.2014300000E+01   0.1483239280E-02   0.1483239280E-02   0.1000000000E-03   0.1356243607E-04   0.1356243607E-04   0.1420000000E-01   0.1469676844E-02   0.1469676844E-02   0.1050400797E+01  -0.1085124991E-01  -0.1085124991E-01   0.1945088979E-03   0.1945088979E-03   0.5641062212E-08   0.0000000000E+00   0.1061252369E+01
   0.2014300000E+01   0.9985167607E+00   0.1483239280E-02   0.1000000000E-03  -0.1356243607E-04   0.1356243607E-04   0.1420000000E-01  -0.1469676843E-02   0.1469676844E-02   0.1050400797E+01  -0.1085124991E-01  -0.1085124991E-01  -0.1945088980E-03   0.1945088979E-03  -0.5641147979E-08   0.0000000000E+00   0.1061252369E+01
   0.2014300000E+01   0.1483239280E-02   0.9985167607E+00   0.1000000000E-03   0.1356243607E-04  -0.1356243607E-04   0.1420000000E-01   0.1469676844E-02  -0.1469676843E-02   0.1050400797E+01  -0.1085124991E-01  -0.1085124991E-01   0.1945088979E-03  -0.1945088980E-03  -0.5641147994E-08   0.0000000000E+00   0.1061252369E+01
   0.2014300000E+01   0.9985167607E+00   0.9985167607E+00   0.1000000000E-03  -0.1356243607E-04  -0.1356243607E-04   0.1420000000E-01  -0.1469676843E-02  -0.1469676843E-02   0.1050400797E+01  -0.1085124991E-01  -0.1085124991E-01  -0.1945088979E-03  -0.1945088979E-03   0.5641233783E-08   0.0000000000E+00   0.1061252369E+01
     1     2     3     4     5     6     7     8
     2     9    10     3     6    11    12     7
 VARIABLES = X,Y,Z,DU1,DU2,DU3,U1,U2,U3,S11,S22,S33,S12,S13,S23,Vf,SMISES
 ZONE, T="0.1440D+01" F=FEPOINT, I=   12 J=    2 ET=BRICK
   0.0000000000E+00   0.1974800131E-02   0.1974800131E-02   0.0000000000E+00   0.1196337867E-04   0.1196337867E-04   0.0000000000E+00   0.1962836752E-02   0.1962836752E-02   0.1072587249E+01   0.1269525718E-01   0.1269525718E-01   0.4107833956E-03   0.4107833956E-03   0.6566894030E-08   0.0000000000E+00   0.1059893425E+01
   0.1007698935E+01   0.1666186583E-02   0.1666186583E-02   0.5056628513E-04   0.1258474626E-04   0.1258474626E-04   0.7648368238E-02   0.1653601836E-02   0.1653601836E-02   0.1059673362E+01  -0.8757869060E-03  -0.8757869060E-03   0.3542799032E-03   0.3542799032E-03   0.5968408879E-08   0.0000000000E+00   0.1060550230E+01
   0.1007698935E+01   0.9983338134E+00   0.1666186583E-02   0.5056628513E-04  -0.1258474626E-04   0.1258474626E-04   0.7648368238E-02  -0.1653601836E-02   0.1653601836E-02   0.1059673362E+01  -0.8757869059E-03  -0.8757869059E-03  -0.3542799030E-03   0.3542799032E-03  -0.5968427908E-08   0.0000000000E+00   0.1060550230E+01
   0.0000000000E+00   0.9980251999E+00   0.1974800131E-02   0.0000000000E+00  -0.1196337867E-04   0.1196337867E-04   0.0000000000E+00  -0.1962836752E-02   0.1962836752E-02   0.1072587249E+01   0.1269525718E-01   0.1269525718E-01  -0.4107833957E-03   0.4107833956E-03  -0.6566859669E-08   0.0000000000E+00   0.1059893425E+01
   0.0000000000E+00   0.1974800131E-02   0.9980251999E+00   0.0000000000E+00   0.1196337867E-04  -0.1196337867E-04   0.0000000000E+00   0.1962836752E-02  -0.1962836752E-02   0.1072587249E+01   0.1269525718E-01   0.1269525718E-01   0.4107833956E-03  -0.4107833957E-03  -0.6566859673E-08   0.0000000000E+00   0.1059893425E+01
   0.1007698935E+01   0.1666186583E-02   0.9983338134E+00   0.5056628513E-04   0.1258474626E-04  -0.1258474626E-04   0.7648368238E-02   0.1653601836E-02  -0.1653601836E-02   0.1059673362E+01  -0.8757869059E-03  -0.8757869059E-03   0.3542799032E-03  -0.3542799030E-03  -0.5968427909E-08   0.0000000000E+00   0.1060550230E+01
   0.1007698935E+01   0.9983338134E+00   0.9983338134E+00   0.5056628513E-04  -0.1258474626E-04  -0.1258474626E-04   0.7648368238E-02  -0.1653601836E-02  -0.1653601836E-02   0.1059673362E+01  -0.8757869059E-03  -0.8757869059E-03  -0.3542799030E-03  -0.3542799030E-03   0.5968446921E-08   0.0000000000E+00   0.1060550230E+01
   0.0000000000E+00   0.9980251999E+00   0.9980251999E+00   0.0000000000E+00  -0.1196337867E-04  -0.1196337867E-04   0.0000000000E+00  -0.1962836752E-02  -0.1962836752E-02   0.1072587249E+01   0.1269525718E-01   0.1269525718E-01  -0.4107833957E-03  -0.4107833957E-03   0.6566825254E-08   0.0000000000E+00   0.1059893425E+01
   0.2014400000E+01   0.1496469410E-02   0.1496469410E-02   0.1000000000E-03   0.1323013067E-04   0.1323013067E-04   0.1430000000E-01   0.1483239280E-02   0.1483239280E-02   0.1046767614E+01  -0.1445089985E-01  -0.1445089985E-01   0.2964838082E-03   0.2964838082E-03   0.5412491689E-08   0.0000000000E+00   0.1061219260E+01
   0.2014400000E+01   0.9985035306E+00   0.1496469410E-02   0.1000000000E-03  -0.1323013067E-04   0.1323013067E-04   0.1430000000E-01  -0.1483239280E-02   0.1483239280E-02   0.1046767614E+01  -0.1445089985E-01  -0.1445089985E-01  -0.2964838082E-03   0.2964838081E-03  -0.5412585432E-08   0.0000000000E+00   0.1061219260E+01
   0.2014400000E+01   0.1496469410E-02   0.9985035306E+00   0.1000000000E-03   0.1323013067E-04  -0.1323013067E-04   0.1430000000E-01   0.1483239280E-02  -0.1483239280E-02   0.1046767614E+01  -0.1445089985E-01  -0.1445089985E-01   0.2964838081E-03  -0.2964838082E-03  -0.5412585445E-08   0.0000000000E+00   0.1061219260E+01
   0.2014400000E+01   0.9985035306E+00   0.9985035306E+00   0.1000000000E-03  -0.1323013067E-04  -0.1323013067E-04   0.1430000000E-01  -0.1483239280E-02  -0.1483239280E-02   0.1046767614E+01  -0.1445089985E-01  -0.1445089985E-01  -0.2964838081E-03  -0.2964838081E-03   0.5412679217E-08   0.0000000000E+00   0.1061219260E+01
     1     2     3     4     5     6     7     8
     2     9    10     3     6    11    12     7
 VARIABLES = X,Y,Z,DU1,DU2,DU3,U1,U2,U3,S11,S22,S33,S12,S13,S23,Vf,SMISES
 ZONE, T="0.1450D+01" F=FEPOINT, I=   12 J=    2 ET=BRICK
   0.0000000000E+00   0.1987051988E-02   0.1987051988E-02   0.0000000000E+00   0.1225185666E-04   0.1225185666E-04   0.0000000000E+00   0.1974800131E-02   0.1974800131E-02   0.1073553338E+01   0.1354460912E-01   0.1354460912E-01   0.4627863318E-03   0.4627863318E-03   0.6316624082E-08   0.0000000000E+00   0.1060010548E+01
   0.1007749196E+01   0.1678727023E-02   0.1678727023E-02   0.5026103298E-04   0.1254044054E-04   0.1254044054E-04   0.7698934523E-02   0.1666186583E-02   0.1666186583E-02   0.1058802189E+01  -0.1749806816E-02  -0.1749806816E-02   0.4106395238E-03   0.4106395238E-03   0.5736928120E-08   0.0000000000E+00   0.1060553440E+01
   0.1007749196E+01   0.9983212730E+00   0.1678727023E-02   0.5026103298E-04  -0.1254044054E-04   0.1254044054E-04   0.7698934523E-02  -0.1666186582E-02   0.1666186583E-02   0.1058802189E+01  -0.1749806816E-02  -0.1749806816E-02  -0.4106395236E-03   0.4106395237E-03  -0.5736948380E-08   0.0000000000E+00   0.1060553440E+01
   0.0000000000E+00   0.9980129480E+00   0.1987051988E-02   0.0000000000E+00  -0.1225185665E-04   0.1225185666E-04   0.0000000000E+00  -0.1974800131E-02   0.1974800131E-02   0.1073553338E+01   0.1354460912E-01   0.1354460912E-01  -0.4627863319E-03   0.4627863318E-03  -0.6316587545E-08   0.0000000000E+00   0.1060010548E+01
   0.0000000000E+00   0.1987051988E-02   0.9980129480E+00   0.0000000000E+00   0.1225185666E-04  -0.1225185665E-04   0.0000000000E+00   0.1974800131E-02  -0.1974800131E-02   0.1073553338E+01   0.1354460912E-01   0.1354460912E-01   0.4627863318E-03  -0.4627863319E-03  -0.6316587547E-08   0.0000000000E+00   0.1060010548E+01
   0.1007749196E+01   0.1678727023E-02   0.9983212730E+00   0.5026103298E-04   0.1254044054E-04  -0.1254044054E-04   0.7698934523E-02   0.1666186583E-02  -0.1666186582E-02   0.1058802189E+01  -0.1749806816E-02  -0.1749806816E-02   0.4106395237E-03  -0.4106395236E-03  -0.5736948380E-08   0.0000000000E+00   0.1060553440E+01
   0.1007749196E+01   0.9983212730E+00   0.9983212730E+00   0.5026103298E-04  -0.1254044054E-04  -0.1254044054E-04   0.7698934523E-02  -0.1666186582E-02  -0.1666186582E-02   0.1058802189E+01  -0.1749806816E-02  -0.1749806816E-02  -0.4106395235E-03  -0.4106395235E-03   0.5736968626E-08   0.0000000000E+00   0.1060553440E+01
   0.0000000000E+00   0.9980129480E+00   0.9980129480E+00   0.0000000000E+00  -0.1225185665E-04  -0.1225185665E-04   0.0000000000E+00  -0.1974800131E-02  -0.1974800131E-02   0.1073553338E+01   0.1354460912E-01   0.1354460912E-01  -0.4627863319E-03  -0.4627863319E-03   0.6316550955E-08   0.0000000000E+00   0.1060010548E+01
   0.2014500000E+01   0.1509324340E-02   0.1509324340E-02   0.1000000000E-03   0.1285492981E-04   0.1285492981E-04   0.1440000000E-01   0.1496469410E-02   0.1496469410E-02   0.1044061181E+01  -0.1704929302E-01  -0.1704929302E-01   0.3573062252E-03   0.3573062252E-03   0.5197766014E-08   0.0000000000E+00   0.1061111558E+01
   0.2014500000E+01   0.9984906757E+00   0.1509324340E-02   0.1000000000E-03  -0.1285492980E-04   0.1285492981E-04   0.1440000000E-01  -0.1496469410E-02   0.1496469410E-02   0.1044061181E+01  -0.1704929302E-01  -0.1704929302E-01  -0.3573062252E-03   0.3573062251E-03  -0.5197864405E-08   0.0000000000E+00   0.1061111558E+01
   0.2014500000E+01   0.1509324340E-02   0.9984906757E+00   0.1000000000E-03   0.1285492981E-04  -0.1285492980E-04   0.1440000000E-01   0.1496469410E-02  -0.1496469410E-02   0.1044061181E+01  -0.1704929302E-01  -0.1704929302E-01   0.3573062251E-03  -0.3573062252E-03  -0.5197864418E-08   0.0000000000E+00   0.1061111558E+01
   0.2014500000E+01   0.9984906757E+00   0.9984906757E+00   0.1000000000E-03  -0.1285492980E-04  -0.1285492980E-04   0.1440000000E-01  -0.1496469410E-02  -0.1496469410E-02   0.1044061181E+01  -0.1704929302E-01  -0.1704929302E-01  -0.3573062251E-03  -0.3573062251E-03   0.5197962845E-08   0.0000000000E+00   0.1061111558E+01
     1     2     3     4     5     6     7     8
     2     9    10     3     6    11    12     7
 VARIABLES = X,Y,Z,DU1,DU2,DU3,U1,U2,U3,S11,S22,S33,S12,S13,S23,Vf,SMISES
 ZONE, T="0.1460D+01" F=FEPOINT, I=   12 J=    2 ET=BRICK
   0.0000000000E+00   0.1999585851E-02   0.1999585851E-02   0.0000000000E+00   0.1253386351E-04   0.1253386351E-04   0.0000000000E+00   0.1987051988E-02   0.1987051988E-02   0.1073724896E+01   0.1361959608E-01   0.1361959608E-01   0.4727794882E-03   0.4727794882E-03   0.6040255950E-08   0.0000000000E+00   0.1060107198E+01
   0.1007799144E+01   0.1691211208E-02   0.1691211208E-02   0.4994867094E-04   0.1248418520E-04   0.1248418520E-04   0.7749195556E-02   0.1678727023E-02   0.1678727023E-02   0.1058071403E+01  -0.2440727085E-02  -0.2440727085E-02   0.4249059738E-03   0.4249059738E-03   0.5485584423E-08   0.0000000000E+00   0.1060513673E+01
   0.1007799144E+01   0.9983087888E+00   0.1691211208E-02   0.4994867094E-04  -0.1248418520E-04   0.1248418520E-04   0.7749195556E-02  -0.1678727023E-02   0.1678727023E-02   0.1058071403E+01  -0.2440727085E-02  -0.2440727085E-02  -0.4249059735E-03   0.4249059737E-03  -0.5485605216E-08   0.0000000000E+00   0.1060513673E+01
   0.0000000000E+00   0.9980004141E+00   0.1999585851E-02   0.0000000000E+00  -0.1253386351E-04   0.1253386351E-04   0.0000000000E+00  -0.1987051988E-02   0.1987051988E-02   0.1073724896E+01   0.1361959608E-01   0.1361959608E-01  -0.4727794883E-03   0.4727794882E-03  -0.6040219240E-08   0.0000000000E+00   0.1060107198E+01
   0.0000000000E+00   0.1999585851E-02   0.9980004141E+00   0.0000000000E+00   0.1253386351E-04  -0.1253386351E-04   0.0000000000E+00   0.1987051988E-02  -0.1987051988E-02   0.1073724896E+01   0.1361959608E-01   0.1361959608E-01   0.4727794882E-03  -0.4727794883E-03  -0.6040219240E-08   0.0000000000E+00   0.1060107198E+01
   0.1007799144E+01   0.1691211208E-02   0.9983087888E+00   0.4994867094E-04   0.1248418520E-04  -0.1248418520E-04   0.7749195556E-02   0.1678727023E-02  -0.1678727023E-02   0.1058071403E+01  -0.2440727085E-02  -0.2440727085E-02   0.4249059737E-03  -0.4249059735E-03  -0.5485605214E-08   0.0000000000E+00   0.1060513673E+01
   0.1007799144E+01   0.9983087888E+00   0.9983087888E+00   0.4994867094E-04  -0.1248418520E-04  -0.1248418520E-04   0.7749195556E-02  -0.1678727023E-02  -0.1678727023E-02   0.1058071403E+01  -0.2440727085E-02  -0.2440727085E-02  -0.4249059735E-03  -0.4249059735E-03   0.5485625997E-08   0.0000000000E+00   0.1060513673E+01
   0.0000000000E+00   0.9980004141E+00   0.9980004141E+00   0.0000000000E+00  -0.1253386351E-04  -0.1253386351E-04   0.0000000000E+00  -0.1987051988E-02  -0.1987051988E-02   0.1073724896E+01   0.1361959608E-01   0.1361959608E-01  -0.4727794883E-03  -0.4727794883E-03   0.6040182478E-08   0.0000000000E+00   0.1060107198E+01
   0.2014600000E+01   0.1521786307E-02   0.1521786307E-02   0.1000000000E-03   0.1246196654E-04   0.1246196654E-04   0.1450000000E-01   0.1509324340E-02   0.1509324340E-02   0.1042429944E+01  -0.1850706747E-01  -0.1850706747E-01   0.3759301696E-03   0.3759301696E-03   0.4969483597E-08   0.0000000000E+00   0.1060938211E+01
   0.2014600000E+01   0.9984782137E+00   0.1521786307E-02   0.1000000000E-03  -0.1246196654E-04   0.1246196654E-04   0.1450000000E-01  -0.1509324340E-02   0.1509324340E-02   0.1042429944E+01  -0.1850706747E-01  -0.1850706747E-01  -0.3759301696E-03   0.3759301696E-03  -0.4969583147E-08   0.0000000000E+00   0.1060938211E+01
   0.2014600000E+01   0.1521786307E-02   0.9984782137E+00   0.1000000000E-03   0.1246196654E-04  -0.1246196654E-04   0.1450000000E-01   0.1509324340E-02  -0.1509324340E-02   0.1042429944E+01  -0.1850706747E-01  -0.1850706747E-01   0.3759301696E-03  -0.3759301696E-03  -0.4969583158E-08   0.0000000000E+00   0.1060938211E+01
   0.2014600000E+01   0.9984782137E+00   0.9984782137E+00   0.1000000000E-03  -0.1246196654E-04  -0.1246196654E-04   0.1450000000E-01  -0.1509324340E-02  -0.1509324340E-02   0.1042429944E+01  -0.1850706747E-01  -0.1850706747E-01  -0.3759301696E-03  -0.3759301696E-03   0.4969682753E-08   0.0000000000E+00   0.1060938211E+01
     1     2     3     4     5     6     7     8
     2     9    10     3     6    11    12     7
 VARIABLES = X,Y,Z,DU1,DU2,DU3,U1,U2,U3,S11,S22,S33,S12,S13,S23,Vf,SMISES
 ZONE, T="0.1470D+01" F=FEPOINT, I=   12 J=    2 ET=BRICK
   0.0000000000E+00   0.2012379832E-02   0.2012379832E-02   0.0000000000E+00   0.1279398128E-04   0.1279398128E-04   0.0000000000E+00   0.1999585851E-02   0.1999585851E-02   0.1073129068E+01   0.1295066418E-01   0.1295066418E-01   0.4422340504E-03   0.4422340504E-03   0.5728201113E-08   0.0000000000E+00   0.1060180065E+01
   0.1007848793E+01   0.1703632228E-02   0.1703632228E-02   0.4964859134E-04   0.1242102013E-04   0.1242102013E-04   0.7799144227E-02   0.1691211208E-02   0.1691211208E-02   0.1057531769E+01  -0.2902879084E-02  -0.2902879084E-02   0.3985438173E-03   0.3985438173E-03   0.5203453725E-08   0.0000000000E+00   0.1060436005E+01
   0.1007848793E+01   0.9982963678E+00   0.1703632228E-02   0.4964859134E-04  -0.1242102013E-04   0.1242102013E-04   0.7799144227E-02  -0.1691211208E-02   0.1691211208E-02   0.1057531769E+01  -0.2902879084E-02  -0.2902879084E-02  -0.3985438171E-03   0.3985438173E-03  -0.5203474277E-08   0.0000000000E+00   0.1060436005E+01
   0.0000000000E+00   0.9979876202E+00   0.2012379832E-02   0.0000000000E+00  -0.1279398128E-04   0.1279398128E-04   0.0000000000E+00  -0.1999585851E-02   0.1999585851E-02   0.1073129068E+01   0.1295066418E-01   0.1295066418E-01  -0.4422340504E-03   0.4422340503E-03  -0.5728166051E-08   0.0000000000E+00   0.1060180065E+01
   0.0000000000E+00   0.2012379832E-02   0.9979876202E+00   0.0000000000E+00   0.1279398128E-04  -0.1279398128E-04   0.0000000000E+00   0.1999585851E-02  -0.1999585851E-02   0.1073129068E+01   0.1295066418E-01   0.1295066418E-01   0.4422340503E-03  -0.4422340504E-03  -0.5728166048E-08   0.0000000000E+00   0.1060180065E+01
   0.1007848793E+01   0.1703632228E-02   0.9982963678E+00   0.4964859134E-04   0.1242102013E-04  -0.1242102013E-04   0.7799144227E-02   0.1691211208E-02  -0.1691211208E-02   0.1057531769E+01  -0.2902879084E-02  -0.2902879084E-02   0.3985438173E-03  -0.3985438171E-03  -0.5203474274E-08   0.0000000000E+00   0.1060436005E+01
   0.1007848793E+01   0.9982963678E+00   0.9982963678E+00   0.4964859134E-04  -0.1242102013E-04  -0.1242102013E-04   0.7799144227E-02  -0.1691211208E-02  -0.1691211208E-02   0.1057531769E+01  -0.2902879084E-02  -0.2902879084E-02  -0.3985438171E-03  -0.3985438171E-03   0.5203494820E-08   0.0000000000E+00   0.1060436005E+01
   0.0000000000E+00   0.9979876202E+00   0.9979876202E+00   0.0000000000E+00  -0.1279398128E-04  -0.1279398128E-04   0.0000000000E+00  -0.1999585851E-02  -0.1999585851E-02   0.1073129068E+01   0.1295066418E-01   0.1295066418E-01  -0.4422340504E-03  -0.4422340504E-03   0.5728130936E-08   0.0000000000E+00   0.1060180065E+01
   0.2014700000E+01   0.1533863064E-02   0.1533863064E-02   0.1000000000E-03   0.1207675750E-04   0.1207675750E-04   0.1460000000E-01   0.1521786307E-02   0.1521786307E-02   0.1041948223E+01  -0.1876329920E-01  -0.1876329920E-01   0.3538157649E-03   0.3538157649E-03   0.4715358154E-08   0.0000000000E+00   0.1060712586E+01
   0.2014700000E+01   0.9984661369E+00   0.1533863064E-02   0.1000000000E-03  -0.1207675750E-04   0.1207675750E-04   0.1460000000E-01  -0.1521786307E-02   0.1521786307E-02   0.1041948223E+01  -0.1876329920E-01  -0.1876329920E-01  -0.3538157649E-03   0.3538157649E-03  -0.4715455413E-08   0.0000000000E+00   0.1060712586E+01
   0.2014700000E+01   0.1533863064E-02   0.9984661369E+00   0.1000000000E-03   0.1207675750E-04  -0.1207675750E-04   0.1460000000E-01   0.1521786307E-02  -0.1521786307E-02   0.1041948223E+01  -0.1876329920E-01  -0.1876329920E-01   0.3538157649E-03  -0.3538157649E-03  -0.4715455423E-08   0.0000000000E+00   0.1060712586E+01
   0.2014700000E+01   0.9984661369E+00   0.9984661369E+00   0.1000000000E-03  -0.1207675750E-04  -0.1207675750E-04   0.1460000000E-01  -0.1521786307E-02  -0.1521786307E-02   0.1041948223E+01  -0.1876329920E-01  -0.1876329920E-01  -0.3538157649E-03  -0.3538157649E-03   0.4715552734E-08   0.0000000000E+00   0.1060712586E+01
     1     2     3     4     5     6     7     8
     2     9    10     3     6    11    12     7
 VARIABLES = X,Y,Z,DU1,DU2,DU3,U1,U2,U3,S11,S22,S33,S12,S13,S23,Vf,SMISES
 ZONE, T="0.1480D+01" F=FEPOINT, I=   12 J=    2 ET=BRICK
   0.0000000000E+00   0.2025398495E-02   0.2025398495E-02   0.0000000000E+00   0.1301866278E-04   0.1301866278E-04   0.0000000000E+00   0.2012379832E-02   0.2012379832E-02   0.1071833711E+01   0.1160683821E-01   0.1160683821E-01   0.3749708000E-03   0.3749708000E-03   0.5387349880E-08   0.0000000000E+00   0.1060228067E+01
   0.1007898172E+01   0.1715988506E-02   0.1715988506E-02   0.4937880117E-04   0.1235627799E-04   0.1235627799E-04   0.7848792818E-02   0.1703632228E-02   0.1703632228E-02   0.1057215987E+01  -0.3111336544E-02  -0.3111336544E-02   0.3353576598E-03   0.3353576598E-03   0.4895820490E-08   0.0000000000E+00   0.1060328285E+01
   0.1007898172E+01   0.9982840115E+00   0.1715988506E-02   0.4937880117E-04  -0.1235627799E-04   0.1235627799E-04   0.7848792818E-02  -0.1703632228E-02   0.1703632228E-02   0.1057215987E+01  -0.3111336544E-02  -0.3111336544E-02  -0.3353576596E-03   0.3353576598E-03  -0.4895840010E-08   0.0000000000E+00   0.1060328285E+01
   0.0000000000E+00   0.9979746015E+00   0.2025398495E-02   0.0000000000E+00  -0.1301866278E-04   0.1301866278E-04   0.0000000000E+00  -0.2012379832E-02   0.2012379832E-02   0.1071833711E+01   0.1160683821E-01   0.1160683821E-01  -0.3749708001E-03   0.3749708000E-03  -0.5387318019E-08   0.0000000000E+00   0.1060228067E+01
   0.0000000000E+00   0.2025398495E-02   0.9979746015E+00   0.0000000000E+00   0.1301866278E-04  -0.1301866278E-04   0.0000000000E+00   0.2012379832E-02  -0.2012379832E-02   0.1071833711E+01   0.1160683821E-01   0.1160683821E-01   0.3749708000E-03  -0.3749708001E-03  -0.5387318014E-08   0.0000000000E+00   0.1060228067E+01
   0.1007898172E+01   0.1715988506E-02   0.9982840115E+00   0.4937880117E-04   0.1235627799E-04  -0.1235627799E-04   0.7848792818E-02   0.1703632228E-02  -0.1703632228E-02   0.1057215987E+01  -0.3111336544E-02  -0.3111336544E-02   0.3353576598E-03  -0.3353576596E-03  -0.4895840004E-08   0.0000000000E+00   0.1060328285E+01
   0.1007898172E+01   0.9982840115E+00   0.9982840115E+00   0.4937880117E-04  -0.1235627799E-04  -0.1235627799E-04   0.7848792818E-02  -0.1703632228E-02  -0.1703632228E-02   0.1057215987E+01  -0.3111336544E-02  -0.3111336544E-02  -0.3353576595E-03  -0.3353576595E-03   0.4895859523E-08   0.0000000000E+00   0.1060328285E+01
   0.0000000000E+00   0.9979746015E+00   0.9979746015E+00   0.0000000000E+00  -0.1301866278E-04  -0.1301866278E-04   0.0000000000E+00  -0.2012379832E-02  -0.2012379832E-02   0.1071833711E+01   0.1160683821E-01   0.1160683821E-01  -0.3749708001E-03  -0.3749708001E-03   0.5387286106E-08   0.0000000000E+00   0.1060228067E+01
   0.2014800000E+01   0.1545586599E-02   0.1545586599E-02   0.1000000000E-03   0.1172353495E-04   0.1172353495E-04   0.1470000000E-01   0.1533863064E-02   0.1533863064E-02   0.1042613504E+01  -0.1783713213E-01  -0.1783713213E-01   0.2947545865E-03   0.2947545865E-03   0.4439058955E-08   0.0000000000E+00   0.1060451374E+01
   0.2014800000E+01   0.9984544134E+00   0.1545586599E-02   0.1000000000E-03  -0.1172353495E-04   0.1172353495E-04   0.1470000000E-01  -0.1533863064E-02   0.1533863064E-02   0.1042613504E+01  -0.1783713213E-01  -0.1783713213E-01  -0.2947545865E-03   0.2947545865E-03  -0.4439150709E-08   0.0000000000E+00   0.1060451374E+01
   0.2014800000E+01   0.1545586599E-02   0.9984544134E+00   0.1000000000E-03   0.1172353495E-04  -0.1172353495E-04   0.1470000000E-01   0.1533863064E-02  -0.1533863064E-02   0.1042613504E+01  -0.1783713213E-01  -0.1783713213E-01   0.2947545865E-03  -0.2947545865E-03  -0.4439150716E-08   0.0000000000E+00   0.1060451374E+01
   0.2014800000E+01   0.9984544134E+00   0.9984544134E+00   0.1000000000E-03  -0.1172353495E-04  -0.1172353495E-04   0.1470000000E-01  -0.1533863064E-02  -0.1533863064E-02   0.1042613504E+01  -0.1783713213E-01  -0.1783713213E-01  -0.2947545865E-03  -0.2947545865E-03   0.4439242530E-08   0.0000000000E+00   0.1060451374E+01
     1     2     3     4     5     6     7     8
     2     9    10     3     6    11    12     7
 VARIABLES = X,Y,Z,DU1,DU2,DU3,U1,U2,U3,S11,S22,S33,S12,S13,S23,Vf,SMISES
 ZONE, T="0.1490D+01" F=FEPOINT, I=   12 J=    2 ET=BRICK
   0.0000000000E+00   0.2038595372E-02   0.2038595372E-02   0.0000000000E+00   0.1319687674E-04   0.1319687674E-04   0.0000000000E+00   0.2025398495E-02   0.2025398495E-02   0.1069941650E+01   0.9690182903E-02   0.9690182903E-02   0.2768513018E-03   0.2768513018E-03   0.5037549036E-08   0.0000000000E+00   0.1060252118E+01
   0.1007947326E+01   0.1728283647E-02   0.1728283647E-02   0.4915487918E-04   0.1229514090E-04   0.1229514090E-04   0.7898171619E-02   0.1715988506E-02   0.1715988506E-02   0.1057137038E+01  -0.3062823800E-02  -0.3062823800E-02   0.2411853457E-03   0.2411853457E-03   0.4580833493E-08   0.0000000000E+00   0.1060200361E+01
   0.1007947326E+01   0.9982717164E+00   0.1728283647E-02   0.4915487918E-04  -0.1229514090E-04   0.1229514090E-04   0.7898171619E-02  -0.1715988506E-02   0.1715988506E-02   0.1057137038E+01  -0.3062823800E-02  -0.3062823800E-02  -0.2411853455E-03   0.2411853457E-03  -0.4580851230E-08   0.0000000000E+00   0.1060200361E+01
   0.0000000000E+00   0.9979614046E+00   0.2038595372E-02   0.0000000000E+00  -0.1319687674E-04   0.1319687674E-04   0.0000000000E+00  -0.2025398495E-02   0.2025398495E-02   0.1069941650E+01   0.9690182903E-02   0.9690182903E-02  -0.2768513019E-03   0.2768513018E-03  -0.5037521603E-08   0.0000000000E+00   0.1060252118E+01
   0.0000000000E+00   0.2038595372E-02   0.9979614046E+00   0.0000000000E+00   0.1319687674E-04  -0.1319687674E-04   0.0000000000E+00   0.2025398495E-02  -0.2025398495E-02   0.1069941650E+01   0.9690182903E-02   0.9690182903E-02   0.2768513018E-03  -0.2768513019E-03  -0.5037521595E-08   0.0000000000E+00   0.1060252118E+01
   0.1007947326E+01   0.1728283647E-02   0.9982717164E+00   0.4915487918E-04   0.1229514090E-04  -0.1229514090E-04   0.7898171619E-02   0.1715988506E-02  -0.1715988506E-02   0.1057137038E+01  -0.3062823800E-02  -0.3062823800E-02   0.2411853457E-03  -0.2411853455E-03  -0.4580851222E-08   0.0000000000E+00   0.1060200361E+01
   0.1007947326E+01   0.9982717164E+00   0.9982717164E+00   0.4915487918E-04  -0.1229514090E-04  -0.1229514090E-04   0.7898171619E-02  -0.1715988506E-02  -0.1715988506E-02   0.1057137038E+01  -0.3062823800E-02  -0.3062823800E-02  -0.2411853455E-03  -0.2411853455E-03   0.4580868962E-08   0.0000000000E+00   0.1060200361E+01
   0.0000000000E+00   0.9979614046E+00   0.9979614046E+00   0.0000000000E+00  -0.1319687674E-04  -0.1319687674E-04   0.0000000000E+00  -0.2025398495E-02  -0.2025398495E-02   0.1069941650E+01   0.9690182902E-02   0.9690182902E-02  -0.2768513018E-03  -0.2768513018E-03   0.5037494119E-08   0.0000000000E+00   0.1060252118E+01
   0.2014900000E+01   0.1557010314E-02   0.1557010314E-02   0.1000000000E-03   0.1142371445E-04   0.1142371445E-04   0.1480000000E-01   0.1545586599E-02   0.1545586599E-02   0.1044348887E+01  -0.1582406061E-01  -0.1582406061E-01   0.2045644943E-03   0.2045644943E-03   0.4157040603E-08   0.0000000000E+00   0.1060173303E+01
   0.2014900000E+01   0.9984429897E+00   0.1557010314E-02   0.1000000000E-03  -0.1142371445E-04   0.1142371445E-04   0.1480000000E-01  -0.1545586599E-02   0.1545586599E-02   0.1044348887E+01  -0.1582406061E-01  -0.1582406061E-01  -0.2045644943E-03   0.2045644943E-03  -0.4157124047E-08   0.0000000000E+00   0.1060173303E+01
   0.2014900000E+01   0.1557010314E-02   0.9984429897E+00   0.1000000000E-03   0.1142371445E-04  -0.1142371445E-04   0.1480000000E-01   0.1545586599E-02  -0.1545586599E-02   0.1044348887E+01  -0.1582406061E-01  -0.1582406061E-01   0.2045644943E-03  -0.2045644943E-03  -0.4157124053E-08   0.0000000000E+00   0.1060173303E+01
   0.2014900000E+01   0.9984429897E+00   0.9984429897E+00   0.1000000000E-03  -0.1142371445E-04  -0.1142371445E-04   0.1480000000E-01  -0.1545586599E-02  -0.1545586599E-02   0.1044348887E+01  -0.1582406061E-01  -0.1582406061E-01  -0.2045644943E-03  -0.2045644943E-03   0.4157207563E-08   0.0000000000E+00   0.1060173303E+01
     1     2     3     4     5     6     7     8
     2     9    10     3     6    11    12     7
 VARIABLES = X,Y,Z,DU1,DU2,DU3,U1,U2,U3,S11,S22,S33,S12,S13,S23,Vf,SMISES
 ZONE, T="0.1500D+01" F=FEPOINT, I=   12 J=    2 ET=BRICK
   0.0000000000E+00   0.2051915963E-02   0.2051915963E-02   0.0000000000E+00   0.1332059122E-04   0.1332059122E-04   0.0000000000E+00   0.2038595372E-02   0.2038595372E-02   0.1067583436E+01   0.7328893573E-02   0.7328893573E-02   0.1553568899E-03   0.1553568899E-03   0.4705199126E-08   0.0000000000E+00   0.1060254748E+01
   0.1007996316E+01   0.1740525880E-02   0.1740525880E-02   0.4898911460E-04   0.1224223247E-04   0.1224223247E-04   0.7947326499E-02   0.1728283647E-02   0.1728283647E-02   0.1057288214E+01  -0.2774843407E-02  -0.2774843407E-02   0.1234810469E-03   0.1234810469E-03   0.4283273904E-08   0.0000000000E+00   0.1060063191E+01
   0.1007996316E+01   0.9982594741E+00   0.1740525880E-02   0.4898911460E-04  -0.1224223247E-04   0.1224223247E-04   0.7947326499E-02  -0.1728283647E-02   0.1728283647E-02   0.1057288214E+01  -0.2774843407E-02  -0.2774843407E-02  -0.1234810467E-03   0.1234810469E-03  -0.4283289201E-08   0.0000000000E+00   0.1060063191E+01
   0.0000000000E+00   0.9979480840E+00   0.2051915963E-02   0.0000000000E+00  -0.1332059122E-04   0.1332059122E-04   0.0000000000E+00  -0.2038595372E-02   0.2038595372E-02   0.1067583436E+01   0.7328893572E-02   0.7328893572E-02  -0.1553568900E-03   0.1553568899E-03  -0.4705176980E-08   0.0000000000E+00   0.1060254748E+01
   0.0000000000E+00   0.2051915963E-02   0.9979480840E+00   0.0000000000E+00   0.1332059122E-04  -0.1332059122E-04   0.0000000000E+00   0.2038595372E-02  -0.2038595372E-02   0.1067583436E+01   0.7328893572E-02   0.7328893572E-02   0.1553568899E-03  -0.1553568900E-03  -0.4705176970E-08   0.0000000000E+00   0.1060254748E+01
   0.1007996316E+01   0.1740525880E-02   0.9982594741E+00   0.4898911460E-04   0.1224223247E-04  -0.1224223247E-04   0.7947326499E-02   0.1728283647E-02  -0.1728283647E-02   0.1057288214E+01  -0.2774843407E-02  -0.2774843407E-02   0.1234810469E-03  -0.1234810467E-03  -0.4283289191E-08   0.0000000000E+00   0.1060063191E+01
   0.1007996316E+01   0.9982594741E+00   0.9982594741E+00   0.4898911460E-04  -0.1224223247E-04  -0.1224223247E-04   0.7947326499E-02  -0.1728283647E-02  -0.1728283647E-02   0.1057288214E+01  -0.2774843407E-02  -0.2774843407E-02  -0.1234810467E-03  -0.1234810467E-03   0.4283304493E-08   0.0000000000E+00   0.1060063191E+01
   0.0000000000E+00   0.9979480840E+00   0.9979480840E+00   0.0000000000E+00  -0.1332059122E-04  -0.1332059122E-04   0.0000000000E+00  -0.2038595372E-02  -0.2038595372E-02   0.1067583436E+01   0.7328893572E-02   0.7328893572E-02  -0.1553568900E-03  -0.1553568900E-03   0.4705154785E-08   0.0000000000E+00   0.1060254748E+01
   0.2015000000E+01   0.1568204908E-02   0.1568204908E-02   0.1000000000E-03   0.1119459476E-04   0.1119459476E-04   0.1490000000E-01   0.1557010314E-02   0.1557010314E-02   0.1047010387E+01  -0.1288727786E-01  -0.1288727786E-01   0.9067643426E-04   0.9067643426E-04   0.3892475903E-08   0.0000000000E+00   0.1059897735E+01
   0.2015000000E+01   0.9984317951E+00   0.1568204908E-02   0.1000000000E-03  -0.1119459476E-04   0.1119459476E-04   0.1490000000E-01  -0.1557010313E-02   0.1557010314E-02   0.1047010387E+01  -0.1288727786E-01  -0.1288727786E-01  -0.9067643427E-04   0.9067643424E-04  -0.3892548790E-08   0.0000000000E+00   0.1059897735E+01
   0.2015000000E+01   0.1568204908E-02   0.9984317951E+00   0.1000000000E-03   0.1119459476E-04  -0.1119459476E-04   0.1490000000E-01   0.1557010314E-02  -0.1557010313E-02   0.1047010387E+01  -0.1288727786E-01  -0.1288727786E-01   0.9067643424E-04  -0.9067643427E-04  -0.3892548794E-08   0.0000000000E+00   0.1059897735E+01
   0.2015000000E+01   0.9984317951E+00   0.9984317951E+00   0.1000000000E-03  -0.1119459476E-04  -0.1119459476E-04   0.1490000000E-01  -0.1557010313E-02  -0.1557010313E-02   0.1047010387E+01  -0.1288727786E-01  -0.1288727786E-01  -0.9067643425E-04  -0.9067643425E-04   0.3892621749E-08   0.0000000000E+00   0.1059897735E+01
     1     2     3     4     5     6     7     8
     2     9    10     3     6    11    12     7
 VARIABLES = X,Y,Z,DU1,DU2,DU3,U1,U2,U3,S11,S22,S33,S12,S13,S23,Vf,SMISES
 ZONE, T="0.1510D+01" F=FEPOINT, I=   12 J=    2 ET=BRICK
   0.0000000000E+00   0.2065301042E-02   0.2065301042E-02   0.0000000000E+00   0.1338507875E-04   0.1338507875E-04   0.0000000000E+00   0.2051915963E-02   0.2051915963E-02   0.1064909070E+01   0.4669429021E-02   0.4669429021E-02   0.1908492912E-04   0.1908492912E-04   0.4415713574E-08   0.0000000000E+00   0.1060239644E+01
   0.1008045205E+01   0.1752727156E-02   0.1752727156E-02   0.4888987344E-04   0.1220127598E-04   0.1220127598E-04   0.7996315613E-02   0.1740525880E-02   0.1740525880E-02   0.1057644719E+01  -0.2283183071E-02  -0.2283183071E-02  -0.9183438885E-05  -0.9183438885E-05   0.4027156690E-08   0.0000000000E+00   0.1059927906E+01
   0.1008045205E+01   0.9982472728E+00   0.1752727156E-02   0.4888987344E-04  -0.1220127598E-04   0.1220127598E-04   0.7996315613E-02  -0.1740525880E-02   0.1740525880E-02   0.1057644719E+01  -0.2283183070E-02  -0.2283183070E-02   0.9183439087E-05  -0.9183438895E-05  -0.4027169024E-08   0.0000000000E+00   0.1059927906E+01
   0.0000000000E+00   0.9979346990E+00   0.2065301042E-02   0.0000000000E+00  -0.1338507875E-04   0.1338507875E-04   0.0000000000E+00  -0.2051915963E-02   0.2051915963E-02   0.1064909070E+01   0.4669429021E-02   0.4669429021E-02  -0.1908492922E-04   0.1908492912E-04  -0.4415697182E-08   0.0000000000E+00   0.1060239644E+01
   0.0000000000E+00   0.2065301042E-02   0.9979346990E+00   0.0000000000E+00   0.1338507875E-04  -0.1338507875E-04   0.0000000000E+00   0.2051915963E-02  -0.2051915963E-02   0.1064909070E+01   0.4669429021E-02   0.4669429021E-02   0.1908492912E-04  -0.1908492922E-04  -0.4415697170E-08   0.0000000000E+00   0.1060239644E+01
   0.1008045205E+01   0.1752727156E-02   0.9982472728E+00   0.4888987344E-04   0.1220127598E-04  -0.1220127598E-04   0.7996315613E-02   0.1740525880E-02  -0.1740525880E-02   0.1057644719E+01  -0.2283183070E-02  -0.2283183070E-02  -0.9183438895E-05   0.9183439087E-05  -0.4027169011E-08   0.0000000000E+00   0.1059927906E+01
   0.1008045205E+01   0.9982472728E+00   0.9982472728E+00   0.4888987344E-04  -0.1220127598E-04  -0.1220127598E-04   0.7996315613E-02  -0.1740525880E-02  -0.1740525880E-02   0.1057644719E+01  -0.2283183070E-02  -0.2283183070E-02   0.9183439096E-05   0.9183439097E-05   0.4027181357E-08   0.0000000000E+00   0.1059927906E+01
   0.0000000000E+00   0.9979346990E+00   0.9979346990E+00   0.0000000000E+00  -0.1338507875E-04  -0.1338507875E-04   0.0000000000E+00  -0.2051915963E-02  -0.2051915963E-02   0.1064909070E+01   0.4669429021E-02   0.4669429021E-02  -0.1908492922E-04  -0.1908492922E-04   0.4415680748E-08   0.0000000000E+00   0.1060239644E+01
   0.2015100000E+01   0.1579253277E-02   0.1579253277E-02   0.1000000000E-03   0.1104836846E-04   0.1104836846E-04   0.1500000000E-01   0.1568204908E-02   0.1568204908E-02   0.1050398423E+01  -0.9244822756E-02  -0.9244822756E-02  -0.3835958382E-04  -0.3835958382E-04   0.3667993600E-08   0.0000000000E+00   0.1059643259E+01
   0.2015100000E+01   0.9984207467E+00   0.1579253277E-02   0.1000000000E-03  -0.1104836846E-04   0.1104836846E-04   0.1500000000E-01  -0.1568204908E-02   0.1568204908E-02   0.1050398423E+01  -0.9244822756E-02  -0.9244822756E-02   0.3835958379E-04  -0.3835958383E-04  -0.3668054343E-08   0.0000000000E+00   0.1059643259E+01
   0.2015100000E+01   0.1579253277E-02   0.9984207467E+00   0.1000000000E-03   0.1104836846E-04  -0.1104836846E-04   0.1500000000E-01   0.1568204908E-02  -0.1568204908E-02   0.1050398423E+01  -0.9244822756E-02  -0.9244822756E-02  -0.3835958383E-04   0.3835958379E-04  -0.3668054345E-08   0.0000000000E+00   0.1059643259E+01
   0.2015100000E+01   0.9984207467E+00   0.9984207467E+00   0.1000000000E-03  -0.1104836846E-04  -0.1104836846E-04   0.1500000000E-01  -0.1568204908E-02  -0.1568204908E-02   0.1050398423E+01  -0.9244822756E-02  -0.9244822756E-02   0.3835958381E-04   0.3835958381E-04   0.3668115160E-08   0.0000000000E+00   0.1059643259E+01
     1     2     3     4     5     6     7     8
     2     9    10     3     6    11    12     7
 VARIABLES = X,Y,Z,DU1,DU2,DU3,U1,U2,U3,S11,S22,S33,S12,S13,S23,Vf,SMISES
 ZONE, T="0.1520D+01" F=FEPOINT, I=   12 J=    2 ET=BRICK
   0.0000000000E+00   0.2078690078E-02   0.2078690078E-02   0.0000000000E+00   0.1338903625E-04   0.1338903625E-04   0.0000000000E+00   0.2065301042E-02   0.2065301042E-02   0.1062079145E+01   0.1868115007E-02   0.1868115007E-02  -0.1228045493E-03  -0.1228045493E-03   0.4186724743E-08   0.0000000000E+00   0.1060211158E+01
   0.1008094067E+01   0.1764901999E-02   0.1764901999E-02   0.4886122306E-04   0.1217484284E-04   0.1217484284E-04   0.8045205487E-02   0.1752727156E-02   0.1752727156E-02   0.1058166635E+01  -0.1638083906E-02  -0.1638083906E-02  -0.1476673674E-03  -0.1476673674E-03   0.3829033742E-08   0.0000000000E+00   0.1059804906E+01
   0.1008094067E+01   0.9982350980E+00   0.1764901999E-02   0.4886122306E-04  -0.1217484284E-04   0.1217484284E-04   0.8045205487E-02  -0.1752727156E-02   0.1752727156E-02   0.1058166635E+01  -0.1638083906E-02  -0.1638083906E-02   0.1476673676E-03  -0.1476673674E-03  -0.3829042759E-08   0.0000000000E+00   0.1059804906E+01
   0.0000000000E+00   0.9979213099E+00   0.2078690078E-02   0.0000000000E+00  -0.1338903625E-04   0.1338903625E-04   0.0000000000E+00  -0.2065301042E-02   0.2065301042E-02   0.1062079145E+01   0.1868115006E-02   0.1868115006E-02   0.1228045492E-03  -0.1228045493E-03  -0.4186714187E-08   0.0000000000E+00   0.1060211158E+01
   0.0000000000E+00   0.2078690078E-02   0.9979213099E+00   0.0000000000E+00   0.1338903625E-04  -0.1338903625E-04   0.0000000000E+00   0.2065301042E-02  -0.2065301042E-02   0.1062079145E+01   0.1868115006E-02   0.1868115006E-02  -0.1228045493E-03   0.1228045492E-03  -0.4186714174E-08   0.0000000000E+00   0.1060211158E+01
   0.1008094067E+01   0.1764901999E-02   0.9982350980E+00   0.4886122306E-04   0.1217484284E-04  -0.1217484284E-04   0.8045205487E-02   0.1752727156E-02  -0.1752727156E-02   0.1058166635E+01  -0.1638083906E-02  -0.1638083906E-02  -0.1476673674E-03   0.1476673676E-03  -0.3829042744E-08   0.0000000000E+00   0.1059804906E+01
   0.1008094067E+01   0.9982350980E+00   0.9982350980E+00   0.4886122306E-04  -0.1217484284E-04  -0.1217484284E-04   0.8045205487E-02  -0.1752727156E-02  -0.1752727156E-02   0.1058166635E+01  -0.1638083906E-02  -0.1638083906E-02   0.1476673676E-03   0.1476673676E-03   0.3829051782E-08   0.0000000000E+00   0.1059804906E+01
   0.0000000000E+00   0.9979213099E+00   0.9979213099E+00   0.0000000000E+00  -0.1338903625E-04  -0.1338903625E-04   0.0000000000E+00  -0.2065301042E-02  -0.2065301042E-02   0.1062079145E+01   0.1868115006E-02   0.1868115006E-02   0.1228045492E-03   0.1228045492E-03   0.4186703599E-08   0.0000000000E+00   0.1060211158E+01
   0.2015200000E+01   0.1590244775E-02   0.1590244775E-02   0.1000000000E-03   0.1099149842E-04   0.1099149842E-04   0.1510000000E-01   0.1579253277E-02   0.1579253277E-02   0.1054272594E+01  -0.5153517432E-02  -0.5153517432E-02  -0.1734187735E-03  -0.1734187735E-03   0.3499074209E-08   0.0000000000E+00   0.1059426368E+01
   0.2015200000E+01   0.9984097552E+00   0.1590244775E-02   0.1000000000E-03  -0.1099149842E-04   0.1099149842E-04   0.1510000000E-01  -0.1579253277E-02   0.1579253277E-02   0.1054272594E+01  -0.5153517432E-02  -0.5153517432E-02   0.1734187735E-03  -0.1734187735E-03  -0.3499121951E-08   0.0000000000E+00   0.1059426367E+01
   0.2015200000E+01   0.1590244775E-02   0.9984097552E+00   0.1000000000E-03   0.1099149842E-04  -0.1099149842E-04   0.1510000000E-01   0.1579253277E-02  -0.1579253277E-02   0.1054272594E+01  -0.5153517432E-02  -0.5153517432E-02  -0.1734187735E-03   0.1734187735E-03  -0.3499121950E-08   0.0000000000E+00   0.1059426367E+01
   0.2015200000E+01   0.9984097552E+00   0.9984097552E+00   0.1000000000E-03  -0.1099149842E-04  -0.1099149842E-04   0.1510000000E-01  -0.1579253277E-02  -0.1579253277E-02   0.1054272594E+01  -0.5153517432E-02  -0.5153517432E-02   0.1734187735E-03   0.1734187735E-03   0.3499169765E-08   0.0000000000E+00   0.1059426367E+01
     1     2     3     4     5     6     7     8
     2     9    10     3     6    11    12     7
 VARIABLES = X,Y,Z,DU1,DU2,DU3,U1,U2,U3,S11,S22,S33,S12,S13,S23,Vf,SMISES
 ZONE, T="0.1530D+01" F=FEPOINT, I=   12 J=    2 ET=BRICK
   0.0000000000E+00   0.2092024600E-02   0.2092024600E-02   0.0000000000E+00   0.1333452188E-04   0.1333452188E-04   0.0000000000E+00   0.2078690078E-02   0.2078690078E-02   0.1059255889E+01  -0.9173570096E-03  -0.9173570096E-03  -0.2611571255E-03  -0.2611571255E-03   0.4023614186E-08   0.0000000000E+00   0.1060173826E+01
   0.1008142970E+01   0.1777066205E-02   0.1777066205E-02   0.4890282907E-04   0.1216420685E-04   0.1216420685E-04   0.8094066710E-02   0.1764901999E-02   0.1764901999E-02   0.1058802938E+01  -0.8994459855E-03  -0.8994459855E-03  -0.2828261114E-03  -0.2828261114E-03   0.3693568970E-08   0.0000000000E+00   0.1059703065E+01
   0.1008142970E+01   0.9982229338E+00   0.1777066205E-02   0.4890282907E-04  -0.1216420685E-04   0.1216420685E-04   0.8094066710E-02  -0.1764901999E-02   0.1764901999E-02   0.1058802938E+01  -0.8994459855E-03  -0.8994459855E-03   0.2828261116E-03  -0.2828261114E-03  -0.3693574506E-08   0.0000000000E+00   0.1059703065E+01
   0.0000000000E+00   0.9979079754E+00   0.2092024600E-02   0.0000000000E+00  -0.1333452188E-04   0.1333452188E-04   0.0000000000E+00  -0.2078690078E-02   0.2078690078E-02   0.1059255889E+01  -0.9173570096E-03  -0.9173570096E-03   0.2611571254E-03  -0.2611571255E-03  -0.4023609181E-08   0.0000000000E+00   0.1060173826E+01
   0.0000000000E+00   0.2092024600E-02   0.9979079754E+00   0.0000000000E+00   0.1333452188E-04  -0.1333452188E-04   0.0000000000E+00   0.2078690078E-02  -0.2078690078E-02   0.1059255889E+01  -0.9173570096E-03  -0.9173570096E-03  -0.2611571255E-03   0.2611571254E-03  -0.4023609166E-08   0.0000000000E+00   0.1060173826E+01
   0.1008142970E+01   0.1777066205E-02   0.9982229338E+00   0.4890282907E-04   0.1216420685E-04  -0.1216420685E-04   0.8094066710E-02   0.1764901999E-02  -0.1764901999E-02   0.1058802938E+01  -0.8994459855E-03  -0.8994459855E-03  -0.2828261114E-03   0.2828261116E-03  -0.3693574489E-08   0.0000000000E+00   0.1059703065E+01
   0.1008142970E+01   0.9982229338E+00   0.9982229338E+00   0.4890282907E-04  -0.1216420685E-04  -0.1216420685E-04   0.8094066710E-02  -0.1764901999E-02  -0.1764901999E-02   0.1058802938E+01  -0.8994459854E-03  -0.8994459854E-03   0.2828261116E-03   0.2828261116E-03   0.3693580050E-08   0.0000000000E+00   0.1059703065E+01
   0.0000000000E+00   0.9979079754E+00   0.9979079754E+00   0.0000000000E+00  -0.1333452188E-04  -0.1333452188E-04   0.0000000000E+00  -0.2078690078E-02  -0.2078690078E-02   0.1059255889E+01  -0.9173570095E-03  -0.9173570095E-03   0.2611571254E-03   0.2611571254E-03   0.4023604154E-08   0.0000000000E+00   0.1060173826E+01
   0.2015300000E+01   0.1601269264E-02   0.1601269264E-02   0.1000000000E-03   0.1102448918E-04   0.1102448918E-04   0.1520000000E-01   0.1590244775E-02   0.1590244775E-02   0.1058368663E+01  -0.8908732072E-03  -0.8908732072E-03  -0.3053636265E-03  -0.3053636265E-03   0.3389667943E-08   0.0000000000E+00   0.1059260329E+01
   0.2015300000E+01   0.9983987307E+00   0.1601269264E-02   0.1000000000E-03  -0.1102448918E-04   0.1102448918E-04   0.1520000000E-01  -0.1590244775E-02   0.1590244775E-02   0.1058368663E+01  -0.8908732071E-03  -0.8908732071E-03   0.3053636264E-03  -0.3053636265E-03  -0.3389702568E-08   0.0000000000E+00   0.1059260329E+01
   0.2015300000E+01   0.1601269264E-02   0.9983987307E+00   0.1000000000E-03   0.1102448918E-04  -0.1102448918E-04   0.1520000000E-01   0.1590244775E-02  -0.1590244775E-02   0.1058368663E+01  -0.8908732071E-03  -0.8908732071E-03  -0.3053636265E-03   0.3053636264E-03  -0.3389702565E-08   0.0000000000E+00   0.1059260329E+01
   0.2015300000E+01   0.9983987307E+00   0.9983987307E+00   0.1000000000E-03  -0.1102448918E-04  -0.1102448918E-04   0.1520000000E-01  -0.1590244775E-02  -0.1590244775E-02   0.1058368663E+01  -0.8908732071E-03  -0.8908732071E-03   0.3053636264E-03   0.3053636264E-03   0.3389737260E-08   0.0000000000E+00   0.1059260329E+01
     1     2     3     4     5     6     7     8
     2     9    10     3     6    11    12     7
 VARIABLES = X,Y,Z,DU1,DU2,DU3,U1,U2,U3,S11,S22,S33,S12,S13,S23,Vf,SMISES
 ZONE, T="0.1540D+01" F=FEPOINT, I=   12 J=    2 ET=BRICK
   0.0000000000E+00   0.2105251320E-02   0.2105251320E-02   0.0000000000E+00   0.1322671944E-04   0.1322671944E-04   0.0000000000E+00   0.2092024600E-02   0.2092024600E-02   0.1056594539E+01  -0.3536131456E-02  -0.3536131456E-02  -0.3873728539E-03  -0.3873728539E-03   0.3918288482E-08   0.0000000000E+00   0.1060131945E+01
   0.1008191980E+01   0.1789235516E-02   0.1789235516E-02   0.4901012177E-04   0.1216931047E-04   0.1216931047E-04   0.8142969539E-02   0.1777066205E-02   0.1777066205E-02   0.1059496179E+01  -0.1315065098E-03  -0.1315065098E-03  -0.4060589801E-03  -0.4060589801E-03   0.3612311042E-08   0.0000000000E+00   0.1059629087E+01
   0.1008191980E+01   0.9982107645E+00   0.1789235516E-02   0.4901012177E-04  -0.1216931047E-04   0.1216931047E-04   0.8142969539E-02  -0.1777066205E-02   0.1777066205E-02   0.1059496179E+01  -0.1315065098E-03  -0.1315065097E-03   0.4060589803E-03  -0.4060589801E-03  -0.3612313120E-08   0.0000000000E+00   0.1059629087E+01
   0.0000000000E+00   0.9978947487E+00   0.2105251320E-02   0.0000000000E+00  -0.1322671944E-04   0.1322671944E-04   0.0000000000E+00  -0.2092024600E-02   0.2092024600E-02   0.1056594539E+01  -0.3536131455E-02  -0.3536131455E-02   0.3873728538E-03  -0.3873728539E-03  -0.3918288414E-08   0.0000000000E+00   0.1060131945E+01
   0.0000000000E+00   0.2105251320E-02   0.9978947487E+00   0.0000000000E+00   0.1322671944E-04  -0.1322671944E-04   0.0000000000E+00   0.2092024600E-02  -0.2092024600E-02   0.1056594539E+01  -0.3536131455E-02  -0.3536131455E-02  -0.3873728539E-03   0.3873728538E-03  -0.3918288397E-08   0.0000000000E+00   0.1060131945E+01
   0.1008191980E+01   0.1789235516E-02   0.9982107645E+00   0.4901012177E-04   0.1216931047E-04  -0.1216931047E-04   0.8142969539E-02   0.1777066205E-02  -0.1777066205E-02   0.1059496179E+01  -0.1315065097E-03  -0.1315065098E-03  -0.4060589801E-03   0.4060589803E-03  -0.3612313101E-08   0.0000000000E+00   0.1059629087E+01
   0.1008191980E+01   0.9982107645E+00   0.9982107645E+00   0.4901012177E-04  -0.1216931047E-04  -0.1216931047E-04   0.8142969539E-02  -0.1777066205E-02  -0.1777066205E-02   0.1059496179E+01  -0.1315065097E-03  -0.1315065097E-03   0.4060589802E-03   0.4060589802E-03   0.3612315210E-08   0.0000000000E+00   0.1059629087E+01
   0.0000000000E+00   0.9978947487E+00   0.9978947487E+00   0.0000000000E+00  -0.1322671944E-04  -0.1322671944E-04   0.0000000000E+00  -0.2092024600E-02  -0.2092024600E-02   0.1056594539E+01  -0.3536131455E-02  -0.3536131455E-02   0.3873728538E-03   0.3873728538E-03   0.3918288336E-08   0.0000000000E+00   0.1060131945E+01
   0.2015400000E+01   0.1612411319E-02   0.1612411319E-02   0.1000000000E-03   0.1114205489E-04   0.1114205489E-04   0.1530000000E-01   0.1601269264E-02   0.1601269264E-02   0.1062416537E+01   0.3263759203E-02   0.3263759203E-02  -0.4255907980E-03  -0.4255907980E-03   0.3330964605E-08   0.0000000000E+00   0.1059154317E+01
   0.2015400000E+01   0.9983875887E+00   0.1612411319E-02   0.1000000000E-03  -0.1114205489E-04   0.1114205489E-04   0.1530000000E-01  -0.1601269264E-02   0.1601269264E-02   0.1062416537E+01   0.3263759203E-02   0.3263759203E-02   0.4255907979E-03  -0.4255907979E-03  -0.3330986706E-08   0.0000000000E+00   0.1059154317E+01
   0.2015400000E+01   0.1612411319E-02   0.9983875887E+00   0.1000000000E-03   0.1114205489E-04  -0.1114205489E-04   0.1530000000E-01   0.1601269264E-02  -0.1601269264E-02   0.1062416537E+01   0.3263759203E-02   0.3263759203E-02  -0.4255907979E-03   0.4255907979E-03  -0.3330986702E-08   0.0000000000E+00   0.1059154317E+01
   0.2015400000E+01   0.9983875887E+00   0.9983875887E+00   0.1000000000E-03  -0.1114205489E-04  -0.1114205489E-04   0.1530000000E-01  -0.1601269264E-02  -0.1601269264E-02   0.1062416537E+01   0.3263759203E-02   0.3263759203E-02   0.4255907979E-03   0.4255907979E-03   0.3331008873E-08   0.0000000000E+00   0.1059154317E+01
     1     2     3     4     5     6     7     8
     2     9    10     3     6    11    12     7
 VARIABLES = X,Y,Z,DU1,DU2,DU3,U1,U2,U3,S11,S22,S33,S12,S13,S23,Vf,SMISES
 ZONE, T="0.1550D+01" F=FEPOINT, I=   12 J=    2 ET=BRICK
   0.0000000000E+00   0.2118324868E-02   0.2118324868E-02   0.0000000000E+00   0.1307354893E-04   0.1307354893E-04   0.0000000000E+00   0.2105251320E-02   0.2105251320E-02   0.1054235451E+01  -0.5851720728E-02  -0.5851720728E-02  -0.4939036634E-03  -0.4939036634E-03   0.3851294968E-08   0.0000000000E+00   0.1060089243E+01
   0.1008241154E+01   0.1801424356E-02   0.1801424356E-02   0.4917471295E-04   0.1218883992E-04   0.1218883992E-04   0.8191979661E-02   0.1789235516E-02   0.1789235516E-02   0.1060187422E+01   0.6025528433E-03   0.6025528433E-03  -0.5098078958E-03  -0.5098078958E-03   0.3565770674E-08   0.0000000000E+00   0.1059587078E+01
   0.1008241154E+01   0.9981985756E+00   0.1801424356E-02   0.4917471295E-04  -0.1218883992E-04   0.1218883992E-04   0.8191979661E-02  -0.1789235516E-02   0.1789235516E-02   0.1060187422E+01   0.6025528433E-03   0.6025528433E-03   0.5098078959E-03  -0.5098078958E-03  -0.3565769497E-08   0.0000000000E+00   0.1059587078E+01
   0.0000000000E+00   0.9978816751E+00   0.2118324868E-02   0.0000000000E+00  -0.1307354893E-04   0.1307354893E-04   0.0000000000E+00  -0.2105251319E-02   0.2105251320E-02   0.1054235451E+01  -0.5851720728E-02  -0.5851720728E-02   0.4939036633E-03  -0.4939036634E-03  -0.3851298951E-08   0.0000000000E+00   0.1060089243E+01
   0.0000000000E+00   0.2118324868E-02   0.9978816751E+00   0.0000000000E+00   0.1307354893E-04  -0.1307354893E-04   0.0000000000E+00   0.2105251320E-02  -0.2105251319E-02   0.1054235451E+01  -0.5851720728E-02  -0.5851720728E-02  -0.4939036634E-03   0.4939036633E-03  -0.3851298933E-08   0.0000000000E+00   0.1060089243E+01
   0.1008241154E+01   0.1801424356E-02   0.9981985756E+00   0.4917471295E-04   0.1218883992E-04  -0.1218883992E-04   0.8191979661E-02   0.1789235516E-02  -0.1789235516E-02   0.1060187422E+01   0.6025528433E-03   0.6025528433E-03  -0.5098078958E-03   0.5098078959E-03  -0.3565769477E-08   0.0000000000E+00   0.1059587078E+01
   0.1008241154E+01   0.9981985756E+00   0.9981985756E+00   0.4917471295E-04  -0.1218883992E-04  -0.1218883992E-04   0.8191979661E-02  -0.1789235516E-02  -0.1789235516E-02   0.1060187422E+01   0.6025528433E-03   0.6025528433E-03   0.5098078959E-03   0.5098078959E-03   0.3565768334E-08   0.0000000000E+00   0.1059587078E+01
   0.0000000000E+00   0.9978816751E+00   0.9978816751E+00   0.0000000000E+00  -0.1307354893E-04  -0.1307354893E-04   0.0000000000E+00  -0.2105251319E-02  -0.2105251319E-02   0.1054235451E+01  -0.5851720728E-02  -0.5851720728E-02   0.4939036633E-03   0.4939036633E-03   0.3851302932E-08   0.0000000000E+00   0.1060089243E+01
   0.2015500000E+01   0.1623744978E-02   0.1623744978E-02   0.1000000000E-03   0.1133365909E-04   0.1133365909E-04   0.1540000000E-01   0.1612411319E-02   0.1612411319E-02   0.1066158024E+01   0.7047511125E-02   0.7047511125E-02  -0.5265310780E-03  -0.5265310780E-03   0.3303434319E-08   0.0000000000E+00   0.1059112869E+01
   0.2015500000E+01   0.9983762550E+00   0.1623744978E-02   0.1000000000E-03  -0.1133365909E-04   0.1133365909E-04   0.1540000000E-01  -0.1612411319E-02   0.1612411319E-02   0.1066158024E+01   0.7047511125E-02   0.7047511125E-02   0.5265310779E-03  -0.5265310780E-03  -0.3303445132E-08   0.0000000000E+00   0.1059112869E+01
   0.2015500000E+01   0.1623744978E-02   0.9983762550E+00   0.1000000000E-03   0.1133365909E-04  -0.1133365909E-04   0.1540000000E-01   0.1612411319E-02  -0.1612411319E-02   0.1066158024E+01   0.7047511125E-02   0.7047511125E-02  -0.5265310780E-03   0.5265310779E-03  -0.3303445126E-08   0.0000000000E+00   0.1059112869E+01
   0.2015500000E+01   0.9983762550E+00   0.9983762550E+00   0.1000000000E-03  -0.1133365909E-04  -0.1133365909E-04   0.1540000000E-01  -0.1612411319E-02  -0.1612411319E-02   0.1066158024E+01   0.7047511125E-02   0.7047511125E-02   0.5265310779E-03   0.5265310779E-03   0.3303456003E-08   0.0000000000E+00   0.1059112869E+01
     1     2     3     4     5     6     7     8
     2     9    10     3     6    11    12     7
 VARIABLES = X,Y,Z,DU1,DU2,DU3,U1,U2,U3,S11,S22,S33,S12,S13,S23,Vf,SMISES
 ZONE, T="0.1560D+01" F=FEPOINT, I=   12 J=    2 ET=BRICK
   0.0000000000E+00   0.2131210017E-02   0.2131210017E-02   0.0000000000E+00   0.1288514809E-04   0.1288514809E-04   0.0000000000E+00   0.2118324868E-02   0.2118324868E-02   0.1052297303E+01  -0.7748544058E-02  -0.7748544058E-02  -0.5746712687E-03  -0.5746712687E-03   0.3796577304E-08   0.0000000000E+00   0.1060048652E+01
   0.1008290539E+01   0.1813644753E-02   0.1813644753E-02   0.4938502968E-04   0.1222039733E-04   0.1222039733E-04   0.8241154374E-02   0.1801424356E-02   0.1801424356E-02   0.1060821042E+01   0.1245629977E-02   0.1245629977E-02  -0.5879784959E-03  -0.5879784959E-03   0.3528117920E-08   0.0000000000E+00   0.1059578349E+01
   0.1008290539E+01   0.9981863552E+00   0.1813644753E-02   0.4938502968E-04  -0.1222039733E-04   0.1222039733E-04   0.8241154373E-02  -0.1801424356E-02   0.1801424356E-02   0.1060821042E+01   0.1245629977E-02   0.1245629977E-02   0.5879784961E-03  -0.5879784959E-03  -0.3528113844E-08   0.0000000000E+00   0.1059578349E+01
   0.0000000000E+00   0.9978687900E+00   0.2131210017E-02   0.0000000000E+00  -0.1288514809E-04   0.1288514809E-04   0.0000000000E+00  -0.2118324868E-02   0.2118324868E-02   0.1052297303E+01  -0.7748544058E-02  -0.7748544058E-02   0.5746712685E-03  -0.5746712686E-03  -0.3796584237E-08   0.0000000000E+00   0.1060048652E+01
   0.0000000000E+00   0.2131210017E-02   0.9978687900E+00   0.0000000000E+00   0.1288514809E-04  -0.1288514809E-04   0.0000000000E+00   0.2118324868E-02  -0.2118324868E-02   0.1052297303E+01  -0.7748544058E-02  -0.7748544058E-02  -0.5746712686E-03   0.5746712685E-03  -0.3796584218E-08   0.0000000000E+00   0.1060048652E+01
   0.1008290539E+01   0.1813644753E-02   0.9981863552E+00   0.4938502968E-04   0.1222039733E-04  -0.1222039733E-04   0.8241154373E-02   0.1801424356E-02  -0.1801424356E-02   0.1060821042E+01   0.1245629977E-02   0.1245629977E-02  -0.5879784959E-03   0.5879784961E-03  -0.3528113822E-08   0.0000000000E+00   0.1059578349E+01
   0.1008290539E+01   0.9981863552E+00   0.9981863552E+00   0.4938502968E-04  -0.1222039733E-04  -0.1222039733E-04   0.8241154373E-02  -0.1801424356E-02  -0.1801424356E-02   0.1060821042E+01   0.1245629977E-02   0.1245629977E-02   0.5879784961E-03   0.5879784961E-03   0.3528109785E-08   0.0000000000E+00   0.1059578349E+01
   0.0000000000E+00   0.9978687900E+00   0.9978687900E+00   0.0000000000E+00  -0.1288514809E-04  -0.1288514809E-04   0.0000000000E+00  -0.2118324868E-02  -0.2118324868E-02   0.1052297303E+01  -0.7748544057E-02  -0.7748544057E-02   0.5746712685E-03   0.5746712685E-03   0.3796591180E-08   0.0000000000E+00   0.1060048652E+01
   0.2015600000E+01   0.1635329356E-02   0.1635329356E-02   0.1000000000E-03   0.1158437778E-04   0.1158437778E-04   0.1550000000E-01   0.1623744978E-02   0.1623744978E-02   0.1069363217E+01   0.1023058562E-01   0.1023058562E-01  -0.6020736327E-03  -0.6020736327E-03   0.3281469067E-08   0.0000000000E+00   0.1059135712E+01
   0.2015600000E+01   0.9983646706E+00   0.1635329356E-02   0.1000000000E-03  -0.1158437778E-04   0.1158437778E-04   0.1550000000E-01  -0.1623744978E-02   0.1623744978E-02   0.1069363217E+01   0.1023058562E-01   0.1023058562E-01   0.6020736326E-03  -0.6020736327E-03  -0.3281470349E-08   0.0000000000E+00   0.1059135712E+01
   0.2015600000E+01   0.1635329356E-02   0.9983646706E+00   0.1000000000E-03   0.1158437778E-04  -0.1158437778E-04   0.1550000000E-01   0.1623744978E-02  -0.1623744978E-02   0.1069363217E+01   0.1023058562E-01   0.1023058562E-01  -0.6020736327E-03   0.6020736326E-03  -0.3281470343E-08   0.0000000000E+00   0.1059135712E+01
   0.2015600000E+01   0.9983646706E+00   0.9983646706E+00   0.1000000000E-03  -0.1158437778E-04  -0.1158437778E-04   0.1550000000E-01  -0.1623744978E-02  -0.1623744978E-02   0.1069363217E+01   0.1023058562E-01   0.1023058562E-01   0.6020736326E-03   0.6020736326E-03   0.3281471685E-08   0.0000000000E+00   0.1059135712E+01
     1     2     3     4     5     6     7     8
     2     9    10     3     6    11    12     7
 VARIABLES = X,Y,Z,DU1,DU2,DU3,U1,U2,U3,S11,S22,S33,S12,S13,S23,Vf,SMISES
 ZONE, T="0.1570D+01" F=FEPOINT, I=   12 J=    2 ET=BRICK
   0.0000000000E+00   0.2143883272E-02   0.2143883272E-02   0.0000000000E+00   0.1267325533E-04   0.1267325533E-04   0.0000000000E+00   0.2131210017E-02   0.2131210017E-02   0.1050871669E+01  -0.9137204874E-02  -0.9137204874E-02  -0.6253830893E-03  -0.6253830893E-03   0.3727592381E-08   0.0000000000E+00   0.1060012195E+01
   0.1008340167E+01   0.1825905504E-02   0.1825905504E-02   0.4962711939E-04   0.1226075092E-04   0.1226075092E-04   0.8290539403E-02   0.1813644753E-02   0.1813644753E-02   0.1061348991E+01   0.1750970831E-02   0.1750970831E-02  -0.6362603307E-03  -0.6362603307E-03   0.3473233811E-08   0.0000000000E+00   0.1059601459E+01
   0.1008340167E+01   0.9981740945E+00   0.1825905504E-02   0.4962711939E-04  -0.1226075092E-04   0.1226075092E-04   0.8290539403E-02  -0.1813644753E-02   0.1813644753E-02   0.1061348991E+01   0.1750970831E-02   0.1750970831E-02   0.6362603308E-03  -0.6362603307E-03  -0.3473227314E-08   0.0000000000E+00   0.1059601459E+01
   0.0000000000E+00   0.9978561167E+00   0.2143883272E-02   0.0000000000E+00  -0.1267325532E-04   0.1267325533E-04   0.0000000000E+00  -0.2131210016E-02   0.2131210017E-02   0.1050871669E+01  -0.9137204874E-02  -0.9137204874E-02   0.6253830891E-03  -0.6253830893E-03  -0.3727601030E-08   0.0000000000E+00   0.1060012195E+01
   0.0000000000E+00   0.2143883272E-02   0.9978561167E+00   0.0000000000E+00   0.1267325533E-04  -0.1267325532E-04   0.0000000000E+00   0.2131210017E-02  -0.2131210016E-02   0.1050871669E+01  -0.9137204874E-02  -0.9137204874E-02  -0.6253830893E-03   0.6253830891E-03  -0.3727601010E-08   0.0000000000E+00   0.1060012195E+01
   0.1008340167E+01   0.1825905504E-02   0.9981740945E+00   0.4962711939E-04   0.1226075092E-04  -0.1226075092E-04   0.8290539403E-02   0.1813644753E-02  -0.1813644753E-02   0.1061348991E+01   0.1750970831E-02   0.1750970831E-02  -0.6362603307E-03   0.6362603308E-03  -0.3473227291E-08   0.0000000000E+00   0.1059601459E+01
   0.1008340167E+01   0.9981740945E+00   0.9981740945E+00   0.4962711939E-04  -0.1226075092E-04  -0.1226075092E-04   0.8290539403E-02  -0.1813644753E-02  -0.1813644753E-02   0.1061348991E+01   0.1750970831E-02   0.1750970831E-02   0.6362603308E-03   0.6362603308E-03   0.3473220834E-08   0.0000000000E+00   0.1059601459E+01
   0.0000000000E+00   0.9978561167E+00   0.9978561167E+00   0.0000000000E+00  -0.1267325532E-04  -0.1267325532E-04   0.0000000000E+00  -0.2131210016E-02  -0.2131210016E-02   0.1050871669E+01  -0.9137204874E-02  -0.9137204874E-02   0.6253830891E-03   0.6253830891E-03   0.3727609698E-08   0.0000000000E+00   0.1060012195E+01
   0.2015700000E+01   0.1647205373E-02   0.1647205373E-02   0.1000000000E-03   0.1187601735E-04   0.1187601735E-04   0.1560000000E-01   0.1635329356E-02   0.1635329356E-02   0.1071844460E+01   0.1263007261E-01   0.1263007261E-01  -0.6478903750E-03  -0.6478903750E-03   0.3239371256E-08   0.0000000000E+00   0.1059217955E+01
   0.2015700000E+01   0.9983527946E+00   0.1647205373E-02   0.1000000000E-03  -0.1187601735E-04   0.1187601735E-04   0.1560000000E-01  -0.1635329356E-02   0.1635329356E-02   0.1071844460E+01   0.1263007261E-01   0.1263007261E-01   0.6478903749E-03  -0.6478903750E-03  -0.3239365155E-08   0.0000000000E+00   0.1059217955E+01
   0.2015700000E+01   0.1647205373E-02   0.9983527946E+00   0.1000000000E-03   0.1187601735E-04  -0.1187601735E-04   0.1560000000E-01   0.1635329356E-02  -0.1635329356E-02   0.1071844460E+01   0.1263007261E-01   0.1263007261E-01  -0.6478903750E-03   0.6478903749E-03  -0.3239365147E-08   0.0000000000E+00   0.1059217955E+01
   0.2015700000E+01   0.9983527946E+00   0.9983527946E+00   0.1000000000E-03  -0.1187601735E-04  -0.1187601735E-04   0.1560000000E-01  -0.1635329356E-02  -0.1635329356E-02   0.1071844460E+01   0.1263007261E-01   0.1263007261E-01   0.6478903749E-03   0.6478903749E-03   0.3239359099E-08   0.0000000000E+00   0.1059217955E+01
     1     2     3     4     5     6     7     8
     2     9    10     3     6    11    12     7
 VARIABLES = X,Y,Z,DU1,DU2,DU3,U1,U2,U3,S11,S22,S33,S12,S13,S23,Vf,SMISES
 ZONE, T="0.1580D+01" F=FEPOINT, I=   12 J=    2 ET=BRICK
   0.0000000000E+00   0.2156333800E-02   0.2156333800E-02   0.0000000000E+00   0.1245052784E-04   0.1245052784E-04   0.0000000000E+00   0.2143883272E-02   0.2143883272E-02   0.1050019170E+01  -0.9958301030E-02  -0.9958301030E-02  -0.6437303918E-03  -0.6437303918E-03   0.3623268754E-08   0.0000000000E+00   0.1059980990E+01
   0.1008390052E+01   0.1838211643E-02   0.1838211643E-02   0.4988557207E-04   0.1230613888E-04   0.1230613888E-04   0.8340166523E-02   0.1825905504E-02   0.1825905504E-02   0.1061734240E+01   0.2085376877E-02   0.2085376877E-02  -0.6523293325E-03  -0.6523293325E-03   0.3380603610E-08   0.0000000000E+00   0.1059652478E+01
   0.1008390052E+01   0.9981617884E+00   0.1838211643E-02   0.4988557207E-04  -0.1230613887E-04   0.1230613888E-04   0.8340166523E-02  -0.1825905504E-02   0.1825905504E-02   0.1061734240E+01   0.2085376876E-02   0.2085376876E-02   0.6523293326E-03  -0.6523293325E-03  -0.3380595247E-08   0.0000000000E+00   0.1059652477E+01
   0.0000000000E+00   0.9978436662E+00   0.2156333800E-02   0.0000000000E+00  -0.1245052784E-04   0.1245052784E-04   0.0000000000E+00  -0.2143883272E-02   0.2143883272E-02   0.1050019170E+01  -0.9958301029E-02  -0.9958301029E-02   0.6437303916E-03  -0.6437303917E-03  -0.3623277823E-08   0.0000000000E+00   0.1059980990E+01
   0.0000000000E+00   0.2156333800E-02   0.9978436662E+00   0.0000000000E+00   0.1245052784E-04  -0.1245052784E-04   0.0000000000E+00   0.2143883272E-02  -0.2143883272E-02   0.1050019170E+01  -0.9958301029E-02  -0.9958301029E-02  -0.6437303917E-03   0.6437303916E-03  -0.3623277804E-08   0.0000000000E+00   0.1059980990E+01
   0.1008390052E+01   0.1838211643E-02   0.9981617884E+00   0.4988557207E-04   0.1230613888E-04  -0.1230613887E-04   0.8340166523E-02   0.1825905504E-02  -0.1825905504E-02   0.1061734240E+01   0.2085376876E-02   0.2085376876E-02  -0.6523293325E-03   0.6523293326E-03  -0.3380595224E-08   0.0000000000E+00   0.1059652477E+01
   0.1008390052E+01   0.9981617884E+00   0.9981617884E+00   0.4988557207E-04  -0.1230613887E-04  -0.1230613887E-04   0.8340166523E-02  -0.1825905504E-02  -0.1825905504E-02   0.1061734240E+01   0.2085376876E-02   0.2085376876E-02   0.6523293326E-03   0.6523293326E-03   0.3380586901E-08   0.0000000000E+00   0.1059652477E+01
   0.0000000000E+00   0.9978436662E+00   0.9978436662E+00   0.0000000000E+00  -0.1245052784E-04  -0.1245052784E-04   0.0000000000E+00  -0.2143883272E-02  -0.2143883272E-02   0.1050019170E+01  -0.9958301029E-02  -0.9958301029E-02   0.6437303915E-03   0.6437303915E-03   0.3623286918E-08   0.0000000000E+00   0.1059980990E+01
   0.2015800000E+01   0.1659393778E-02   0.1659393778E-02   0.1000000000E-03   0.1218840470E-04   0.1218840470E-04   0.1570000000E-01   0.1647205373E-02   0.1647205373E-02   0.1073467073E+01   0.1412017314E-01   0.1412017314E-01  -0.6616426267E-03  -0.6616426267E-03   0.3157183057E-08   0.0000000000E+00   0.1059350619E+01
   0.2015800000E+01   0.9983406062E+00   0.1659393778E-02   0.1000000000E-03  -0.1218840470E-04   0.1218840470E-04   0.1570000000E-01  -0.1647205373E-02   0.1647205373E-02   0.1073467073E+01   0.1412017314E-01   0.1412017314E-01   0.6616426266E-03  -0.6616426267E-03  -0.3157171943E-08   0.0000000000E+00   0.1059350619E+01
   0.2015800000E+01   0.1659393778E-02   0.9983406062E+00   0.1000000000E-03   0.1218840470E-04  -0.1218840470E-04   0.1570000000E-01   0.1647205373E-02  -0.1647205373E-02   0.1073467073E+01   0.1412017314E-01   0.1412017314E-01  -0.6616426267E-03   0.6616426266E-03  -0.3157171934E-08   0.0000000000E+00   0.1059350619E+01
   0.2015800000E+01   0.9983406062E+00   0.9983406062E+00   0.1000000000E-03  -0.1218840470E-04  -0.1218840470E-04   0.1570000000E-01  -0.1647205373E-02  -0.1647205373E-02   0.1073467073E+01   0.1412017314E-01   0.1412017314E-01   0.6616426265E-03   0.6616426265E-03   0.3157160865E-08   0.0000000000E+00   0.1059350619E+01
     1     2     3     4     5     6     7     8
     2     9    10     3     6    11    12     7
 VARIABLES = X,Y,Z,DU1,DU2,DU3,U1,U2,U3,S11,S22,S33,S12,S13,S23,Vf,SMISES
 ZONE, T="0.1590D+01" F=FEPOINT, I=   12 J=    2 ET=BRICK
   0.0000000000E+00   0.2168563631E-02   0.2168563631E-02   0.0000000000E+00   0.1222983141E-04   0.1222983141E-04   0.0000000000E+00   0.2156333800E-02   0.2156333800E-02   0.1049767347E+01  -0.1018463025E-01  -0.1018463025E-01  -0.6294603809E-03  -0.6294603809E-03   0.3472417065E-08   0.0000000000E+00   0.1059955341E+01
   0.1008440197E+01   0.1850564242E-02   0.1850564242E-02   0.5014449977E-04   0.1235259955E-04   0.1235259955E-04   0.8390052095E-02   0.1838211643E-02   0.1838211643E-02   0.1061953156E+01   0.2231148924E-02   0.2231148924E-02  -0.6359232935E-03  -0.6359232935E-03   0.3239663990E-08   0.0000000000E+00   0.1059725442E+01
   0.1008440197E+01   0.9981494358E+00   0.1850564242E-02   0.5014449977E-04  -0.1235259955E-04   0.1235259955E-04   0.8390052095E-02  -0.1838211643E-02   0.1838211643E-02   0.1061953156E+01   0.2231148924E-02   0.2231148924E-02   0.6359232936E-03  -0.6359232935E-03  -0.3239654353E-08   0.0000000000E+00   0.1059725442E+01
   0.0000000000E+00   0.9978314364E+00   0.2168563631E-02   0.0000000000E+00  -0.1222983141E-04   0.1222983141E-04   0.0000000000E+00  -0.2156333800E-02   0.2156333800E-02   0.1049767346E+01  -0.1018463025E-01  -0.1018463025E-01   0.6294603807E-03  -0.6294603809E-03  -0.3472425274E-08   0.0000000000E+00   0.1059955341E+01
   0.0000000000E+00   0.2168563631E-02   0.9978314364E+00   0.0000000000E+00   0.1222983141E-04  -0.1222983141E-04   0.0000000000E+00   0.2156333800E-02  -0.2156333800E-02   0.1049767346E+01  -0.1018463025E-01  -0.1018463025E-01  -0.6294603809E-03   0.6294603807E-03  -0.3472425255E-08   0.0000000000E+00   0.1059955341E+01
   0.1008440197E+01   0.1850564242E-02   0.9981494358E+00   0.5014449977E-04   0.1235259955E-04  -0.1235259955E-04   0.8390052095E-02   0.1838211643E-02  -0.1838211643E-02   0.1061953156E+01   0.2231148924E-02   0.2231148924E-02  -0.6359232935E-03   0.6359232936E-03  -0.3239654329E-08   0.0000000000E+00   0.1059725442E+01
   0.1008440197E+01   0.9981494358E+00   0.9981494358E+00   0.5014449977E-04  -0.1235259955E-04  -0.1235259955E-04   0.8390052095E-02  -0.1838211643E-02  -0.1838211643E-02   0.1061953156E+01   0.2231148924E-02   0.2231148924E-02   0.6359232936E-03   0.6359232936E-03   0.3239644731E-08   0.0000000000E+00   0.1059725442E+01
   0.0000000000E+00   0.9978314364E+00   0.9978314364E+00   0.0000000000E+00  -0.1222983141E-04  -0.1222983141E-04   0.0000000000E+00  -0.2156333800E-02  -0.2156333800E-02   0.1049767346E+01  -0.1018463025E-01  -0.1018463025E-01   0.6294603807E-03   0.6294603807E-03   0.3472433516E-08   0.0000000000E+00   0.1059955341E+01
   0.2015900000E+01   0.1671894537E-02   0.1671894537E-02   0.1000000000E-03   0.1250075843E-04   0.1250075843E-04   0.1580000000E-01   0.1659393778E-02   0.1659393778E-02   0.1074156242E+01   0.1463829004E-01   0.1463829004E-01  -0.6430598286E-03  -0.6430598286E-03   0.3024970365E-08   0.0000000000E+00   0.1059521465E+01
   0.2015900000E+01   0.9983281055E+00   0.1671894537E-02   0.1000000000E-03  -0.1250075843E-04   0.1250075843E-04   0.1580000000E-01  -0.1659393778E-02   0.1659393778E-02   0.1074156242E+01   0.1463829004E-01   0.1463829004E-01   0.6430598284E-03  -0.6430598286E-03  -0.3024956667E-08   0.0000000000E+00   0.1059521465E+01
   0.2015900000E+01   0.1671894537E-02   0.9983281055E+00   0.1000000000E-03   0.1250075843E-04  -0.1250075843E-04   0.1580000000E-01   0.1659393778E-02  -0.1659393778E-02   0.1074156242E+01   0.1463829004E-01   0.1463829004E-01  -0.6430598286E-03   0.6430598284E-03  -0.3024956658E-08   0.0000000000E+00   0.1059521465E+01
   0.2015900000E+01   0.9983281055E+00   0.9983281055E+00   0.1000000000E-03  -0.1250075843E-04  -0.1250075843E-04   0.1580000000E-01  -0.1659393778E-02  -0.1659393778E-02   0.1074156242E+01   0.1463829004E-01   0.1463829004E-01   0.6430598284E-03   0.6430598284E-03   0.3024942999E-08   0.0000000000E+00   0.1059521465E+01
     1     2     3     4     5     6     7     8
     2     9    10     3     6    11    12     7
 VARIABLES = X,Y,Z,DU1,DU2,DU3,U1,U2,U3,S11,S22,S33,S12,S13,S23,Vf,SMISES
 ZONE, T="0.1600D+01" F=FEPOINT, I=   12 J=    2 ET=BRICK
   0.0000000000E+00   0.2180587169E-02   0.2180587169E-02   0.0000000000E+00   0.1202353832E-04   0.1202353832E-04   0.0000000000E+00   0.2168563631E-02   0.2168563631E-02   0.1050110284E+01  -0.9821724957E-02  -0.9821724957E-02  -0.5843218263E-03  -0.5843218263E-03   0.3275650972E-08   0.0000000000E+00   0.1059934908E+01
   0.1008490585E+01   0.1862960542E-02   0.1862960542E-02   0.5038851245E-04   0.1239629998E-04   0.1239629998E-04   0.8440196594E-02   0.1850564242E-02   0.1850564242E-02   0.1061996687E+01   0.2186678269E-02   0.2186678269E-02  -0.5887892164E-03  -0.5887892164E-03   0.3051662138E-08   0.0000000000E+00   0.1059812953E+01
   0.1008490585E+01   0.9981370395E+00   0.1862960542E-02   0.5038851245E-04  -0.1239629998E-04   0.1239629998E-04   0.8440196594E-02  -0.1850564242E-02   0.1850564242E-02   0.1061996687E+01   0.2186678269E-02   0.2186678269E-02   0.5887892165E-03  -0.5887892164E-03  -0.3051651807E-08   0.0000000000E+00   0.1059812953E+01
   0.0000000000E+00   0.9978194128E+00   0.2180587169E-02   0.0000000000E+00  -0.1202353832E-04   0.1202353832E-04   0.0000000000E+00  -0.2168563631E-02   0.2168563631E-02   0.1050110284E+01  -0.9821724957E-02  -0.9821724957E-02   0.5843218261E-03  -0.5843218263E-03  -0.3275657133E-08   0.0000000000E+00   0.1059934908E+01
   0.0000000000E+00   0.2180587169E-02   0.9978194128E+00   0.0000000000E+00   0.1202353832E-04  -0.1202353832E-04   0.0000000000E+00   0.2168563631E-02  -0.2168563631E-02   0.1050110284E+01  -0.9821724957E-02  -0.9821724957E-02  -0.5843218263E-03   0.5843218261E-03  -0.3275657114E-08   0.0000000000E+00   0.1059934908E+01
   0.1008490585E+01   0.1862960542E-02   0.9981370395E+00   0.5038851245E-04   0.1239629998E-04  -0.1239629998E-04   0.8440196594E-02   0.1850564242E-02  -0.1850564242E-02   0.1061996687E+01   0.2186678269E-02   0.2186678269E-02  -0.5887892164E-03   0.5887892165E-03  -0.3051651783E-08   0.0000000000E+00   0.1059812953E+01
   0.1008490585E+01   0.9981370395E+00   0.9981370395E+00   0.5038851245E-04  -0.1239629998E-04  -0.1239629998E-04   0.8440196594E-02  -0.1850564242E-02  -0.1850564242E-02   0.1061996687E+01   0.2186678268E-02   0.2186678268E-02   0.5887892164E-03   0.5887892164E-03   0.3051641488E-08   0.0000000000E+00   0.1059812953E+01
   0.0000000000E+00   0.9978194128E+00   0.9978194128E+00   0.0000000000E+00  -0.1202353832E-04  -0.1202353832E-04   0.0000000000E+00  -0.2168563631E-02  -0.2168563631E-02   0.1050110284E+01  -0.9821724956E-02  -0.9821724956E-02   0.5843218261E-03   0.5843218261E-03   0.3275663328E-08   0.0000000000E+00   0.1059934908E+01
   0.2016000000E+01   0.1684687585E-02   0.1684687585E-02   0.1000000000E-03   0.1279304840E-04   0.1279304840E-04   0.1590000000E-01   0.1671894537E-02   0.1671894537E-02   0.1073899769E+01   0.1418674196E-01   0.1418674196E-01  -0.5938884596E-03  -0.5938884596E-03   0.2844619036E-08   0.0000000000E+00   0.1059716023E+01
   0.2016000000E+01   0.9983153124E+00   0.1684687585E-02   0.1000000000E-03  -0.1279304840E-04   0.1279304840E-04   0.1590000000E-01  -0.1671894537E-02   0.1671894537E-02   0.1073899769E+01   0.1418674196E-01   0.1418674196E-01   0.5938884594E-03  -0.5938884596E-03  -0.2844605082E-08   0.0000000000E+00   0.1059716023E+01
   0.2016000000E+01   0.1684687585E-02   0.9983153124E+00   0.1000000000E-03   0.1279304840E-04  -0.1279304840E-04   0.1590000000E-01   0.1671894537E-02  -0.1671894537E-02   0.1073899769E+01   0.1418674196E-01   0.1418674196E-01  -0.5938884596E-03   0.5938884594E-03  -0.2844605072E-08   0.0000000000E+00   0.1059716023E+01
   0.2016000000E+01   0.9983153124E+00   0.9983153124E+00   0.1000000000E-03  -0.1279304840E-04  -0.1279304840E-04   0.1590000000E-01  -0.1671894537E-02  -0.1671894537E-02   0.1073899769E+01   0.1418674196E-01   0.1418674196E-01   0.5938884594E-03   0.5938884594E-03   0.2844591149E-08   0.0000000000E+00   0.1059716023E+01
     1     2     3     4     5     6     7     8
     2     9    10     3     6    11    12     7
 VARIABLES = X,Y,Z,DU1,DU2,DU3,U1,U2,U3,S11,S22,S33,S12,S13,S23,Vf,SMISES
 ZONE, T="0.1610D+01" F=FEPOINT, I=   12 J=    2 ET=BRICK
   0.0000000000E+00   0.2192430039E-02   0.2192430039E-02   0.0000000000E+00   0.1184286929E-04   0.1184286929E-04   0.0000000000E+00   0.2180587169E-02   0.2180587169E-02   0.1051009970E+01  -0.8906724167E-02  -0.8906724167E-02  -0.5118915107E-03  -0.5118915107E-03   0.3044517443E-08   0.0000000000E+00   0.1059918920E+01
   0.1008541189E+01   0.1875394379E-02   0.1875394379E-02   0.5060363119E-04   0.1243383641E-04   0.1243383641E-04   0.8490585107E-02   0.1862960542E-02   0.1862960542E-02   0.1061870313E+01   0.1965711011E-02   0.1965711011E-02  -0.5145095364E-03  -0.5145095364E-03   0.2828726447E-08   0.0000000000E+00   0.1059906851E+01
   0.1008541189E+01   0.9981246056E+00   0.1875394379E-02   0.5060363119E-04  -0.1243383641E-04   0.1243383641E-04   0.8490585107E-02  -0.1862960542E-02   0.1862960542E-02   0.1061870313E+01   0.1965711011E-02   0.1965711011E-02   0.5145095364E-03  -0.5145095364E-03  -0.2828715953E-08   0.0000000000E+00   0.1059906851E+01
   0.0000000000E+00   0.9978075700E+00   0.2192430039E-02   0.0000000000E+00  -0.1184286929E-04   0.1184286929E-04   0.0000000000E+00  -0.2180587169E-02   0.2180587169E-02   0.1051009970E+01  -0.8906724167E-02  -0.8906724167E-02   0.5118915105E-03  -0.5118915107E-03  -0.3044520524E-08   0.0000000000E+00   0.1059918920E+01
   0.0000000000E+00   0.2192430039E-02   0.9978075700E+00   0.0000000000E+00   0.1184286929E-04  -0.1184286929E-04   0.0000000000E+00   0.2180587169E-02  -0.2180587169E-02   0.1051009970E+01  -0.8906724167E-02  -0.8906724167E-02  -0.5118915107E-03   0.5118915105E-03  -0.3044520506E-08   0.0000000000E+00   0.1059918920E+01
   0.1008541189E+01   0.1875394379E-02   0.9981246056E+00   0.5060363119E-04   0.1243383641E-04  -0.1243383641E-04   0.8490585107E-02   0.1862960542E-02  -0.1862960542E-02   0.1061870313E+01   0.1965711011E-02   0.1965711011E-02  -0.5145095364E-03   0.5145095364E-03  -0.2828715929E-08   0.0000000000E+00   0.1059906851E+01
   0.1008541189E+01   0.9981246056E+00   0.9981246056E+00   0.5060363119E-04  -0.1243383641E-04  -0.1243383641E-04   0.8490585107E-02  -0.1862960542E-02  -0.1862960542E-02   0.1061870313E+01   0.1965711011E-02   0.1965711011E-02   0.5145095364E-03   0.5145095364E-03   0.2828705464E-08   0.0000000000E+00   0.1059906851E+01
   0.0000000000E+00   0.9978075700E+00   0.9978075700E+00   0.0000000000E+00  -0.1184286929E-04  -0.1184286929E-04   0.0000000000E+00  -0.2180587169E-02  -0.2180587169E-02   0.1051009970E+01  -0.8906724167E-02  -0.8906724167E-02   0.5118915105E-03   0.5118915105E-03   0.3044523637E-08   0.0000000000E+00   0.1059918920E+01
   0.2016100000E+01   0.1697734840E-02   0.1697734840E-02   0.1000000000E-03   0.1304725520E-04   0.1304725520E-04   0.1600000000E-01   0.1684687585E-02   0.1684687585E-02   0.1072746626E+01   0.1283016117E-01   0.1283016117E-01  -0.5177178813E-03  -0.5177178813E-03   0.2628844300E-08   0.0000000000E+00   0.1059918741E+01
   0.2016100000E+01   0.9983022652E+00   0.1697734840E-02   0.1000000000E-03  -0.1304725520E-04   0.1304725520E-04   0.1600000000E-01  -0.1684687585E-02   0.1684687585E-02   0.1072746626E+01   0.1283016117E-01   0.1283016117E-01   0.5177178812E-03  -0.5177178813E-03  -0.2628832164E-08   0.0000000000E+00   0.1059918741E+01
   0.2016100000E+01   0.1697734840E-02   0.9983022652E+00   0.1000000000E-03   0.1304725520E-04  -0.1304725520E-04   0.1600000000E-01   0.1684687585E-02  -0.1684687585E-02   0.1072746626E+01   0.1283016117E-01   0.1283016117E-01  -0.5177178813E-03   0.5177178812E-03  -0.2628832154E-08   0.0000000000E+00   0.1059918741E+01
   0.2016100000E+01   0.9983022652E+00   0.9983022652E+00   0.1000000000E-03  -0.1304725520E-04  -0.1304725520E-04   0.1600000000E-01  -0.1684687585E-02  -0.1684687585E-02   0.1072746626E+01   0.1283016117E-01   0.1283016117E-01   0.5177178811E-03   0.5177178811E-03   0.2628820038E-08   0.0000000000E+00   0.1059918741E+01
     1     2     3     4     5     6     7     8
     2     9    10     3     6    11    12     7
 VARIABLES = X,Y,Z,DU1,DU2,DU3,U1,U2,U3,S11,S22,S33,S12,S13,S23,Vf,SMISES
 ZONE, T="0.1620D+01" F=FEPOINT, I=   12 J=    2 ET=BRICK
   0.0000000000E+00   0.2204127351E-02   0.2204127351E-02   0.0000000000E+00   0.1169731219E-04   0.1169731219E-04   0.0000000000E+00   0.2192430039E-02   0.2192430039E-02   0.1052399262E+01  -0.7505664091E-02  -0.7505664091E-02  -0.4172958513E-03  -0.4172958513E-03   0.2798205741E-08   0.0000000000E+00   0.1059906405E+01
   0.1008591967E+01   0.1887856863E-02   0.1887856863E-02   0.5077808572E-04   0.1246248415E-04   0.1246248415E-04   0.8541188738E-02   0.1875394379E-02   0.1875394379E-02   0.1061592848E+01   0.1595417508E-02   0.1595417508E-02  -0.4182217443E-03  -0.4182217443E-03   0.2590522278E-08   0.0000000000E+00   0.1059998916E+01
   0.1008591967E+01   0.9981121431E+00   0.1887856863E-02   0.5077808572E-04  -0.1246248415E-04   0.1246248415E-04   0.8541188738E-02  -0.1875394379E-02   0.1875394379E-02   0.1061592848E+01   0.1595417508E-02   0.1595417508E-02   0.4182217443E-03  -0.4182217443E-03  -0.2590512064E-08   0.0000000000E+00   0.1059998916E+01
   0.0000000000E+00   0.9977958726E+00   0.2204127351E-02   0.0000000000E+00  -0.1169731219E-04   0.1169731219E-04   0.0000000000E+00  -0.2192430039E-02   0.2192430039E-02   0.1052399262E+01  -0.7505664090E-02  -0.7505664090E-02   0.4172958512E-03  -0.4172958513E-03  -0.2798204922E-08   0.0000000000E+00   0.1059906405E+01
   0.0000000000E+00   0.2204127351E-02   0.9977958726E+00   0.0000000000E+00   0.1169731219E-04  -0.1169731219E-04   0.0000000000E+00   0.2192430039E-02  -0.2192430039E-02   0.1052399262E+01  -0.7505664090E-02  -0.7505664090E-02  -0.4172958513E-03   0.4172958512E-03  -0.2798204905E-08   0.0000000000E+00   0.1059906405E+01
   0.1008591967E+01   0.1887856863E-02   0.9981121431E+00   0.5077808572E-04   0.1246248415E-04  -0.1246248415E-04   0.8541188738E-02   0.1875394379E-02  -0.1875394379E-02   0.1061592848E+01   0.1595417508E-02   0.1595417508E-02  -0.4182217443E-03   0.4182217443E-03  -0.2590512040E-08   0.0000000000E+00   0.1059998916E+01
   0.1008591967E+01   0.9981121431E+00   0.9981121431E+00   0.5077808572E-04  -0.1246248415E-04  -0.1246248415E-04   0.8541188738E-02  -0.1875394379E-02  -0.1875394379E-02   0.1061592848E+01   0.1595417508E-02   0.1595417508E-02   0.4182217443E-03   0.4182217443E-03   0.2590501851E-08   0.0000000000E+00   0.1059998916E+01
   0.0000000000E+00   0.9977958726E+00   0.9977958726E+00   0.0000000000E+00  -0.1169731219E-04  -0.1169731219E-04   0.0000000000E+00  -0.2192430039E-02  -0.2192430039E-02   0.1052399262E+01  -0.7505664090E-02  -0.7505664090E-02   0.4172958512E-03   0.4172958512E-03   0.2798204133E-08   0.0000000000E+00   0.1059906405E+01
   0.2016200000E+01   0.1710983292E-02   0.1710983292E-02   0.1000000000E-03   0.1324845139E-04   0.1324845139E-04   0.1610000000E-01   0.1697734840E-02   0.1697734840E-02   0.1070801590E+01   0.1068892120E-01   0.1068892120E-01  -0.4196978296E-03  -0.4196978296E-03   0.2397791532E-08   0.0000000000E+00   0.1060114164E+01
   0.2016200000E+01   0.9982890167E+00   0.1710983292E-02   0.1000000000E-03  -0.1324845139E-04   0.1324845139E-04   0.1610000000E-01  -0.1697734840E-02   0.1697734840E-02   0.1070801590E+01   0.1068892120E-01   0.1068892120E-01   0.4196978294E-03  -0.4196978296E-03  -0.2397782908E-08   0.0000000000E+00   0.1060114164E+01
   0.2016200000E+01   0.1710983292E-02   0.9982890167E+00   0.1000000000E-03   0.1324845139E-04  -0.1324845139E-04   0.1610000000E-01   0.1697734840E-02  -0.1697734840E-02   0.1070801590E+01   0.1068892120E-01   0.1068892120E-01  -0.4196978296E-03   0.4196978294E-03  -0.2397782898E-08   0.0000000000E+00   0.1060114164E+01
   0.2016200000E+01   0.9982890167E+00   0.9982890167E+00   0.1000000000E-03  -0.1324845139E-04  -0.1324845139E-04   0.1610000000E-01  -0.1697734840E-02  -0.1697734840E-02   0.1070801590E+01   0.1068892120E-01   0.1068892120E-01   0.4196978294E-03   0.4196978294E-03   0.2397774286E-08   0.0000000000E+00   0.1060114164E+01
     1     2     3     4     5     6     7     8
     2     9    10     3     6    11    12     7
 VARIABLES = X,Y,Z,DU1,DU2,DU3,U1,U2,U3,S11,S22,S33,S12,S13,S23,Vf,SMISES
 ZONE, T="0.1630D+01" F=FEPOINT, I=   12 J=    2 ET=BRICK
   0.0000000000E+00   0.2215721497E-02   0.2215721497E-02   0.0000000000E+00   0.1159414627E-04   0.1159414627E-04   0.0000000000E+00   0.2204127351E-02   0.2204127351E-02   0.1054186277E+01  -0.5709340060E-02  -0.5709340060E-02  -0.3068480119E-03  -0.3068480119E-03   0.2558745695E-08   0.0000000000E+00   0.1059896417E+01
   0.1008642870E+01   0.1900337242E-02   0.1900337242E-02   0.5090295188E-04   0.1248037944E-04   0.1248037944E-04   0.8591966824E-02   0.1887856863E-02   0.1887856863E-02   0.1061194226E+01   0.1113488080E-02   0.1113488080E-02  -0.3062523103E-03  -0.3062523103E-03   0.2359410383E-08   0.0000000000E+00   0.1060081534E+01
   0.1008642870E+01   0.9980996628E+00   0.1900337242E-02   0.5090295188E-04  -0.1248037944E-04   0.1248037944E-04   0.8591966824E-02  -0.1887856863E-02   0.1887856863E-02   0.1061194226E+01   0.1113488080E-02   0.1113488080E-02   0.3062523103E-03  -0.3062523103E-03  -0.2359400784E-08   0.0000000000E+00   0.1060081534E+01
   0.0000000000E+00   0.9977842785E+00   0.2215721497E-02   0.0000000000E+00  -0.1159414627E-04   0.1159414627E-04   0.0000000000E+00  -0.2204127351E-02   0.2204127351E-02   0.1054186277E+01  -0.5709340060E-02  -0.5709340060E-02   0.3068480117E-03  -0.3068480118E-03  -0.2558740412E-08   0.0000000000E+00   0.1059896416E+01
   0.0000000000E+00   0.2215721497E-02   0.9977842785E+00   0.0000000000E+00   0.1159414627E-04  -0.1159414627E-04   0.0000000000E+00   0.2204127351E-02  -0.2204127351E-02   0.1054186277E+01  -0.5709340060E-02  -0.5709340060E-02  -0.3068480118E-03   0.3068480117E-03  -0.2558740396E-08   0.0000000000E+00   0.1059896416E+01
   0.1008642870E+01   0.1900337242E-02   0.9980996628E+00   0.5090295188E-04   0.1248037944E-04  -0.1248037944E-04   0.8591966824E-02   0.1887856863E-02  -0.1887856863E-02   0.1061194226E+01   0.1113488080E-02   0.1113488080E-02  -0.3062523103E-03   0.3062523103E-03  -0.2359400760E-08   0.0000000000E+00   0.1060081534E+01
   0.1008642870E+01   0.9980996628E+00   0.9980996628E+00   0.5090295188E-04  -0.1248037944E-04  -0.1248037944E-04   0.8591966824E-02  -0.1887856863E-02  -0.1887856863E-02   0.1061194226E+01   0.1113488080E-02   0.1113488080E-02   0.3062523103E-03   0.3062523103E-03   0.2359391182E-08   0.0000000000E+00   0.1060081534E+01
   0.0000000000E+00   0.9977842785E+00   0.9977842785E+00   0.0000000000E+00  -0.1159414627E-04  -0.1159414627E-04   0.0000000000E+00  -0.2204127351E-02  -0.2204127351E-02   0.1054186277E+01  -0.5709340060E-02  -0.5709340060E-02   0.3068480117E-03   0.3068480117E-03   0.2558735159E-08   0.0000000000E+00   0.1059896416E+01
   0.2016300000E+01   0.1724368933E-02   0.1724368933E-02   0.1000000000E-03   0.1338564118E-04   0.1338564118E-04   0.1620000000E-01   0.1710983292E-02   0.1710983292E-02   0.1068216427E+01   0.7929189754E-02   0.7929189754E-02  -0.3061690455E-03  -0.3061690455E-03   0.2174153498E-08   0.0000000000E+00   0.1060288033E+01
   0.2016300000E+01   0.9982756311E+00   0.1724368933E-02   0.1000000000E-03  -0.1338564118E-04   0.1338564118E-04   0.1620000000E-01  -0.1710983291E-02   0.1710983292E-02   0.1068216427E+01   0.7929189753E-02   0.7929189753E-02   0.3061690453E-03  -0.3061690455E-03  -0.2174149610E-08   0.0000000000E+00   0.1060288033E+01
   0.2016300000E+01   0.1724368933E-02   0.9982756311E+00   0.1000000000E-03   0.1338564118E-04  -0.1338564118E-04   0.1620000000E-01   0.1710983292E-02  -0.1710983291E-02   0.1068216427E+01   0.7929189753E-02   0.7929189753E-02  -0.3061690455E-03   0.3061690453E-03  -0.2174149600E-08   0.0000000000E+00   0.1060288033E+01
   0.2016300000E+01   0.9982756311E+00   0.9982756311E+00   0.1000000000E-03  -0.1338564118E-04  -0.1338564118E-04   0.1620000000E-01  -0.1710983291E-02  -0.1710983291E-02   0.1068216427E+01   0.7929189753E-02   0.7929189753E-02   0.3061690453E-03   0.3061690453E-03   0.2174145712E-08   0.0000000000E+00   0.1060288033E+01
     1     2     3     4     5     6     7     8
     2     9    10     3     6    11    12     7
 VARIABLES = X,Y,Z,DU1,DU2,DU3,U1,U2,U3,S11,S22,S33,S12,S13,S23,Vf,SMISES
 ZONE, T="0.1640D+01" F=FEPOINT, I=   12 J=    2 ET=BRICK
   0.0000000000E+00   0.2227259592E-02   0.2227259592E-02   0.0000000000E+00   0.1153809492E-04   0.1153809492E-04   0.0000000000E+00   0.2215721497E-02   0.2215721497E-02   0.1056259958E+01  -0.3627958952E-02  -0.3627958952E-02  -0.1876253379E-03  -0.1876253379E-03   0.2345899373E-08   0.0000000000E+00   0.1059888216E+01
   0.1008693842E+01   0.1912823865E-02   0.1912823865E-02   0.5097259589E-04   0.1248662257E-04   0.1248662257E-04   0.8642869776E-02   0.1900337242E-02   0.1900337242E-02   0.1060712515E+01   0.5645421004E-03   0.5645421004E-03  -0.1856905631E-03  -0.1856905631E-03   0.2155319218E-08   0.0000000000E+00   0.1060148267E+01
   0.1008693842E+01   0.9980871761E+00   0.1912823865E-02   0.5097259589E-04  -0.1248662257E-04   0.1248662257E-04   0.8642869776E-02  -0.1900337242E-02   0.1900337242E-02   0.1060712515E+01   0.5645421003E-03   0.5645421003E-03   0.1856905631E-03  -0.1856905631E-03  -0.2155310445E-08   0.0000000000E+00   0.1060148267E+01
   0.0000000000E+00   0.9977727404E+00   0.2227259592E-02   0.0000000000E+00  -0.1153809492E-04   0.1153809492E-04   0.0000000000E+00  -0.2215721497E-02   0.2215721497E-02   0.1056259957E+01  -0.3627958952E-02  -0.3627958952E-02   0.1876253378E-03  -0.1876253379E-03  -0.2345889351E-08   0.0000000000E+00   0.1059888216E+01
   0.0000000000E+00   0.2227259592E-02   0.9977727404E+00   0.0000000000E+00   0.1153809492E-04  -0.1153809492E-04   0.0000000000E+00   0.2215721497E-02  -0.2215721497E-02   0.1056259957E+01  -0.3627958952E-02  -0.3627958952E-02  -0.1876253379E-03   0.1876253378E-03  -0.2345889337E-08   0.0000000000E+00   0.1059888216E+01
   0.1008693842E+01   0.1912823865E-02   0.9980871761E+00   0.5097259589E-04   0.1248662257E-04  -0.1248662257E-04   0.8642869776E-02   0.1900337242E-02  -0.1900337242E-02   0.1060712515E+01   0.5645421003E-03   0.5645421003E-03  -0.1856905631E-03   0.1856905631E-03  -0.2155310423E-08   0.0000000000E+00   0.1060148267E+01
   0.1008693842E+01   0.9980871761E+00   0.9980871761E+00   0.5097259589E-04  -0.1248662257E-04  -0.1248662257E-04   0.8642869776E-02  -0.1900337242E-02  -0.1900337242E-02   0.1060712515E+01   0.5645421003E-03   0.5645421003E-03   0.1856905631E-03   0.1856905631E-03   0.2155301665E-08   0.0000000000E+00   0.1060148266E+01
   0.0000000000E+00   0.9977727404E+00   0.9977727404E+00   0.0000000000E+00  -0.1153809492E-04  -0.1153809492E-04   0.0000000000E+00  -0.2215721497E-02  -0.2215721497E-02   0.1056259957E+01  -0.3627958951E-02  -0.3627958951E-02   0.1876253378E-03   0.1876253378E-03   0.2345879356E-08   0.0000000000E+00   0.1059888215E+01
   0.2016400000E+01   0.1737821246E-02   0.1737821246E-02   0.1000000000E-03   0.1345231374E-04   0.1345231374E-04   0.1630000000E-01   0.1724368933E-02   0.1724368933E-02   0.1065178358E+01   0.4750400374E-02   0.4750400374E-02  -0.1842335310E-03  -0.1842335310E-03   0.1978022709E-08   0.0000000000E+00   0.1060428246E+01
   0.2016400000E+01   0.9982621788E+00   0.1737821246E-02   0.1000000000E-03  -0.1345231374E-04   0.1345231374E-04   0.1630000000E-01  -0.1724368933E-02   0.1724368933E-02   0.1065178358E+01   0.4750400374E-02   0.4750400374E-02   0.1842335308E-03  -0.1842335310E-03  -0.1978024248E-08   0.0000000000E+00   0.1060428246E+01
   0.2016400000E+01   0.1737821246E-02   0.9982621788E+00   0.1000000000E-03   0.1345231374E-04  -0.1345231374E-04   0.1630000000E-01   0.1724368933E-02  -0.1724368933E-02   0.1065178358E+01   0.4750400374E-02   0.4750400374E-02  -0.1842335310E-03   0.1842335308E-03  -0.1978024239E-08   0.0000000000E+00   0.1060428246E+01
   0.2016400000E+01   0.9982621788E+00   0.9982621788E+00   0.1000000000E-03  -0.1345231374E-04  -0.1345231374E-04   0.1630000000E-01  -0.1724368933E-02  -0.1724368933E-02   0.1065178358E+01   0.4750400374E-02   0.4750400374E-02   0.1842335308E-03   0.1842335308E-03   0.1978025767E-08   0.0000000000E+00   0.1060428246E+01
     1     2     3     4     5     6     7     8
     2     9    10     3     6    11    12     7
 VARIABLES = X,Y,Z,DU1,DU2,DU3,U1,U2,U3,S11,S22,S33,S12,S13,S23,Vf,SMISES
 ZONE, T="0.1650D+01" F=FEPOINT, I=   12 J=    2 ET=BRICK
   0.0000000000E+00   0.2238790715E-02   0.2238790715E-02   0.0000000000E+00   0.1153112322E-04   0.1153112322E-04   0.0000000000E+00   0.2227259592E-02   0.2227259592E-02   0.1058496513E+01  -0.1384859322E-02  -0.1384859322E-02  -0.6701475774E-04  -0.6701475774E-04   0.2172943192E-08   0.0000000000E+00   0.1059881411E+01
   0.1008744827E+01   0.1925305163E-02   0.1925305163E-02   0.5098490483E-04   0.1248129800E-04   0.1248129800E-04   0.8693842372E-02   0.1912823865E-02   0.1912823865E-02   0.1060190439E+01  -0.3823511616E-05  -0.3823511616E-05  -0.6393101592E-04  -0.6393101592E-04   0.1991532015E-08   0.0000000000E+00   0.1060194298E+01
   0.1008744827E+01   0.9980746948E+00   0.1925305163E-02   0.5098490483E-04  -0.1248129800E-04   0.1248129800E-04   0.8693842372E-02  -0.1912823865E-02   0.1912823865E-02   0.1060190439E+01  -0.3823511608E-05  -0.3823511623E-05   0.6393101591E-04  -0.6393101592E-04  -0.1991524153E-08   0.0000000000E+00   0.1060194298E+01
   0.0000000000E+00   0.9977612093E+00   0.2238790715E-02   0.0000000000E+00  -0.1153112322E-04   0.1153112322E-04   0.0000000000E+00  -0.2227259592E-02   0.2227259592E-02   0.1058496513E+01  -0.1384859322E-02  -0.1384859322E-02   0.6701475759E-04  -0.6701475774E-04  -0.2172928455E-08   0.0000000000E+00   0.1059881411E+01
   0.0000000000E+00   0.2238790715E-02   0.9977612093E+00   0.0000000000E+00   0.1153112322E-04  -0.1153112322E-04   0.0000000000E+00   0.2227259592E-02  -0.2227259592E-02   0.1058496513E+01  -0.1384859322E-02  -0.1384859322E-02  -0.6701475774E-04   0.6701475759E-04  -0.2172928442E-08   0.0000000000E+00   0.1059881411E+01
   0.1008744827E+01   0.1925305163E-02   0.9980746948E+00   0.5098490483E-04   0.1248129800E-04  -0.1248129800E-04   0.8693842372E-02   0.1912823865E-02  -0.1912823865E-02   0.1060190439E+01  -0.3823511623E-05  -0.3823511608E-05  -0.6393101592E-04   0.6393101591E-04  -0.1991524132E-08   0.0000000000E+00   0.1060194298E+01
   0.1008744827E+01   0.9980746948E+00   0.9980746948E+00   0.5098490483E-04  -0.1248129800E-04  -0.1248129800E-04   0.8693842372E-02  -0.1912823865E-02  -0.1912823865E-02   0.1060190439E+01  -0.3823511615E-05  -0.3823511615E-05   0.6393101591E-04   0.6393101591E-04   0.1991516278E-08   0.0000000000E+00   0.1060194298E+01
   0.0000000000E+00   0.9977612093E+00   0.9977612093E+00   0.0000000000E+00  -0.1153112322E-04  -0.1153112322E-04   0.0000000000E+00  -0.2227259592E-02  -0.2227259592E-02   0.1058496513E+01  -0.1384859322E-02  -0.1384859322E-02   0.6701475759E-04   0.6701475759E-04   0.2172913738E-08   0.0000000000E+00   0.1059881411E+01
   0.2016500000E+01   0.1751267932E-02   0.1751267932E-02   0.1000000000E-03   0.1344668594E-04   0.1344668594E-04   0.1640000000E-01   0.1737821246E-02   0.1737821246E-02   0.1061896646E+01   0.1371071745E-02   0.1371071745E-02  -0.6129377653E-04  -0.6129377653E-04   0.1822683678E-08   0.0000000000E+00   0.1060525606E+01
   0.2016500000E+01   0.9982487321E+00   0.1751267932E-02   0.1000000000E-03  -0.1344668594E-04   0.1344668594E-04   0.1640000000E-01  -0.1737821246E-02   0.1737821246E-02   0.1061896646E+01   0.1371071745E-02   0.1371071745E-02   0.6129377636E-04  -0.6129377654E-04  -0.1822690786E-08   0.0000000000E+00   0.1060525606E+01
   0.2016500000E+01   0.1751267932E-02   0.9982487321E+00   0.1000000000E-03   0.1344668594E-04  -0.1344668594E-04   0.1640000000E-01   0.1737821246E-02  -0.1737821246E-02   0.1061896646E+01   0.1371071745E-02   0.1371071745E-02  -0.6129377654E-04   0.6129377636E-04  -0.1822690777E-08   0.0000000000E+00   0.1060525606E+01
   0.2016500000E+01   0.9982487321E+00   0.9982487321E+00   0.1000000000E-03  -0.1344668594E-04  -0.1344668594E-04   0.1640000000E-01  -0.1737821246E-02  -0.1737821246E-02   0.1061896646E+01   0.1371071745E-02   0.1371071745E-02   0.6129377636E-04   0.6129377636E-04   0.1822697867E-08   0.0000000000E+00   0.1060525606E+01
     1     2     3     4     5     6     7     8
     2     9    10     3     6    11    12     7
 VARIABLES = X,Y,Z,DU1,DU2,DU3,U1,U2,U3,S11,S22,S33,S12,S13,S23,Vf,SMISES
 ZONE, T="0.1660D+01" F=FEPOINT, I=   12 J=    2 ET=BRICK
   0.0000000000E+00   0.2250363104E-02   0.2250363104E-02   0.0000000000E+00   0.1157238911E-04   0.1157238911E-04   0.0000000000E+00   0.2238790715E-02   0.2238790715E-02   0.1060766385E+01   0.8903764076E-03   0.8903764076E-03   0.4774522189E-04   0.4774522189E-04   0.2044251074E-08   0.0000000000E+00   0.1059876028E+01
   0.1008795769E+01   0.1937770578E-02   0.1937770578E-02   0.5094129679E-04   0.1246541461E-04   0.1246541461E-04   0.8744827276E-02   0.1925305163E-02   0.1925305163E-02   0.1059671695E+01  -0.5450099041E-03  -0.5450099041E-03   0.5178655140E-04   0.5178655140E-04   0.1872297684E-08   0.0000000000E+00   0.1060216728E+01
   0.1008795769E+01   0.9980622294E+00   0.1937770578E-02   0.5094129679E-04  -0.1246541461E-04   0.1246541461E-04   0.8744827276E-02  -0.1925305163E-02   0.1925305163E-02   0.1059671695E+01  -0.5450099041E-03  -0.5450099041E-03  -0.5178655142E-04   0.5178655140E-04  -0.1872290699E-08   0.0000000000E+00   0.1060216728E+01
   0.0000000000E+00   0.9977496369E+00   0.2250363104E-02   0.0000000000E+00  -0.1157238911E-04   0.1157238911E-04   0.0000000000E+00  -0.2238790715E-02   0.2238790715E-02   0.1060766385E+01   0.8903764076E-03   0.8903764076E-03  -0.4774522204E-04   0.4774522189E-04  -0.2044231943E-08   0.0000000000E+00   0.1059876028E+01
   0.0000000000E+00   0.2250363104E-02   0.9977496369E+00   0.0000000000E+00   0.1157238911E-04  -0.1157238911E-04   0.0000000000E+00   0.2238790715E-02  -0.2238790715E-02   0.1060766385E+01   0.8903764076E-03   0.8903764076E-03   0.4774522189E-04  -0.4774522204E-04  -0.2044231931E-08   0.0000000000E+00   0.1059876028E+01
   0.1008795769E+01   0.1937770578E-02   0.9980622294E+00   0.5094129679E-04   0.1246541461E-04  -0.1246541461E-04   0.8744827276E-02   0.1925305163E-02  -0.1925305163E-02   0.1059671695E+01  -0.5450099041E-03  -0.5450099041E-03   0.5178655140E-04  -0.5178655142E-04  -0.1872290679E-08   0.0000000000E+00   0.1060216728E+01
   0.1008795769E+01   0.9980622294E+00   0.9980622294E+00   0.5094129679E-04  -0.1246541461E-04  -0.1246541461E-04   0.8744827276E-02  -0.1925305163E-02  -0.1925305163E-02   0.1059671695E+01  -0.5450099041E-03  -0.5450099041E-03  -0.5178655141E-04  -0.5178655141E-04   0.1872283693E-08   0.0000000000E+00   0.1060216728E+01
   0.0000000000E+00   0.9977496369E+00   0.9977496369E+00   0.0000000000E+00  -0.1157238911E-04  -0.1157238911E-04   0.0000000000E+00  -0.2238790715E-02  -0.2238790715E-02   0.1060766385E+01   0.8903764076E-03   0.8903764076E-03  -0.4774522203E-04  -0.4774522203E-04   0.2044212821E-08   0.0000000000E+00   0.1059876028E+01
   0.2016600000E+01   0.1764639564E-02   0.1764639564E-02   0.1000000000E-03   0.1337163157E-04   0.1337163157E-04   0.1650000000E-01   0.1751267932E-02   0.1751267932E-02   0.1058588269E+01  -0.1986028674E-02  -0.1986028674E-02   0.5540905402E-04   0.5540905402E-04   0.1712252403E-08   0.0000000000E+00   0.1060574324E+01
   0.2016600000E+01   0.9982353604E+00   0.1764639564E-02   0.1000000000E-03  -0.1337163157E-04   0.1337163157E-04   0.1650000000E-01  -0.1751267932E-02   0.1751267932E-02   0.1058588269E+01  -0.1986028674E-02  -0.1986028674E-02  -0.5540905419E-04   0.5540905401E-04  -0.1712264690E-08   0.0000000000E+00   0.1060574324E+01
   0.2016600000E+01   0.1764639564E-02   0.9982353604E+00   0.1000000000E-03   0.1337163157E-04  -0.1337163157E-04   0.1650000000E-01   0.1751267932E-02  -0.1751267932E-02   0.1058588269E+01  -0.1986028674E-02  -0.1986028674E-02   0.5540905401E-04  -0.5540905419E-04  -0.1712264683E-08   0.0000000000E+00   0.1060574324E+01
   0.2016600000E+01   0.9982353604E+00   0.9982353604E+00   0.1000000000E-03  -0.1337163157E-04  -0.1337163157E-04   0.1650000000E-01  -0.1751267932E-02  -0.1751267932E-02   0.1058588269E+01  -0.1986028674E-02  -0.1986028674E-02  -0.5540905418E-04  -0.5540905418E-04   0.1712276946E-08   0.0000000000E+00   0.1060574324E+01
     1     2     3     4     5     6     7     8
     2     9    10     3     6    11    12     7
 VARIABLES = X,Y,Z,DU1,DU2,DU3,U1,U2,U3,S11,S22,S33,S12,S13,S23,Vf,SMISES
 ZONE, T="0.1670D+01" F=FEPOINT, I=   12 J=    2 ET=BRICK
   0.0000000000E+00   0.2262021453E-02   0.2262021453E-02   0.0000000000E+00   0.1165834874E-04   0.1165834874E-04   0.0000000000E+00   0.2250363104E-02   0.2250363104E-02   0.1062941387E+01   0.3069060532E-02   0.3069060532E-02   0.1499981052E-03   0.1499981052E-03   0.1955109099E-08   0.0000000000E+00   0.1059872517E+01
   0.1008846615E+01   0.1950211353E-02   0.1950211353E-02   0.5084651718E-04   0.1244077506E-04   0.1244077506E-04   0.8795768573E-02   0.1937770578E-02   0.1937770578E-02   0.1059197395E+01  -0.1017096569E-02  -0.1017096569E-02   0.1548110797E-03   0.1548110797E-03   0.1792689065E-08   0.0000000000E+00   0.1060214696E+01
   0.1008846615E+01   0.9980497886E+00   0.1950211353E-02   0.5084651718E-04  -0.1244077505E-04   0.1244077506E-04   0.8795768573E-02  -0.1937770578E-02   0.1937770578E-02   0.1059197395E+01  -0.1017096569E-02  -0.1017096569E-02  -0.1548110797E-03   0.1548110797E-03  -0.1792682814E-08   0.0000000000E+00   0.1060214696E+01
   0.0000000000E+00   0.9977379785E+00   0.2262021453E-02   0.0000000000E+00  -0.1165834874E-04   0.1165834874E-04   0.0000000000E+00  -0.2250363104E-02   0.2250363104E-02   0.1062941387E+01   0.3069060532E-02   0.3069060532E-02  -0.1499981053E-03   0.1499981051E-03  -0.1955086169E-08   0.0000000000E+00   0.1059872517E+01
   0.0000000000E+00   0.2262021453E-02   0.9977379785E+00   0.0000000000E+00   0.1165834874E-04  -0.1165834874E-04   0.0000000000E+00   0.2250363104E-02  -0.2250363104E-02   0.1062941387E+01   0.3069060532E-02   0.3069060532E-02   0.1499981051E-03  -0.1499981053E-03  -0.1955086158E-08   0.0000000000E+00   0.1059872517E+01
   0.1008846615E+01   0.1950211353E-02   0.9980497886E+00   0.5084651718E-04   0.1244077506E-04  -0.1244077505E-04   0.8795768573E-02   0.1937770578E-02  -0.1937770578E-02   0.1059197395E+01  -0.1017096569E-02  -0.1017096569E-02   0.1548110797E-03  -0.1548110797E-03  -0.1792682796E-08   0.0000000000E+00   0.1060214696E+01
   0.1008846615E+01   0.9980497886E+00   0.9980497886E+00   0.5084651718E-04  -0.1244077505E-04  -0.1244077505E-04   0.8795768573E-02  -0.1937770578E-02  -0.1937770578E-02   0.1059197395E+01  -0.1017096569E-02  -0.1017096569E-02  -0.1548110797E-03  -0.1548110797E-03   0.1792676541E-08   0.0000000000E+00   0.1060214696E+01
   0.0000000000E+00   0.9977379785E+00   0.9977379785E+00   0.0000000000E+00  -0.1165834874E-04  -0.1165834874E-04   0.0000000000E+00  -0.2250363104E-02  -0.2250363104E-02   0.1062941387E+01   0.3069060531E-02   0.3069060531E-02  -0.1499981053E-03  -0.1499981053E-03   0.1955063239E-08   0.0000000000E+00   0.1059872517E+01
   0.2016700000E+01   0.1777873879E-02   0.1777873879E-02   0.1000000000E-03   0.1323431449E-04   0.1323431449E-04   0.1660000000E-01   0.1764639564E-02   0.1764639564E-02   0.1055463659E+01  -0.5108381281E-02  -0.5108381281E-02   0.1592294604E-03   0.1592294604E-03   0.1641579378E-08   0.0000000000E+00   0.1060572255E+01
   0.2016700000E+01   0.9982221261E+00   0.1777873879E-02   0.1000000000E-03  -0.1323431449E-04   0.1323431449E-04   0.1660000000E-01  -0.1764639564E-02   0.1764639564E-02   0.1055463659E+01  -0.5108381281E-02  -0.5108381281E-02  -0.1592294606E-03   0.1592294604E-03  -0.1641595977E-08   0.0000000000E+00   0.1060572255E+01
   0.2016700000E+01   0.1777873879E-02   0.9982221261E+00   0.1000000000E-03   0.1323431449E-04  -0.1323431449E-04   0.1660000000E-01   0.1764639564E-02  -0.1764639564E-02   0.1055463659E+01  -0.5108381281E-02  -0.5108381281E-02   0.1592294604E-03  -0.1592294606E-03  -0.1641595971E-08   0.0000000000E+00   0.1060572255E+01
   0.2016700000E+01   0.9982221261E+00   0.9982221261E+00   0.1000000000E-03  -0.1323431449E-04  -0.1323431449E-04   0.1660000000E-01  -0.1764639564E-02  -0.1764639564E-02   0.1055463659E+01  -0.5108381281E-02  -0.5108381281E-02  -0.1592294606E-03  -0.1592294606E-03   0.1641612542E-08   0.0000000000E+00   0.1060572255E+01
     1     2     3     4     5     6     7     8
     2     9    10     3     6    11    12     7
 VARIABLES = X,Y,Z,DU1,DU2,DU3,U1,U2,U3,S11,S22,S33,S12,S13,S23,Vf,SMISES
 ZONE, T="0.1680D+01" F=FEPOINT, I=   12 J=    2 ET=BRICK
   0.0000000000E+00   0.2273804462E-02   0.2273804462E-02   0.0000000000E+00   0.1178300864E-04   0.1178300864E-04   0.0000000000E+00   0.2262021453E-02   0.2262021453E-02   0.1064901636E+01   0.5030416056E-02   0.5030416056E-02   0.2340532386E-03   0.2340532386E-03   0.1893643201E-08   0.0000000000E+00   0.1059871686E+01
   0.1008897323E+01   0.1962621141E-02   0.1962621141E-02   0.5070824084E-04   0.1240978852E-04   0.1240978852E-04   0.8846615090E-02   0.1950211353E-02   0.1950211353E-02   0.1058802900E+01  -0.1385948235E-02  -0.1385948235E-02   0.2394629704E-03   0.2394629704E-03   0.1740580128E-08   0.0000000000E+00   0.1060189336E+01
   0.1008897323E+01   0.9980373789E+00   0.1962621141E-02   0.5070824084E-04  -0.1240978852E-04   0.1240978852E-04   0.8846615090E-02  -0.1950211353E-02   0.1950211353E-02   0.1058802900E+01  -0.1385948235E-02  -0.1385948235E-02  -0.2394629704E-03   0.2394629703E-03  -0.1740574397E-08   0.0000000000E+00   0.1060189336E+01
   0.0000000000E+00   0.9977261955E+00   0.2273804462E-02   0.0000000000E+00  -0.1178300864E-04   0.1178300864E-04   0.0000000000E+00  -0.2262021453E-02   0.2262021453E-02   0.1064901636E+01   0.5030416056E-02   0.5030416056E-02  -0.2340532387E-03   0.2340532386E-03  -0.1893617310E-08   0.0000000000E+00   0.1059871686E+01
   0.0000000000E+00   0.2273804462E-02   0.9977261955E+00   0.0000000000E+00   0.1178300864E-04  -0.1178300864E-04   0.0000000000E+00   0.2262021453E-02  -0.2262021453E-02   0.1064901636E+01   0.5030416056E-02   0.5030416056E-02   0.2340532386E-03  -0.2340532387E-03  -0.1893617302E-08   0.0000000000E+00   0.1059871686E+01
   0.1008897323E+01   0.1962621141E-02   0.9980373789E+00   0.5070824084E-04   0.1240978852E-04  -0.1240978852E-04   0.8846615090E-02   0.1950211353E-02  -0.1950211353E-02   0.1058802900E+01  -0.1385948235E-02  -0.1385948235E-02   0.2394629703E-03  -0.2394629704E-03  -0.1740574379E-08   0.0000000000E+00   0.1060189336E+01
   0.1008897323E+01   0.9980373789E+00   0.9980373789E+00   0.5070824084E-04  -0.1240978852E-04  -0.1240978852E-04   0.8846615090E-02  -0.1950211353E-02  -0.1950211353E-02   0.1058802900E+01  -0.1385948235E-02  -0.1385948235E-02  -0.2394629704E-03  -0.2394629704E-03   0.1740568636E-08   0.0000000000E+00   0.1060189336E+01
   0.0000000000E+00   0.9977261955E+00   0.9977261955E+00   0.0000000000E+00  -0.1178300864E-04  -0.1178300864E-04   0.0000000000E+00  -0.2262021453E-02  -0.2262021453E-02   0.1064901636E+01   0.5030416056E-02   0.5030416056E-02  -0.2340532387E-03  -0.2340532387E-03   0.1893591413E-08   0.0000000000E+00   0.1059871686E+01
   0.2016800000E+01   0.1790919440E-02   0.1790919440E-02   0.1000000000E-03   0.1304556185E-04   0.1304556185E-04   0.1670000000E-01   0.1777873879E-02   0.1777873879E-02   0.1052713423E+01  -0.7806942438E-02  -0.7806942438E-02   0.2444991877E-03   0.2444991877E-03   0.1598277451E-08   0.0000000000E+00   0.1060520873E+01
   0.2016800000E+01   0.9982090806E+00   0.1790919440E-02   0.1000000000E-03  -0.1304556185E-04   0.1304556185E-04   0.1670000000E-01  -0.1777873878E-02   0.1777873879E-02   0.1052713423E+01  -0.7806942438E-02  -0.7806942437E-02  -0.2444991879E-03   0.2444991877E-03  -0.1598297100E-08   0.0000000000E+00   0.1060520873E+01
   0.2016800000E+01   0.1790919440E-02   0.9982090806E+00   0.1000000000E-03   0.1304556185E-04  -0.1304556185E-04   0.1670000000E-01   0.1777873879E-02  -0.1777873878E-02   0.1052713423E+01  -0.7806942437E-02  -0.7806942438E-02   0.2444991877E-03  -0.2444991879E-03  -0.1598297095E-08   0.0000000000E+00   0.1060520873E+01
   0.2016800000E+01   0.9982090806E+00   0.9982090806E+00   0.1000000000E-03  -0.1304556185E-04  -0.1304556185E-04   0.1670000000E-01  -0.1777873878E-02  -0.1777873878E-02   0.1052713423E+01  -0.7806942437E-02  -0.7806942437E-02  -0.2444991879E-03  -0.2444991879E-03   0.1598316711E-08   0.0000000000E+00   0.1060520873E+01
     1     2     3     4     5     6     7     8
     2     9    10     3     6    11    12     7
 VARIABLES = X,Y,Z,DU1,DU2,DU3,U1,U2,U3,S11,S22,S33,S12,S13,S23,Vf,SMISES
 ZONE, T="0.1690D+01" F=FEPOINT, I=   12 J=    2 ET=BRICK
   0.0000000000E+00   0.2285742771E-02   0.2285742771E-02   0.0000000000E+00   0.1193830942E-04   0.1193830942E-04   0.0000000000E+00   0.2273804462E-02   0.2273804462E-02   0.1066541939E+01   0.6668099187E-02   0.6668099187E-02   0.2954984413E-03   0.2954984413E-03   0.1844256981E-08   0.0000000000E+00   0.1059874581E+01
   0.1008947860E+01   0.1974996386E-02   0.1974996386E-02   0.5053651033E-04   0.1237524492E-04   0.1237524492E-04   0.8897323331E-02   0.1962621141E-02   0.1962621141E-02   0.1058515277E+01  -0.1627531399E-02  -0.1627531399E-02   0.3013445109E-03   0.3013445109E-03   0.1700129517E-08   0.0000000000E+00   0.1060143581E+01
   0.1008947860E+01   0.9980250036E+00   0.1974996386E-02   0.5053651033E-04  -0.1237524491E-04   0.1237524492E-04   0.8897323331E-02  -0.1962621141E-02   0.1962621141E-02   0.1058515277E+01  -0.1627531399E-02  -0.1627531399E-02  -0.3013445110E-03   0.3013445109E-03  -0.1700124034E-08   0.0000000000E+00   0.1060143581E+01
   0.0000000000E+00   0.9977142572E+00   0.2285742771E-02   0.0000000000E+00  -0.1193830942E-04   0.1193830942E-04   0.0000000000E+00  -0.2273804462E-02   0.2273804462E-02   0.1066541939E+01   0.6668099187E-02   0.6668099186E-02  -0.2954984414E-03   0.2954984412E-03  -0.1844229162E-08   0.0000000000E+00   0.1059874581E+01
   0.0000000000E+00   0.2285742771E-02   0.9977142572E+00   0.0000000000E+00   0.1193830942E-04  -0.1193830942E-04   0.0000000000E+00   0.2273804462E-02  -0.2273804462E-02   0.1066541939E+01   0.6668099186E-02   0.6668099187E-02   0.2954984412E-03  -0.2954984414E-03  -0.1844229156E-08   0.0000000000E+00   0.1059874581E+01
   0.1008947860E+01   0.1974996386E-02   0.9980250036E+00   0.5053651033E-04   0.1237524492E-04  -0.1237524491E-04   0.8897323331E-02   0.1962621141E-02  -0.1962621141E-02   0.1058515277E+01  -0.1627531399E-02  -0.1627531399E-02   0.3013445109E-03  -0.3013445110E-03  -0.1700124017E-08   0.0000000000E+00   0.1060143581E+01
   0.1008947860E+01   0.9980250036E+00   0.9980250036E+00   0.5053651033E-04  -0.1237524491E-04  -0.1237524491E-04   0.8897323331E-02  -0.1962621141E-02  -0.1962621141E-02   0.1058515277E+01  -0.1627531399E-02  -0.1627531399E-02  -0.3013445110E-03  -0.3013445110E-03   0.1700118519E-08   0.0000000000E+00   0.1060143581E+01
   0.0000000000E+00   0.9977142572E+00   0.9977142572E+00   0.0000000000E+00  -0.1193830942E-04  -0.1193830942E-04   0.0000000000E+00  -0.2273804462E-02  -0.2273804462E-02   0.1066541939E+01   0.6668099186E-02   0.6668099186E-02  -0.2954984414E-03  -0.2954984414E-03   0.1844201332E-08   0.0000000000E+00   0.1059874581E+01
   0.2016900000E+01   0.1803738469E-02   0.1803738469E-02   0.1000000000E-03   0.1281902869E-04   0.1281902869E-04   0.1680000000E-01   0.1790919440E-02   0.1790919440E-02   0.1050496891E+01  -0.9927299576E-02  -0.9927299576E-02   0.3068353773E-03   0.3068353773E-03   0.1566251958E-08   0.0000000000E+00   0.1060424990E+01
   0.2016900000E+01   0.9981962615E+00   0.1803738469E-02   0.1000000000E-03  -0.1281902869E-04   0.1281902869E-04   0.1680000000E-01  -0.1790919440E-02   0.1790919440E-02   0.1050496891E+01  -0.9927299575E-02  -0.9927299575E-02  -0.3068353775E-03   0.3068353773E-03  -0.1566273103E-08   0.0000000000E+00   0.1060424990E+01
   0.2016900000E+01   0.1803738469E-02   0.9981962615E+00   0.1000000000E-03   0.1281902869E-04  -0.1281902869E-04   0.1680000000E-01   0.1790919440E-02  -0.1790919440E-02   0.1050496891E+01  -0.9927299575E-02  -0.9927299575E-02   0.3068353773E-03  -0.3068353775E-03  -0.1566273099E-08   0.0000000000E+00   0.1060424990E+01
   0.2016900000E+01   0.9981962615E+00   0.9981962615E+00   0.1000000000E-03  -0.1281902869E-04  -0.1281902869E-04   0.1680000000E-01  -0.1790919440E-02  -0.1790919440E-02   0.1050496891E+01  -0.9927299575E-02  -0.9927299575E-02  -0.3068353775E-03  -0.3068353775E-03   0.1566294207E-08   0.0000000000E+00   0.1060424990E+01
     1     2     3     4     5     6     7     8
     2     9    10     3     6    11    12     7
 VARIABLES = X,Y,Z,DU1,DU2,DU3,U1,U2,U3,S11,S22,S33,S12,S13,S23,Vf,SMISES
 ZONE, T="0.1700D+01" F=FEPOINT, I=   12 J=    2 ET=BRICK
   0.0000000000E+00   0.2297857390E-02   0.2297857390E-02   0.0000000000E+00   0.1211461858E-04   0.1211461858E-04   0.0000000000E+00   0.2285742771E-02   0.2285742771E-02   0.1067777276E+01   0.7895879335E-02   0.7895879335E-02   0.3314250144E-03   0.3314250144E-03   0.1791665485E-08   0.0000000000E+00   0.1059882330E+01
   0.1008998203E+01   0.1987336457E-02   0.1987336457E-02   0.5034304996E-04   0.1234007064E-04   0.1234007064E-04   0.8947859842E-02   0.1974996386E-02   0.1974996386E-02   0.1058351570E+01  -0.1729298291E-02  -0.1729298291E-02   0.3375621789E-03   0.3375621789E-03   0.1655849584E-08   0.0000000000E+00   0.1060081837E+01
   0.1008998203E+01   0.9980126635E+00   0.1987336457E-02   0.5034304996E-04  -0.1234007064E-04   0.1234007064E-04   0.8947859842E-02  -0.1974996386E-02   0.1974996386E-02   0.1058351570E+01  -0.1729298291E-02  -0.1729298291E-02  -0.3375621790E-03   0.3375621789E-03  -0.1655844061E-08   0.0000000000E+00   0.1060081837E+01
   0.0000000000E+00   0.9977021426E+00   0.2297857390E-02   0.0000000000E+00  -0.1211461858E-04   0.1211461858E-04   0.0000000000E+00  -0.2285742771E-02   0.2285742771E-02   0.1067777276E+01   0.7895879335E-02   0.7895879335E-02  -0.3314250145E-03   0.3314250143E-03  -0.1791636912E-08   0.0000000000E+00   0.1059882330E+01
   0.0000000000E+00   0.2297857390E-02   0.9977021426E+00   0.0000000000E+00   0.1211461858E-04  -0.1211461858E-04   0.0000000000E+00   0.2285742771E-02  -0.2285742771E-02   0.1067777276E+01   0.7895879335E-02   0.7895879335E-02   0.3314250143E-03  -0.3314250145E-03  -0.1791636907E-08   0.0000000000E+00   0.1059882330E+01
   0.1008998203E+01   0.1987336457E-02   0.9980126635E+00   0.5034304996E-04   0.1234007064E-04  -0.1234007064E-04   0.8947859842E-02   0.1974996386E-02  -0.1974996386E-02   0.1058351570E+01  -0.1729298291E-02  -0.1729298291E-02   0.3375621789E-03  -0.3375621790E-03  -0.1655844045E-08   0.0000000000E+00   0.1060081837E+01
   0.1008998203E+01   0.9980126635E+00   0.9980126635E+00   0.5034304996E-04  -0.1234007064E-04  -0.1234007064E-04   0.8947859842E-02  -0.1974996386E-02  -0.1974996386E-02   0.1058351570E+01  -0.1729298290E-02  -0.1729298290E-02  -0.3375621789E-03  -0.3375621789E-03   0.1655838505E-08   0.0000000000E+00   0.1060081837E+01
   0.0000000000E+00   0.9977021426E+00   0.9977021426E+00   0.0000000000E+00  -0.1211461858E-04  -0.1211461858E-04   0.0000000000E+00  -0.2285742771E-02  -0.2285742771E-02   0.1067777276E+01   0.7895879334E-02   0.7895879334E-02  -0.3314250145E-03  -0.3314250145E-03   0.1791608319E-08   0.0000000000E+00   0.1059882330E+01
   0.2017000000E+01   0.1816308685E-02   0.1816308685E-02   0.1000000000E-03   0.1257021628E-04   0.1257021628E-04   0.1690000000E-01   0.1803738469E-02   0.1803738469E-02   0.1048933152E+01  -0.1135812001E-01  -0.1135812001E-01   0.3433601012E-03   0.3433601012E-03   0.1529805551E-08   0.0000000000E+00   0.1060292273E+01
   0.2017000000E+01   0.9981836913E+00   0.1816308685E-02   0.1000000000E-03  -0.1257021628E-04   0.1257021628E-04   0.1690000000E-01  -0.1803738469E-02   0.1803738469E-02   0.1048933152E+01  -0.1135812001E-01  -0.1135812001E-01  -0.3433601014E-03   0.3433601012E-03  -0.1529826467E-08   0.0000000000E+00   0.1060292273E+01
   0.2017000000E+01   0.1816308685E-02   0.9981836913E+00   0.1000000000E-03   0.1257021628E-04  -0.1257021628E-04   0.1690000000E-01   0.1803738469E-02  -0.1803738469E-02   0.1048933152E+01  -0.1135812001E-01  -0.1135812001E-01   0.3433601012E-03  -0.3433601014E-03  -0.1529826464E-08   0.0000000000E+00   0.1060292273E+01
   0.2017000000E+01   0.9981836913E+00   0.9981836913E+00   0.1000000000E-03  -0.1257021628E-04  -0.1257021628E-04   0.1690000000E-01  -0.1803738469E-02  -0.1803738469E-02   0.1048933152E+01  -0.1135812001E-01  -0.1135812001E-01  -0.3433601014E-03  -0.3433601014E-03   0.1529847342E-08   0.0000000000E+00   0.1060292273E+01
     1     2     3     4     5     6     7     8
     2     9    10     3     6    11    12     7
 VARIABLES = X,Y,Z,DU1,DU2,DU3,U1,U2,U3,S11,S22,S33,S12,S13,S23,Vf,SMISES
 ZONE, T="0.1710D+01" F=FEPOINT, I=   12 J=    2 ET=BRICK
   0.0000000000E+00   0.2310158694E-02   0.2310158694E-02   0.0000000000E+00   0.1230130446E-04   0.1230130446E-04   0.0000000000E+00   0.2297857390E-02   0.2297857390E-02   0.1068547134E+01   0.8652168937E-02   0.8652168937E-02   0.3405545124E-03   0.3405545124E-03   0.1724534203E-08   0.0000000000E+00   0.1059895950E+01
   0.1009048343E+01   0.1999643543E-02   0.1999643543E-02   0.5014050105E-04   0.1230708639E-04   0.1230708639E-04   0.8998202891E-02   0.1987336457E-02   0.1987336457E-02   0.1058317958E+01  -0.1690577904E-02  -0.1690577904E-02   0.3468508904E-03   0.3468508904E-03   0.1596267724E-08   0.0000000000E+00   0.1060009559E+01
   0.1009048343E+01   0.9980003565E+00   0.1999643543E-02   0.5014050105E-04  -0.1230708639E-04   0.1230708639E-04   0.8998202891E-02  -0.1987336457E-02   0.1987336457E-02   0.1058317958E+01  -0.1690577904E-02  -0.1690577904E-02  -0.3468508904E-03   0.3468508904E-03  -0.1596261887E-08   0.0000000000E+00   0.1060009559E+01
   0.0000000000E+00   0.9976898413E+00   0.2310158694E-02   0.0000000000E+00  -0.1230130446E-04   0.1230130446E-04   0.0000000000E+00  -0.2297857390E-02   0.2297857390E-02   0.1068547134E+01   0.8652168936E-02   0.8652168936E-02  -0.3405545125E-03   0.3405545123E-03  -0.1724506121E-08   0.0000000000E+00   0.1059895950E+01
   0.0000000000E+00   0.2310158694E-02   0.9976898413E+00   0.0000000000E+00   0.1230130446E-04  -0.1230130446E-04   0.0000000000E+00   0.2297857390E-02  -0.2297857390E-02   0.1068547134E+01   0.8652168936E-02   0.8652168936E-02   0.3405545123E-03  -0.3405545125E-03  -0.1724506117E-08   0.0000000000E+00   0.1059895950E+01
   0.1009048343E+01   0.1999643543E-02   0.9980003565E+00   0.5014050105E-04   0.1230708639E-04  -0.1230708639E-04   0.8998202891E-02   0.1987336457E-02  -0.1987336457E-02   0.1058317958E+01  -0.1690577904E-02  -0.1690577904E-02   0.3468508904E-03  -0.3468508904E-03  -0.1596261873E-08   0.0000000000E+00   0.1060009559E+01
   0.1009048343E+01   0.9980003565E+00   0.9980003565E+00   0.5014050105E-04  -0.1230708639E-04  -0.1230708639E-04   0.8998202891E-02  -0.1987336457E-02  -0.1987336457E-02   0.1058317958E+01  -0.1690577904E-02  -0.1690577904E-02  -0.3468508904E-03  -0.3468508904E-03   0.1596256013E-08   0.0000000000E+00   0.1060009559E+01
   0.0000000000E+00   0.9976898413E+00   0.9976898413E+00   0.0000000000E+00  -0.1230130446E-04  -0.1230130446E-04   0.0000000000E+00  -0.2297857390E-02  -0.2297857390E-02   0.1068547134E+01   0.8652168936E-02   0.8652168936E-02  -0.3405545125E-03  -0.3405545125E-03   0.1724478009E-08   0.0000000000E+00   0.1059895950E+01
   0.2017100000E+01   0.1828624099E-02   0.1828624099E-02   0.1000000000E-03   0.1231541378E-04   0.1231541378E-04   0.1700000000E-01   0.1816308685E-02   0.1816308685E-02   0.1048095062E+01  -0.1203646480E-01  -0.1203646480E-01   0.3528220393E-03   0.3528220393E-03   0.1477322021E-08   0.0000000000E+00   0.1060132584E+01
   0.2017100000E+01   0.9981713759E+00   0.1828624099E-02   0.1000000000E-03  -0.1231541378E-04   0.1231541378E-04   0.1700000000E-01  -0.1816308685E-02   0.1816308685E-02   0.1048095062E+01  -0.1203646480E-01  -0.1203646480E-01  -0.3528220394E-03   0.3528220393E-03  -0.1477340941E-08   0.0000000000E+00   0.1060132584E+01
   0.2017100000E+01   0.1828624099E-02   0.9981713759E+00   0.1000000000E-03   0.1231541378E-04  -0.1231541378E-04   0.1700000000E-01   0.1816308685E-02  -0.1816308685E-02   0.1048095062E+01  -0.1203646480E-01  -0.1203646480E-01   0.3528220393E-03  -0.3528220394E-03  -0.1477340939E-08   0.0000000000E+00   0.1060132584E+01
   0.2017100000E+01   0.9981713759E+00   0.9981713759E+00   0.1000000000E-03  -0.1231541378E-04  -0.1231541378E-04   0.1700000000E-01  -0.1816308685E-02  -0.1816308685E-02   0.1048095062E+01  -0.1203646480E-01  -0.1203646480E-01  -0.3528220394E-03  -0.3528220394E-03   0.1477359816E-08   0.0000000000E+00   0.1060132584E+01
     1     2     3     4     5     6     7     8
     2     9    10     3     6    11    12     7
 VARIABLES = X,Y,Z,DU1,DU2,DU3,U1,U2,U3,S11,S22,S33,S12,S13,S23,Vf,SMISES
 ZONE, T="0.1720D+01" F=FEPOINT, I=   12 J=    2 ET=BRICK
   0.0000000000E+00   0.2322646053E-02   0.2322646053E-02   0.0000000000E+00   0.1248735833E-04   0.1248735833E-04   0.0000000000E+00   0.2310158694E-02   0.2310158694E-02   0.1068818435E+01   0.8903154524E-02   0.8903154524E-02   0.3232628754E-03   0.3232628754E-03   0.1637892826E-08   0.0000000000E+00   0.1059916168E+01
   0.1009098285E+01   0.2011922330E-02   0.2011922330E-02   0.4994162727E-04   0.1227878641E-04   0.1227878641E-04   0.9048343393E-02   0.1999643543E-02   0.1999643543E-02   0.1058409842E+01  -0.1521995929E-02  -0.1521995929E-02   0.3295963857E-03   0.3295963857E-03   0.1516350519E-08   0.0000000000E+00   0.1059932761E+01
   0.1009098285E+01   0.9979880777E+00   0.2011922330E-02   0.4994162727E-04  -0.1227878641E-04   0.1227878641E-04   0.9048343393E-02  -0.1999643543E-02   0.1999643543E-02   0.1058409841E+01  -0.1521995929E-02  -0.1521995929E-02  -0.3295963857E-03   0.3295963857E-03  -0.1516344133E-08   0.0000000000E+00   0.1059932761E+01
   0.0000000000E+00   0.9976773539E+00   0.2322646053E-02   0.0000000000E+00  -0.1248735833E-04   0.1248735833E-04   0.0000000000E+00  -0.2310158694E-02   0.2310158694E-02   0.1068818435E+01   0.8903154524E-02   0.8903154524E-02  -0.3232628755E-03   0.3232628754E-03  -0.1637866482E-08   0.0000000000E+00   0.1059916168E+01
   0.0000000000E+00   0.2322646053E-02   0.9976773539E+00   0.0000000000E+00   0.1248735833E-04  -0.1248735833E-04   0.0000000000E+00   0.2310158694E-02  -0.2310158694E-02   0.1068818435E+01   0.8903154524E-02   0.8903154524E-02   0.3232628754E-03  -0.3232628755E-03  -0.1637866480E-08   0.0000000000E+00   0.1059916168E+01
   0.1009098285E+01   0.2011922330E-02   0.9979880777E+00   0.4994162727E-04   0.1227878641E-04  -0.1227878641E-04   0.9048343393E-02   0.1999643543E-02  -0.1999643543E-02   0.1058409841E+01  -0.1521995929E-02  -0.1521995929E-02   0.3295963857E-03  -0.3295963857E-03  -0.1516344121E-08   0.0000000000E+00   0.1059932761E+01
   0.1009098285E+01   0.9979880777E+00   0.9979880777E+00   0.4994162727E-04  -0.1227878641E-04  -0.1227878641E-04   0.9048343393E-02  -0.1999643543E-02  -0.1999643543E-02   0.1058409841E+01  -0.1521995929E-02  -0.1521995929E-02  -0.3295963857E-03  -0.3295963857E-03   0.1516337707E-08   0.0000000000E+00   0.1059932761E+01
   0.0000000000E+00   0.9976773539E+00   0.9976773539E+00   0.0000000000E+00  -0.1248735833E-04  -0.1248735833E-04   0.0000000000E+00  -0.2310158694E-02  -0.2310158694E-02   0.1068818435E+01   0.8903154523E-02   0.8903154523E-02  -0.3232628755E-03  -0.3232628755E-03   0.1637840100E-08   0.0000000000E+00   0.1059916167E+01
   0.2017200000E+01   0.1840694733E-02   0.1840694733E-02   0.1000000000E-03   0.1207063413E-04   0.1207063413E-04   0.1710000000E-01   0.1828624099E-02   0.1828624099E-02   0.1048006480E+01  -0.1194976235E-01  -0.1194976235E-01   0.3356170849E-03   0.3356170849E-03   0.1403700736E-08   0.0000000000E+00   0.1059957199E+01
   0.2017200000E+01   0.9981593053E+00   0.1840694733E-02   0.1000000000E-03  -0.1207063413E-04   0.1207063413E-04   0.1710000000E-01  -0.1828624099E-02   0.1828624099E-02   0.1048006480E+01  -0.1194976235E-01  -0.1194976235E-01  -0.3356170850E-03   0.3356170849E-03  -0.1403715972E-08   0.0000000000E+00   0.1059957199E+01
   0.2017200000E+01   0.1840694733E-02   0.9981593053E+00   0.1000000000E-03   0.1207063413E-04  -0.1207063413E-04   0.1710000000E-01   0.1828624099E-02  -0.1828624099E-02   0.1048006480E+01  -0.1194976235E-01  -0.1194976235E-01   0.3356170849E-03  -0.3356170850E-03  -0.1403715971E-08   0.0000000000E+00   0.1059957199E+01
   0.2017200000E+01   0.9981593053E+00   0.9981593053E+00   0.1000000000E-03  -0.1207063413E-04  -0.1207063413E-04   0.1710000000E-01  -0.1828624099E-02  -0.1828624099E-02   0.1048006480E+01  -0.1194976234E-01  -0.1194976234E-01  -0.3356170850E-03  -0.3356170850E-03   0.1403731159E-08   0.0000000000E+00   0.1059957199E+01
     1     2     3     4     5     6     7     8
     2     9    10     3     6    11    12     7
 VARIABLES = X,Y,Z,DU1,DU2,DU3,U1,U2,U3,S11,S22,S33,S12,S13,S23,Vf,SMISES
 ZONE, T="0.1730D+01" F=FEPOINT, I=   12 J=    2 ET=BRICK
   0.0000000000E+00   0.2335308082E-02   0.2335308082E-02   0.0000000000E+00   0.1266202970E-04   0.1266202970E-04   0.0000000000E+00   0.2322646053E-02   0.2322646053E-02   0.1068586929E+01   0.8644354965E-02   0.8644354965E-02   0.2815037927E-03   0.2815037927E-03   0.1533837566E-08   0.0000000000E+00   0.1059943247E+01
   0.1009148044E+01   0.2024179485E-02   0.2024179485E-02   0.4975853918E-04   0.1225715560E-04   0.1225715560E-04   0.9098285020E-02   0.2011922330E-02   0.2011922330E-02   0.1058612786E+01  -0.1244021482E-02  -0.1244021482E-02   0.2877579883E-03   0.2877579883E-03   0.1418207071E-08   0.0000000000E+00   0.1059857512E+01
   0.1009148044E+01   0.9979758205E+00   0.2024179485E-02   0.4975853918E-04  -0.1225715560E-04   0.1225715560E-04   0.9098285020E-02  -0.2011922330E-02   0.2011922330E-02   0.1058612786E+01  -0.1244021482E-02  -0.1244021482E-02  -0.2877579884E-03   0.2877579883E-03  -0.1418199963E-08   0.0000000000E+00   0.1059857512E+01
   0.0000000000E+00   0.9976646919E+00   0.2335308082E-02   0.0000000000E+00  -0.1266202970E-04   0.1266202970E-04   0.0000000000E+00  -0.2322646053E-02   0.2322646053E-02   0.1068586929E+01   0.8644354965E-02   0.8644354965E-02  -0.2815037928E-03   0.2815037927E-03  -0.1533814142E-08   0.0000000000E+00   0.1059943247E+01
   0.0000000000E+00   0.2335308082E-02   0.9976646919E+00   0.0000000000E+00   0.1266202970E-04  -0.1266202970E-04   0.0000000000E+00   0.2322646053E-02  -0.2322646053E-02   0.1068586929E+01   0.8644354965E-02   0.8644354965E-02   0.2815037927E-03  -0.2815037928E-03  -0.1533814141E-08   0.0000000000E+00   0.1059943247E+01
   0.1009148044E+01   0.2024179485E-02   0.9979758205E+00   0.4975853918E-04   0.1225715560E-04  -0.1225715560E-04   0.9098285020E-02   0.2011922330E-02  -0.2011922330E-02   0.1058612786E+01  -0.1244021482E-02  -0.1244021482E-02   0.2877579883E-03  -0.2877579884E-03  -0.1418199951E-08   0.0000000000E+00   0.1059857512E+01
   0.1009148044E+01   0.9979758205E+00   0.9979758205E+00   0.4975853918E-04  -0.1225715560E-04  -0.1225715560E-04   0.9098285020E-02  -0.2011922330E-02  -0.2011922330E-02   0.1058612786E+01  -0.1244021482E-02  -0.1244021482E-02  -0.2877579883E-03  -0.2877579883E-03   0.1418192812E-08   0.0000000000E+00   0.1059857512E+01
   0.0000000000E+00   0.9976646919E+00   0.9976646919E+00   0.0000000000E+00  -0.1266202970E-04  -0.1266202970E-04   0.0000000000E+00  -0.2322646053E-02  -0.2322646053E-02   0.1068586929E+01   0.8644354965E-02   0.8644354965E-02  -0.2815037928E-03  -0.2815037928E-03   0.1533790672E-08   0.0000000000E+00   0.1059943247E+01
   0.2017300000E+01   0.1852545346E-02   0.1852545346E-02   0.1000000000E-03   0.1185061276E-04   0.1185061276E-04   0.1720000000E-01   0.1840694733E-02   0.1840694733E-02   0.1048642774E+01  -0.1113446275E-01  -0.1113446275E-01   0.2937104805E-03   0.2937104805E-03   0.1311060762E-08   0.0000000000E+00   0.1059777969E+01
   0.2017300000E+01   0.9981474547E+00   0.1852545346E-02   0.1000000000E-03  -0.1185061276E-04   0.1185061276E-04   0.1720000000E-01  -0.1840694733E-02   0.1840694733E-02   0.1048642774E+01  -0.1113446275E-01  -0.1113446275E-01  -0.2937104806E-03   0.2937104805E-03  -0.1311070818E-08   0.0000000000E+00   0.1059777969E+01
   0.2017300000E+01   0.1852545346E-02   0.9981474547E+00   0.1000000000E-03   0.1185061276E-04  -0.1185061276E-04   0.1720000000E-01   0.1840694733E-02  -0.1840694733E-02   0.1048642774E+01  -0.1113446275E-01  -0.1113446275E-01   0.2937104805E-03  -0.2937104806E-03  -0.1311070819E-08   0.0000000000E+00   0.1059777969E+01
   0.2017300000E+01   0.9981474547E+00   0.9981474547E+00   0.1000000000E-03  -0.1185061276E-04  -0.1185061276E-04   0.1720000000E-01  -0.1840694733E-02  -0.1840694733E-02   0.1048642774E+01  -0.1113446275E-01  -0.1113446275E-01  -0.2937104806E-03  -0.2937104806E-03   0.1311080823E-08   0.0000000000E+00   0.1059777969E+01
     1     2     3     4     5     6     7     8
     2     9    10     3     6    11    12     7
 VARIABLES = X,Y,Z,DU1,DU2,DU3,U1,U2,U3,S11,S22,S33,S12,S13,S23,Vf,SMISES
 ZONE, T="0.1740D+01" F=FEPOINT, I=   12 J=    2 ET=BRICK
   0.0000000000E+00   0.2348123521E-02   0.2348123521E-02   0.0000000000E+00   0.1281543857E-04   0.1281543857E-04   0.0000000000E+00   0.2335308082E-02   0.2335308082E-02   0.1067876980E+01   0.7900518776E-02   0.7900518776E-02   0.2186391405E-03   0.2186391405E-03   0.1420471388E-08   0.0000000000E+00   0.1059976868E+01
   0.1009197646E+01   0.2036423022E-02   0.2036423022E-02   0.4960198404E-04   0.1224353717E-04   0.1224353717E-04   0.9148043559E-02   0.2024179485E-02   0.2024179485E-02   0.1058904213E+01  -0.8848029007E-03  -0.8848029007E-03   0.2246996488E-03   0.2246996488E-03   0.1310023165E-08   0.0000000000E+00   0.1059789446E+01
   0.1009197646E+01   0.9979635770E+00   0.2036423022E-02   0.4960198404E-04  -0.1224353717E-04   0.1224353717E-04   0.9148043559E-02  -0.2024179485E-02   0.2024179485E-02   0.1058904213E+01  -0.8848029007E-03  -0.8848029007E-03  -0.2246996488E-03   0.2246996488E-03  -0.1310015240E-08   0.0000000000E+00   0.1059789446E+01
   0.0000000000E+00   0.9976518765E+00   0.2348123521E-02   0.0000000000E+00  -0.1281543856E-04   0.1281543857E-04   0.0000000000E+00  -0.2335308082E-02   0.2335308082E-02   0.1067876980E+01   0.7900518776E-02   0.7900518776E-02  -0.2186391406E-03   0.2186391405E-03  -0.1420451935E-08   0.0000000000E+00   0.1059976867E+01
   0.0000000000E+00   0.2348123521E-02   0.9976518765E+00   0.0000000000E+00   0.1281543857E-04  -0.1281543856E-04   0.0000000000E+00   0.2335308082E-02  -0.2335308082E-02   0.1067876980E+01   0.7900518776E-02   0.7900518776E-02   0.2186391405E-03  -0.2186391406E-03  -0.1420451934E-08   0.0000000000E+00   0.1059976867E+01
   0.1009197646E+01   0.2036423022E-02   0.9979635770E+00   0.4960198404E-04   0.1224353717E-04  -0.1224353717E-04   0.9148043559E-02   0.2024179485E-02  -0.2024179485E-02   0.1058904213E+01  -0.8848029007E-03  -0.8848029007E-03   0.2246996488E-03  -0.2246996488E-03  -0.1310015230E-08   0.0000000000E+00   0.1059789446E+01
   0.1009197646E+01   0.9979635770E+00   0.9979635770E+00   0.4960198404E-04  -0.1224353717E-04  -0.1224353717E-04   0.9148043559E-02  -0.2024179485E-02  -0.2024179485E-02   0.1058904213E+01  -0.8848029006E-03  -0.8848029006E-03  -0.2246996488E-03  -0.2246996488E-03   0.1310007274E-08   0.0000000000E+00   0.1059789446E+01
   0.0000000000E+00   0.9976518765E+00   0.9976518765E+00   0.0000000000E+00  -0.1281543856E-04  -0.1281543856E-04   0.0000000000E+00  -0.2335308082E-02  -0.2335308082E-02   0.1067876980E+01   0.7900518776E-02   0.7900518776E-02  -0.2186391406E-03  -0.2186391406E-03   0.1420432431E-08   0.0000000000E+00   0.1059976867E+01
   0.2017400000E+01   0.1864213276E-02   0.1864213276E-02   0.1000000000E-03   0.1166793023E-04   0.1166793023E-04   0.1730000000E-01   0.1852545346E-02   0.1852545346E-02   0.1049934415E+01  -0.9671608882E-02  -0.9671608882E-02   0.2304684621E-03   0.2304684621E-03   0.1207668707E-08   0.0000000000E+00   0.1059606475E+01
   0.2017400000E+01   0.9981357867E+00   0.1864213276E-02   0.1000000000E-03  -0.1166793022E-04   0.1166793023E-04   0.1730000000E-01  -0.1852545346E-02   0.1852545346E-02   0.1049934415E+01  -0.9671608882E-02  -0.9671608882E-02  -0.2304684623E-03   0.2304684621E-03  -0.1207672376E-08   0.0000000000E+00   0.1059606475E+01
   0.2017400000E+01   0.1864213276E-02   0.9981357867E+00   0.1000000000E-03   0.1166793023E-04  -0.1166793022E-04   0.1730000000E-01   0.1852545346E-02  -0.1852545346E-02   0.1049934415E+01  -0.9671608882E-02  -0.9671608882E-02   0.2304684621E-03  -0.2304684623E-03  -0.1207672379E-08   0.0000000000E+00   0.1059606475E+01
   0.2017400000E+01   0.9981357867E+00   0.9981357867E+00   0.1000000000E-03  -0.1166793022E-04  -0.1166793022E-04   0.1730000000E-01  -0.1852545346E-02  -0.1852545346E-02   0.1049934415E+01  -0.9671608882E-02  -0.9671608882E-02  -0.2304684623E-03  -0.2304684623E-03   0.1207675997E-08   0.0000000000E+00   0.1059606475E+01
     1     2     3     4     5     6     7     8
     2     9    10     3     6    11    12     7
 VARIABLES = X,Y,Z,DU1,DU2,DU3,U1,U2,U3,S11,S22,S33,S12,S13,S23,Vf,SMISES
 ZONE, T="0.1750D+01" F=FEPOINT, I=   12 J=    2 ET=BRICK
   0.0000000000E+00   0.2361062651E-02   0.2361062651E-02   0.0000000000E+00   0.1293913011E-04   0.1293913011E-04   0.0000000000E+00   0.2348123521E-02   0.2348123521E-02   0.1066739757E+01   0.6723865328E-02   0.6723865328E-02   0.1391896833E-03   0.1391896833E-03   0.1309450568E-08   0.0000000000E+00   0.1060016056E+01
   0.1009247126E+01   0.2048661581E-02   0.2048661581E-02   0.4948074178E-04   0.1223855891E-04   0.1223855891E-04   0.9197645543E-02   0.2036423022E-02   0.2036423022E-02   0.1059255649E+01  -0.4775030562E-03  -0.4775030562E-03   0.1449422384E-03   0.1449422384E-03   0.1203595750E-08   0.0000000000E+00   0.1059733331E+01
   0.1009247126E+01   0.9979513384E+00   0.2048661581E-02   0.4948074178E-04  -0.1223855891E-04   0.1223855891E-04   0.9197645543E-02  -0.2036423022E-02   0.2036423022E-02   0.1059255649E+01  -0.4775030561E-03  -0.4775030562E-03  -0.1449422384E-03   0.1449422384E-03  -0.1203587003E-08   0.0000000000E+00   0.1059733331E+01
   0.0000000000E+00   0.9976389373E+00   0.2361062651E-02   0.0000000000E+00  -0.1293913011E-04   0.1293913011E-04   0.0000000000E+00  -0.2348123521E-02   0.2348123521E-02   0.1066739757E+01   0.6723865327E-02   0.6723865327E-02  -0.1391896834E-03   0.1391896833E-03  -0.1309435951E-08   0.0000000000E+00   0.1060016056E+01
   0.0000000000E+00   0.2361062651E-02   0.9976389373E+00   0.0000000000E+00   0.1293913011E-04  -0.1293913011E-04   0.0000000000E+00   0.2348123521E-02  -0.2348123521E-02   0.1066739757E+01   0.6723865327E-02   0.6723865327E-02   0.1391896833E-03  -0.1391896834E-03  -0.1309435950E-08   0.0000000000E+00   0.1060016056E+01
   0.1009247126E+01   0.2048661581E-02   0.9979513384E+00   0.4948074178E-04   0.1223855891E-04  -0.1223855891E-04   0.9197645543E-02   0.2036423022E-02  -0.2036423022E-02   0.1059255649E+01  -0.4775030562E-03  -0.4775030561E-03   0.1449422384E-03  -0.1449422384E-03  -0.1203586994E-08   0.0000000000E+00   0.1059733331E+01
   0.1009247126E+01   0.9979513384E+00   0.9979513384E+00   0.4948074178E-04  -0.1223855891E-04  -0.1223855891E-04   0.9197645543E-02  -0.2036423022E-02  -0.2036423022E-02   0.1059255649E+01  -0.4775030561E-03  -0.4775030561E-03  -0.1449422384E-03  -0.1449422384E-03   0.1203578217E-08   0.0000000000E+00   0.1059733331E+01
   0.0000000000E+00   0.9976389373E+00   0.9976389373E+00   0.0000000000E+00  -0.1293913011E-04  -0.1293913011E-04   0.0000000000E+00  -0.2348123521E-02  -0.2348123521E-02   0.1066739757E+01   0.6723865327E-02   0.6723865327E-02  -0.1391896834E-03  -0.1391896834E-03   0.1309421275E-08   0.0000000000E+00   0.1060016056E+01
   0.2017500000E+01   0.1875745586E-02   0.1875745586E-02   0.1000000000E-03   0.1153230957E-04   0.1153230957E-04   0.1740000000E-01   0.1864213276E-02   0.1864213276E-02   0.1051773296E+01  -0.7679749324E-02  -0.7679749324E-02   0.1504121517E-03   0.1504121517E-03   0.1105460892E-08   0.0000000000E+00   0.1059453238E+01
   0.2017500000E+01   0.9981242544E+00   0.1875745586E-02   0.1000000000E-03  -0.1153230957E-04   0.1153230957E-04   0.1740000000E-01  -0.1864213276E-02   0.1864213276E-02   0.1051773296E+01  -0.7679749323E-02  -0.7679749323E-02  -0.1504121519E-03   0.1504121517E-03  -0.1105457335E-08   0.0000000000E+00   0.1059453238E+01
   0.2017500000E+01   0.1875745586E-02   0.9981242544E+00   0.1000000000E-03   0.1153230957E-04  -0.1153230957E-04   0.1740000000E-01   0.1864213276E-02  -0.1864213276E-02   0.1051773296E+01  -0.7679749323E-02  -0.7679749323E-02   0.1504121517E-03  -0.1504121519E-03  -0.1105457340E-08   0.0000000000E+00   0.1059453238E+01
   0.2017500000E+01   0.9981242544E+00   0.9981242544E+00   0.1000000000E-03  -0.1153230957E-04  -0.1153230957E-04   0.1740000000E-01  -0.1864213276E-02  -0.1864213276E-02   0.1051773296E+01  -0.7679749323E-02  -0.7679749323E-02  -0.1504121519E-03  -0.1504121519E-03   0.1105453733E-08   0.0000000000E+00   0.1059453238E+01
     1     2     3     4     5     6     7     8
     2     9    10     3     6    11    12     7
 VARIABLES = X,Y,Z,DU1,DU2,DU3,U1,U2,U3,S11,S22,S33,S12,S13,S23,Vf,SMISES
 ZONE, T="0.1760D+01" F=FEPOINT, I=   12 J=    2 ET=BRICK
   0.0000000000E+00   0.2374089191E-02   0.2374089191E-02   0.0000000000E+00   0.1302654047E-04   0.1302654047E-04   0.0000000000E+00   0.2361062651E-02   0.2361062651E-02   0.1065249933E+01   0.5190769283E-02   0.5190769283E-02   0.4852365321E-04   0.4852365321E-04   0.1212811315E-08   0.0000000000E+00   0.1060059184E+01
   0.1009296527E+01   0.2060903702E-02   0.2060903702E-02   0.4940115995E-04   0.1224212066E-04   0.1224212066E-04   0.9247126285E-02   0.2048661581E-02   0.2048661581E-02   0.1059635329E+01  -0.5737366723E-04  -0.5737366723E-04   0.5385425891E-04   0.5385425891E-04   0.1111141646E-08   0.0000000000E+00   0.1059692728E+01
   0.1009296527E+01   0.9979390963E+00   0.2060903702E-02   0.4940115995E-04  -0.1224212066E-04   0.1224212066E-04   0.9247126285E-02  -0.2048661581E-02   0.2048661581E-02   0.1059635329E+01  -0.5737366722E-04  -0.5737366724E-04  -0.5385425896E-04   0.5385425891E-04  -0.1111132163E-08   0.0000000000E+00   0.1059692728E+01
   0.0000000000E+00   0.9976259108E+00   0.2374089191E-02   0.0000000000E+00  -0.1302654047E-04   0.1302654047E-04   0.0000000000E+00  -0.2361062651E-02   0.2361062651E-02   0.1065249933E+01   0.5190769283E-02   0.5190769283E-02  -0.4852365333E-04   0.4852365321E-04  -0.1212802162E-08   0.0000000000E+00   0.1060059184E+01
   0.0000000000E+00   0.2374089191E-02   0.9976259108E+00   0.0000000000E+00   0.1302654047E-04  -0.1302654047E-04   0.0000000000E+00   0.2361062651E-02  -0.2361062651E-02   0.1065249933E+01   0.5190769283E-02   0.5190769283E-02   0.4852365321E-04  -0.4852365333E-04  -0.1212802163E-08   0.0000000000E+00   0.1060059184E+01
   0.1009296527E+01   0.2060903702E-02   0.9979390963E+00   0.4940115995E-04   0.1224212066E-04  -0.1224212066E-04   0.9247126285E-02   0.2048661581E-02  -0.2048661581E-02   0.1059635329E+01  -0.5737366724E-04  -0.5737366722E-04   0.5385425891E-04  -0.5385425896E-04  -0.1111132154E-08   0.0000000000E+00   0.1059692728E+01
   0.1009296527E+01   0.9979390963E+00   0.9979390963E+00   0.4940115995E-04  -0.1224212066E-04  -0.1224212066E-04   0.9247126285E-02  -0.2048661581E-02  -0.2048661581E-02   0.1059635329E+01  -0.5737366722E-04  -0.5737366722E-04  -0.5385425896E-04  -0.5385425896E-04   0.1111122641E-08   0.0000000000E+00   0.1059692728E+01
   0.0000000000E+00   0.9976259108E+00   0.9976259108E+00   0.0000000000E+00  -0.1302654047E-04  -0.1302654047E-04   0.0000000000E+00  -0.2361062651E-02  -0.2361062651E-02   0.1065249933E+01   0.5190769283E-02   0.5190769283E-02  -0.4852365333E-04  -0.4852365333E-04   0.1212792945E-08   0.0000000000E+00   0.1060059184E+01
   0.2017600000E+01   0.1887195711E-02   0.1887195711E-02   0.1000000000E-03   0.1145012522E-04   0.1145012522E-04   0.1750000000E-01   0.1875745586E-02   0.1875745586E-02   0.1054021234E+01  -0.5305771365E-02  -0.5305771365E-02   0.5891041303E-04   0.5891041303E-04   0.1016833968E-08   0.0000000000E+00   0.1059327035E+01
   0.2017600000E+01   0.9981128043E+00   0.1887195711E-02   0.1000000000E-03  -0.1145012522E-04   0.1145012522E-04   0.1750000000E-01  -0.1875745586E-02   0.1875745586E-02   0.1054021234E+01  -0.5305771365E-02  -0.5305771365E-02  -0.5891041319E-04   0.5891041303E-04  -0.1016822761E-08   0.0000000000E+00   0.1059327035E+01
   0.2017600000E+01   0.1887195711E-02   0.9981128043E+00   0.1000000000E-03   0.1145012522E-04  -0.1145012522E-04   0.1750000000E-01   0.1875745586E-02  -0.1875745586E-02   0.1054021234E+01  -0.5305771365E-02  -0.5305771365E-02   0.5891041303E-04  -0.5891041319E-04  -0.1016822766E-08   0.0000000000E+00   0.1059327035E+01
   0.2017600000E+01   0.9981128043E+00   0.9981128043E+00   0.1000000000E-03  -0.1145012522E-04  -0.1145012522E-04   0.1750000000E-01  -0.1875745586E-02  -0.1875745586E-02   0.1054021234E+01  -0.5305771365E-02  -0.5305771365E-02  -0.5891041319E-04  -0.5891041319E-04   0.1016811508E-08   0.0000000000E+00   0.1059327035E+01
     1     2     3     4     5     6     7     8
     2     9    10     3     6    11    12     7
 VARIABLES = X,Y,Z,DU1,DU2,DU3,U1,U2,U3,S11,S22,S33,S12,S13,S23,Vf,SMISES
 ZONE, T="0.1770D+01" F=FEPOINT, I=   12 J=    2 ET=BRICK
   0.0000000000E+00   0.2387162539E-02   0.2387162539E-02   0.0000000000E+00   0.1307334741E-04   0.1307334741E-04   0.0000000000E+00   0.2374089191E-02   0.2374089191E-02   0.1063501099E+01   0.3397078089E-02   0.3397078089E-02  -0.4749592309E-04  -0.4749592309E-04   0.1139877490E-08   0.0000000000E+00   0.1060104040E+01
   0.1009345894E+01   0.2073157143E-02   0.2073157143E-02   0.4936685120E-04   0.1225344098E-04   0.1225344098E-04   0.9296527445E-02   0.2060903702E-02   0.2060903702E-02   0.1060010929E+01   0.3411834085E-03   0.3411834085E-03  -0.4269871556E-04  -0.4269871556E-04   0.1042181977E-08   0.0000000000E+00   0.1059669762E+01
   0.1009345894E+01   0.9979268429E+00   0.2073157143E-02   0.4936685120E-04  -0.1225344098E-04   0.1225344098E-04   0.9296527445E-02  -0.2060903702E-02   0.2060903702E-02   0.1060010929E+01   0.3411834085E-03   0.3411834085E-03   0.4269871552E-04  -0.4269871556E-04  -0.1042171923E-08   0.0000000000E+00   0.1059669762E+01
   0.0000000000E+00   0.9976128375E+00   0.2387162539E-02   0.0000000000E+00  -0.1307334741E-04   0.1307334741E-04   0.0000000000E+00  -0.2374089191E-02   0.2374089191E-02   0.1063501099E+01   0.3397078089E-02   0.3397078089E-02   0.4749592297E-04  -0.4749592309E-04  -0.1139874162E-08   0.0000000000E+00   0.1060104040E+01
   0.0000000000E+00   0.2387162539E-02   0.9976128375E+00   0.0000000000E+00   0.1307334741E-04  -0.1307334741E-04   0.0000000000E+00   0.2374089191E-02  -0.2374089191E-02   0.1063501099E+01   0.3397078089E-02   0.3397078089E-02  -0.4749592309E-04   0.4749592297E-04  -0.1139874164E-08   0.0000000000E+00   0.1060104040E+01
   0.1009345894E+01   0.2073157143E-02   0.9979268429E+00   0.4936685120E-04   0.1225344098E-04  -0.1225344098E-04   0.9296527445E-02   0.2060903702E-02  -0.2060903702E-02   0.1060010929E+01   0.3411834085E-03   0.3411834085E-03  -0.4269871556E-04   0.4269871552E-04  -0.1042171915E-08   0.0000000000E+00   0.1059669762E+01
   0.1009345894E+01   0.9979268429E+00   0.9979268429E+00   0.4936685120E-04  -0.1225344098E-04  -0.1225344098E-04   0.9296527445E-02  -0.2060903702E-02  -0.2060903702E-02   0.1060010929E+01   0.3411834085E-03   0.3411834085E-03   0.4269871552E-04   0.4269871552E-04   0.1042161834E-08   0.0000000000E+00   0.1059669762E+01
   0.0000000000E+00   0.9976128375E+00   0.9976128375E+00   0.0000000000E+00  -0.1307334741E-04  -0.1307334741E-04   0.0000000000E+00  -0.2374089191E-02  -0.2374089191E-02   0.1063501098E+01   0.3397078089E-02   0.3397078089E-02   0.4749592296E-04   0.4749592296E-04   0.1139870765E-08   0.0000000000E+00   0.1060104040E+01
   0.2017700000E+01   0.1898619856E-02   0.1898619856E-02   0.1000000000E-03   0.1142414531E-04   0.1142414531E-04   0.1760000000E-01   0.1887195711E-02   0.1887195711E-02   0.1056520017E+01  -0.2714339792E-02  -0.2714339792E-02  -0.3816856613E-04  -0.3816856613E-04   0.9515059046E-09   0.0000000000E+00   0.1059234369E+01
   0.2017700000E+01   0.9981013801E+00   0.1898619856E-02   0.1000000000E-03  -0.1142414531E-04   0.1142414531E-04   0.1760000000E-01  -0.1887195711E-02   0.1887195711E-02   0.1056520017E+01  -0.2714339792E-02  -0.2714339792E-02   0.3816856597E-04  -0.3816856612E-04  -0.9514870541E-09   0.0000000000E+00   0.1059234369E+01
   0.2017700000E+01   0.1898619856E-02   0.9981013801E+00   0.1000000000E-03   0.1142414531E-04  -0.1142414531E-04   0.1760000000E-01   0.1887195711E-02  -0.1887195711E-02   0.1056520017E+01  -0.2714339792E-02  -0.2714339792E-02  -0.3816856612E-04   0.3816856597E-04  -0.9514870614E-09   0.0000000000E+00   0.1059234369E+01
   0.2017700000E+01   0.9981013801E+00   0.9981013801E+00   0.1000000000E-03  -0.1142414531E-04  -0.1142414531E-04   0.1760000000E-01  -0.1887195711E-02  -0.1887195711E-02   0.1056520017E+01  -0.2714339792E-02  -0.2714339792E-02   0.3816856597E-04   0.3816856596E-04   0.9514681611E-09   0.0000000000E+00   0.1059234369E+01
     1     2     3     4     5     6     7     8
     2     9    10     3     6    11    12     7
 VARIABLES = X,Y,Z,DU1,DU2,DU3,U1,U2,U3,S11,S22,S33,S12,S13,S23,Vf,SMISES
 ZONE, T="0.1780D+01" F=FEPOINT, I=   12 J=    2 ET=BRICK
   0.0000000000E+00   0.2400240225E-02   0.2400240225E-02   0.0000000000E+00   0.1307768637E-04   0.1307768637E-04   0.0000000000E+00   0.2387162539E-02   0.2387162539E-02   0.1061600129E+01   0.1452333211E-02   0.1452333211E-02  -0.1428823785E-03  -0.1428823785E-03   0.1094981138E-08   0.0000000000E+00   0.1060147969E+01
   0.1009395273E+01   0.2085428299E-02   0.2085428299E-02   0.4937856618E-04   0.1227115605E-04   0.1227115605E-04   0.9345894296E-02   0.2073157143E-02   0.2073157143E-02   0.1060352190E+01   0.6873316414E-03   0.6873316414E-03  -0.1387236158E-03  -0.1387236158E-03   0.1001235954E-08   0.0000000000E+00   0.1059665022E+01
   0.1009395273E+01   0.9979145717E+00   0.2085428299E-02   0.4937856618E-04  -0.1227115605E-04   0.1227115605E-04   0.9345894296E-02  -0.2073157143E-02   0.2073157143E-02   0.1060352190E+01   0.6873316414E-03   0.6873316414E-03   0.1387236157E-03  -0.1387236158E-03  -0.1001225565E-08   0.0000000000E+00   0.1059665022E+01
   0.0000000000E+00   0.9975997598E+00   0.2400240225E-02   0.0000000000E+00  -0.1307768637E-04   0.1307768637E-04   0.0000000000E+00  -0.2387162539E-02   0.2387162539E-02   0.1061600128E+01   0.1452333211E-02   0.1452333211E-02   0.1428823783E-03  -0.1428823784E-03  -0.1094983708E-08   0.0000000000E+00   0.1060147969E+01
   0.0000000000E+00   0.2400240225E-02   0.9975997598E+00   0.0000000000E+00   0.1307768637E-04  -0.1307768637E-04   0.0000000000E+00   0.2387162539E-02  -0.2387162539E-02   0.1061600128E+01   0.1452333211E-02   0.1452333211E-02  -0.1428823784E-03   0.1428823783E-03  -0.1094983710E-08   0.0000000000E+00   0.1060147969E+01
   0.1009395273E+01   0.2085428299E-02   0.9979145717E+00   0.4937856618E-04   0.1227115605E-04  -0.1227115605E-04   0.9345894296E-02   0.2073157143E-02  -0.2073157143E-02   0.1060352190E+01   0.6873316414E-03   0.6873316414E-03  -0.1387236158E-03   0.1387236157E-03  -0.1001225558E-08   0.0000000000E+00   0.1059665022E+01
   0.1009395273E+01   0.9979145717E+00   0.9979145717E+00   0.4937856618E-04  -0.1227115605E-04  -0.1227115605E-04   0.9345894296E-02  -0.2073157143E-02  -0.2073157143E-02   0.1060352190E+01   0.6873316414E-03   0.6873316414E-03   0.1387236157E-03   0.1387236157E-03   0.1001215146E-08   0.0000000000E+00   0.1059665022E+01
   0.0000000000E+00   0.9975997598E+00   0.9975997598E+00   0.0000000000E+00  -0.1307768637E-04  -0.1307768637E-04   0.0000000000E+00  -0.2387162539E-02  -0.2387162539E-02   0.1061600128E+01   0.1452333211E-02   0.1452333211E-02   0.1428823783E-03   0.1428823783E-03   0.1094986208E-08   0.0000000000E+00   0.1060147969E+01
   0.2017800000E+01   0.1910073370E-02   0.1910073370E-02   0.1000000000E-03   0.1145351323E-04   0.1145351323E-04   0.1770000000E-01   0.1898619856E-02   0.1898619856E-02   0.1059102282E+01  -0.7668504176E-04  -0.7668504176E-04  -0.1348252423E-03  -0.1348252423E-03   0.9141828717E-09   0.0000000000E+00   0.1059179121E+01
   0.2017800000E+01   0.9980899266E+00   0.1910073370E-02   0.1000000000E-03  -0.1145351323E-04   0.1145351323E-04   0.1770000000E-01  -0.1898619856E-02   0.1898619856E-02   0.1059102282E+01  -0.7668504173E-04  -0.7668504178E-04   0.1348252421E-03  -0.1348252423E-03  -0.9141568112E-09   0.0000000000E+00   0.1059179121E+01
   0.2017800000E+01   0.1910073370E-02   0.9980899266E+00   0.1000000000E-03   0.1145351323E-04  -0.1145351323E-04   0.1770000000E-01   0.1898619856E-02  -0.1898619856E-02   0.1059102282E+01  -0.7668504178E-04  -0.7668504173E-04  -0.1348252423E-03   0.1348252421E-03  -0.9141568192E-09   0.0000000000E+00   0.1059179121E+01
   0.2017800000E+01   0.9980899266E+00   0.9980899266E+00   0.1000000000E-03  -0.1145351323E-04  -0.1145351323E-04   0.1770000000E-01  -0.1898619856E-02  -0.1898619856E-02   0.1059102282E+01  -0.7668504175E-04  -0.7668504175E-04   0.1348252421E-03   0.1348252421E-03   0.9141307111E-09   0.0000000000E+00   0.1059179121E+01
     1     2     3     4     5     6     7     8
     2     9    10     3     6    11    12     7
 VARIABLES = X,Y,Z,DU1,DU2,DU3,U1,U2,U3,S11,S22,S33,S12,S13,S23,Vf,SMISES
 ZONE, T="0.1790D+01" F=FEPOINT, I=   12 J=    2 ET=BRICK
   0.0000000000E+00   0.2413280446E-02   0.2413280446E-02   0.0000000000E+00   0.1304022044E-04   0.1304022044E-04   0.0000000000E+00   0.2400240225E-02   0.2400240225E-02   0.1059660842E+01  -0.5267680588E-03  -0.5267680588E-03  -0.2318918227E-03  -0.2318918227E-03   0.1076490410E-08   0.0000000000E+00   0.1060188067E+01
   0.1009444707E+01   0.2097721759E-02   0.2097721759E-02   0.4943424360E-04   0.1229346013E-04   0.1229346013E-04   0.9395272862E-02   0.2085428299E-02   0.2085428299E-02   0.1060633234E+01   0.9560858364E-03   0.9560858364E-03  -0.2284656267E-03  -0.2284656267E-03   0.9868223408E-09   0.0000000000E+00   0.1059677592E+01
   0.1009444707E+01   0.9979022782E+00   0.2097721759E-02   0.4943424360E-04  -0.1229346013E-04   0.1229346013E-04   0.9395272862E-02  -0.2085428299E-02   0.2085428299E-02   0.1060633234E+01   0.9560858363E-03   0.9560858363E-03   0.2284656267E-03  -0.2284656267E-03  -0.9868119023E-09   0.0000000000E+00   0.1059677591E+01
   0.0000000000E+00   0.9975867196E+00   0.2413280446E-02   0.0000000000E+00  -0.1304022044E-04   0.1304022044E-04   0.0000000000E+00  -0.2400240225E-02   0.2400240225E-02   0.1059660842E+01  -0.5267680588E-03  -0.5267680587E-03   0.2318918226E-03  -0.2318918227E-03  -0.1076498664E-08   0.0000000000E+00   0.1060188067E+01
   0.0000000000E+00   0.2413280446E-02   0.9975867196E+00   0.0000000000E+00   0.1304022044E-04  -0.1304022044E-04   0.0000000000E+00   0.2400240225E-02  -0.2400240225E-02   0.1059660842E+01  -0.5267680587E-03  -0.5267680588E-03  -0.2318918227E-03   0.2318918226E-03  -0.1076498667E-08   0.0000000000E+00   0.1060188067E+01
   0.1009444707E+01   0.2097721759E-02   0.9979022782E+00   0.4943424360E-04   0.1229346013E-04  -0.1229346013E-04   0.9395272862E-02   0.2085428299E-02  -0.2085428299E-02   0.1060633234E+01   0.9560858363E-03   0.9560858363E-03  -0.2284656267E-03   0.2284656267E-03  -0.9868118960E-09   0.0000000000E+00   0.1059677591E+01
   0.1009444707E+01   0.9979022782E+00   0.9979022782E+00   0.4943424360E-04  -0.1229346013E-04  -0.1229346013E-04   0.9395272862E-02  -0.2085428299E-02  -0.2085428299E-02   0.1060633234E+01   0.9560858363E-03   0.9560858363E-03   0.2284656267E-03   0.2284656267E-03   0.9868014395E-09   0.0000000000E+00   0.1059677591E+01
   0.0000000000E+00   0.9975867196E+00   0.9975867196E+00   0.0000000000E+00  -0.1304022044E-04  -0.1304022044E-04   0.0000000000E+00  -0.2400240225E-02  -0.2400240225E-02   0.1059660842E+01  -0.5267680587E-03  -0.5267680587E-03   0.2318918225E-03   0.2318918225E-03   0.1076506846E-08   0.0000000000E+00   0.1060188067E+01
   0.2017900000E+01   0.1921607328E-02   0.1921607328E-02   0.1000000000E-03   0.1153395851E-04   0.1153395851E-04   0.1780000000E-01   0.1910073370E-02   0.1910073370E-02   0.1061602485E+01   0.2440509543E-02   0.2440509543E-02  -0.2252937654E-03  -0.2252937654E-03   0.9035340612E-09   0.0000000000E+00   0.1059162407E+01
   0.2017900000E+01   0.9980783927E+00   0.1921607328E-02   0.1000000000E-03  -0.1153395851E-04   0.1153395851E-04   0.1780000000E-01  -0.1910073369E-02   0.1910073370E-02   0.1061602485E+01   0.2440509543E-02   0.2440509542E-02   0.2252937653E-03  -0.2252937654E-03  -0.9035016138E-09   0.0000000000E+00   0.1059162407E+01
   0.2017900000E+01   0.1921607328E-02   0.9980783927E+00   0.1000000000E-03   0.1153395851E-04  -0.1153395851E-04   0.1780000000E-01   0.1910073370E-02  -0.1910073369E-02   0.1061602485E+01   0.2440509542E-02   0.2440509543E-02  -0.2252937654E-03   0.2252937653E-03  -0.9035016217E-09   0.0000000000E+00   0.1059162407E+01
   0.2017900000E+01   0.9980783927E+00   0.9980783927E+00   0.1000000000E-03  -0.1153395851E-04  -0.1153395851E-04   0.1780000000E-01  -0.1910073369E-02  -0.1910073369E-02   0.1061602485E+01   0.2440509542E-02   0.2440509542E-02   0.2252937653E-03   0.2252937653E-03   0.9034691295E-09   0.0000000000E+00   0.1059162407E+01
     1     2     3     4     5     6     7     8
     2     9    10     3     6    11    12     7
 VARIABLES = X,Y,Z,DU1,DU2,DU3,U1,U2,U3,S11,S22,S33,S12,S13,S23,Vf,SMISES
 ZONE, T="0.1800D+01" F=FEPOINT, I=   12 J=    2 ET=BRICK
   0.0000000000E+00   0.2426244507E-02   0.2426244507E-02   0.0000000000E+00   0.1296406114E-04   0.1296406114E-04   0.0000000000E+00   0.2413280446E-02   0.2413280446E-02   0.1057797319E+01  -0.2423286474E-02  -0.2423286474E-02  -0.3093626212E-03  -0.3093626212E-03   0.1077300976E-08   0.0000000000E+00   0.1060221418E+01
   0.1009494236E+01   0.2110040033E-02   0.2110040033E-02   0.4952922856E-04   0.1231827404E-04   0.1231827404E-04   0.9444707106E-02   0.2097721759E-02   0.2097721759E-02   0.1060834407E+01   0.1130007544E-02   0.1130007544E-02  -0.3067480487E-03  -0.3067480487E-03   0.9919295231E-09   0.0000000000E+00   0.1059705199E+01
   0.1009494236E+01   0.9978899600E+00   0.2110040033E-02   0.4952922856E-04  -0.1231827404E-04   0.1231827404E-04   0.9444707106E-02  -0.2097721759E-02   0.2097721759E-02   0.1060834407E+01   0.1130007543E-02   0.1130007543E-02   0.3067480487E-03  -0.3067480487E-03  -0.9919193509E-09   0.0000000000E+00   0.1059705199E+01
   0.0000000000E+00   0.9975737555E+00   0.2426244507E-02   0.0000000000E+00  -0.1296406114E-04   0.1296406114E-04   0.0000000000E+00  -0.2413280446E-02   0.2413280446E-02   0.1057797319E+01  -0.2423286474E-02  -0.2423286474E-02   0.3093626211E-03  -0.3093626212E-03  -0.1077314429E-08   0.0000000000E+00   0.1060221418E+01
   0.0000000000E+00   0.2426244507E-02   0.9975737555E+00   0.0000000000E+00   0.1296406114E-04  -0.1296406114E-04   0.0000000000E+00   0.2413280446E-02  -0.2413280446E-02   0.1057797319E+01  -0.2423286474E-02  -0.2423286474E-02  -0.3093626212E-03   0.3093626211E-03  -0.1077314432E-08   0.0000000000E+00   0.1060221418E+01
   0.1009494236E+01   0.2110040033E-02   0.9978899600E+00   0.4952922856E-04   0.1231827404E-04  -0.1231827404E-04   0.9444707106E-02   0.2097721759E-02  -0.2097721759E-02   0.1060834407E+01   0.1130007543E-02   0.1130007543E-02  -0.3067480487E-03   0.3067480487E-03  -0.9919193448E-09   0.0000000000E+00   0.1059705199E+01
   0.1009494236E+01   0.9978899600E+00   0.9978899600E+00   0.4952922856E-04  -0.1231827404E-04  -0.1231827404E-04   0.9444707106E-02  -0.2097721759E-02  -0.2097721759E-02   0.1060834407E+01   0.1130007543E-02   0.1130007543E-02   0.3067480487E-03   0.3067480487E-03   0.9919091562E-09   0.0000000000E+00   0.1059705199E+01
   0.0000000000E+00   0.9975737555E+00   0.9975737555E+00   0.0000000000E+00  -0.1296406114E-04  -0.1296406114E-04   0.0000000000E+00  -0.2413280446E-02  -0.2413280446E-02   0.1057797319E+01  -0.2423286474E-02  -0.2423286474E-02   0.3093626211E-03   0.3093626211E-03   0.1077327804E-08   0.0000000000E+00   0.1060221417E+01
   0.2018000000E+01   0.1933265541E-02   0.1933265541E-02   0.1000000000E-03   0.1165821316E-04   0.1165821316E-04   0.1790000000E-01   0.1921607328E-02   0.1921607328E-02   0.1063867268E+01   0.4685414786E-02   0.4685414786E-02  -0.3043821962E-03  -0.3043821962E-03   0.9126402461E-09   0.0000000000E+00   0.1059182641E+01
   0.2018000000E+01   0.9980667345E+00   0.1933265541E-02   0.1000000000E-03  -0.1165821316E-04   0.1165821316E-04   0.1790000000E-01  -0.1921607328E-02   0.1921607328E-02   0.1063867268E+01   0.4685414786E-02   0.4685414786E-02   0.3043821961E-03  -0.3043821962E-03  -0.9126025666E-09   0.0000000000E+00   0.1059182641E+01
   0.2018000000E+01   0.1933265541E-02   0.9980667345E+00   0.1000000000E-03   0.1165821316E-04  -0.1165821316E-04   0.1790000000E-01   0.1921607328E-02  -0.1921607328E-02   0.1063867268E+01   0.4685414786E-02   0.4685414786E-02  -0.3043821962E-03   0.3043821961E-03  -0.9126025741E-09   0.0000000000E+00   0.1059182641E+01
   0.2018000000E+01   0.9980667345E+00   0.9980667345E+00   0.1000000000E-03  -0.1165821316E-04  -0.1165821316E-04   0.1790000000E-01  -0.1921607328E-02  -0.1921607328E-02   0.1063867268E+01   0.4685414786E-02   0.4685414786E-02   0.3043821960E-03   0.3043821960E-03   0.9125648508E-09   0.0000000000E+00   0.1059182641E+01
     1     2     3     4     5     6     7     8
     2     9    10     3     6    11    12     7
 VARIABLES = X,Y,Z,DU1,DU2,DU3,U1,U2,U3,S11,S22,S33,S12,S13,S23,Vf,SMISES
 ZONE, T="0.1810D+01" F=FEPOINT, I=   12 J=    2 ET=BRICK
   0.0000000000E+00   0.2439099053E-02   0.2439099053E-02   0.0000000000E+00   0.1285454591E-04   0.1285454591E-04   0.0000000000E+00   0.2426244507E-02   0.2426244507E-02   0.1056117252E+01  -0.4126922104E-02  -0.4126922104E-02  -0.3710081171E-03  -0.3710081171E-03   0.1086593253E-08   0.0000000000E+00   0.1060245343E+01
   0.1009543893E+01   0.2122383460E-02   0.2122383460E-02   0.4965664044E-04   0.1234342674E-04   0.1234342674E-04   0.9494236334E-02   0.2110040033E-02   0.2110040033E-02   0.1060943521E+01   0.1200204525E-02   0.1200204525E-02  -0.3692663418E-03  -0.3692663418E-03   0.1005760944E-08   0.0000000000E+00   0.1059744474E+01
   0.1009543893E+01   0.9978776165E+00   0.2122383460E-02   0.4965664044E-04  -0.1234342674E-04   0.1234342674E-04   0.9494236334E-02  -0.2110040033E-02   0.2110040033E-02   0.1060943521E+01   0.1200204525E-02   0.1200204525E-02   0.3692663418E-03  -0.3692663418E-03  -0.1005751354E-08   0.0000000000E+00   0.1059744474E+01
   0.0000000000E+00   0.9975609009E+00   0.2439099053E-02   0.0000000000E+00  -0.1285454591E-04   0.1285454591E-04   0.0000000000E+00  -0.2426244507E-02   0.2426244507E-02   0.1056117252E+01  -0.4126922104E-02  -0.4126922104E-02   0.3710081170E-03  -0.3710081171E-03  -0.1086611173E-08   0.0000000000E+00   0.1060245343E+01
   0.0000000000E+00   0.2439099053E-02   0.9975609009E+00   0.0000000000E+00   0.1285454591E-04  -0.1285454591E-04   0.0000000000E+00   0.2426244507E-02  -0.2426244507E-02   0.1056117252E+01  -0.4126922104E-02  -0.4126922104E-02  -0.3710081171E-03   0.3710081170E-03  -0.1086611177E-08   0.0000000000E+00   0.1060245343E+01
   0.1009543893E+01   0.2122383460E-02   0.9978776165E+00   0.4965664044E-04   0.1234342674E-04  -0.1234342674E-04   0.9494236334E-02   0.2110040033E-02  -0.2110040033E-02   0.1060943521E+01   0.1200204525E-02   0.1200204525E-02  -0.3692663418E-03   0.3692663418E-03  -0.1005751349E-08   0.0000000000E+00   0.1059744474E+01
   0.1009543893E+01   0.9978776165E+00   0.9978776165E+00   0.4965664044E-04  -0.1234342674E-04  -0.1234342674E-04   0.9494236334E-02  -0.2110040033E-02  -0.2110040033E-02   0.1060943521E+01   0.1200204525E-02   0.1200204525E-02   0.3692663417E-03   0.3692663417E-03   0.1005741745E-08   0.0000000000E+00   0.1059744474E+01
   0.0000000000E+00   0.9975609009E+00   0.9975609009E+00   0.0000000000E+00  -0.1285454591E-04  -0.1285454591E-04   0.0000000000E+00  -0.2426244507E-02  -0.2426244507E-02   0.1056117252E+01  -0.4126922104E-02  -0.4126922104E-02   0.3710081170E-03   0.3710081170E-03   0.1086629012E-08   0.0000000000E+00   0.1060245343E+01
   0.2018100000E+01   0.1945082139E-02   0.1945082139E-02   0.1000000000E-03   0.1181659752E-04   0.1181659752E-04   0.1800000000E-01   0.1933265541E-02   0.1933265541E-02   0.1065764576E+01   0.6529937636E-02   0.6529937636E-02  -0.3677678592E-03  -0.3677678592E-03   0.9307272794E-09   0.0000000000E+00   0.1059235788E+01
   0.2018100000E+01   0.9980549179E+00   0.1945082139E-02   0.1000000000E-03  -0.1181659752E-04   0.1181659752E-04   0.1800000000E-01  -0.1933265541E-02   0.1933265541E-02   0.1065764576E+01   0.6529937636E-02   0.6529937636E-02   0.3677678591E-03  -0.3677678592E-03  -0.9306857723E-09   0.0000000000E+00   0.1059235788E+01
   0.2018100000E+01   0.1945082139E-02   0.9980549179E+00   0.1000000000E-03   0.1181659752E-04  -0.1181659752E-04   0.1800000000E-01   0.1933265541E-02  -0.1933265541E-02   0.1065764576E+01   0.6529937636E-02   0.6529937636E-02  -0.3677678592E-03   0.3677678591E-03  -0.9306857806E-09   0.0000000000E+00   0.1059235788E+01
   0.2018100000E+01   0.9980549179E+00   0.9980549179E+00   0.1000000000E-03  -0.1181659752E-04  -0.1181659752E-04   0.1800000000E-01  -0.1933265541E-02  -0.1933265541E-02   0.1065764576E+01   0.6529937635E-02   0.6529937635E-02   0.3677678591E-03   0.3677678591E-03   0.9306442335E-09   0.0000000000E+00   0.1059235788E+01
     1     2     3     4     5     6     7     8
     2     9    10     3     6    11    12     7
 VARIABLES = X,Y,Z,DU1,DU2,DU3,U1,U2,U3,S11,S22,S33,S12,S13,S23,Vf,SMISES
 ZONE, T="0.1820D+01" F=FEPOINT, I=   12 J=    2 ET=BRICK
   0.0000000000E+00   0.2451817939E-02   0.2451817939E-02   0.0000000000E+00   0.1271888666E-04   0.1271888666E-04   0.0000000000E+00   0.2439099053E-02   0.2439099053E-02   0.1054715744E+01  -0.5540454669E-02  -0.5540454669E-02  -0.4136463365E-03  -0.4136463365E-03   0.1092372913E-08   0.0000000000E+00   0.1060257651E+01
   0.1009593701E+01   0.2134750295E-02   0.2134750295E-02   0.4980786301E-04   0.1236683465E-04   0.1236683465E-04   0.9543892975E-02   0.2122383460E-02   0.2122383460E-02   0.1060956428E+01   0.1166590392E-02   0.1166590392E-02  -0.4128197717E-03  -0.4128197717E-03   0.1016275739E-08   0.0000000000E+00   0.1059791285E+01
   0.1009593701E+01   0.9978652497E+00   0.2134750295E-02   0.4980786301E-04  -0.1236683465E-04   0.1236683465E-04   0.9543892975E-02  -0.2122383460E-02   0.2122383460E-02   0.1060956428E+01   0.1166590392E-02   0.1166590392E-02   0.4128197717E-03  -0.4128197717E-03  -0.1016267027E-08   0.0000000000E+00   0.1059791285E+01
   0.0000000000E+00   0.9975481821E+00   0.2451817939E-02   0.0000000000E+00  -0.1271888666E-04   0.1271888666E-04   0.0000000000E+00  -0.2439099053E-02   0.2439099053E-02   0.1054715744E+01  -0.5540454669E-02  -0.5540454669E-02   0.4136463364E-03  -0.4136463365E-03  -0.1092394367E-08   0.0000000000E+00   0.1060257651E+01
   0.0000000000E+00   0.2451817939E-02   0.9975481821E+00   0.0000000000E+00   0.1271888666E-04  -0.1271888666E-04   0.0000000000E+00   0.2439099053E-02  -0.2439099053E-02   0.1054715744E+01  -0.5540454669E-02  -0.5540454669E-02  -0.4136463365E-03   0.4136463364E-03  -0.1092394370E-08   0.0000000000E+00   0.1060257651E+01
   0.1009593701E+01   0.2134750295E-02   0.9978652497E+00   0.4980786301E-04   0.1236683465E-04  -0.1236683465E-04   0.9543892975E-02   0.2122383460E-02  -0.2122383460E-02   0.1060956428E+01   0.1166590392E-02   0.1166590392E-02  -0.4128197717E-03   0.4128197717E-03  -0.1016267023E-08   0.0000000000E+00   0.1059791285E+01
   0.1009593701E+01   0.9978652497E+00   0.9978652497E+00   0.4980786301E-04  -0.1236683465E-04  -0.1236683465E-04   0.9543892975E-02  -0.2122383460E-02  -0.2122383460E-02   0.1060956428E+01   0.1166590392E-02   0.1166590392E-02   0.4128197717E-03   0.4128197717E-03   0.1016258302E-08   0.0000000000E+00   0.1059791285E+01
   0.0000000000E+00   0.9975481821E+00   0.9975481821E+00   0.0000000000E+00  -0.1271888666E-04  -0.1271888666E-04   0.0000000000E+00  -0.2439099053E-02  -0.2439099053E-02   0.1054715744E+01  -0.5540454669E-02  -0.5540454669E-02   0.4136463363E-03   0.4136463363E-03   0.1092415741E-08   0.0000000000E+00   0.1060257651E+01
   0.2018200000E+01   0.1957079869E-02   0.1957079869E-02   0.1000000000E-03   0.1199773061E-04   0.1199773061E-04   0.1810000000E-01   0.1945082139E-02   0.1945082139E-02   0.1067191020E+01   0.7876681566E-02   0.7876681566E-02  -0.4122309339E-03  -0.4122309339E-03   0.9457068346E-09   0.0000000000E+00   0.1059315782E+01
   0.2018200000E+01   0.9980429201E+00   0.1957079869E-02   0.1000000000E-03  -0.1199773061E-04   0.1199773061E-04   0.1810000000E-01  -0.1945082139E-02   0.1945082139E-02   0.1067191020E+01   0.7876681566E-02   0.7876681566E-02   0.4122309337E-03  -0.4122309339E-03  -0.9456630676E-09   0.0000000000E+00   0.1059315782E+01
   0.2018200000E+01   0.1957079869E-02   0.9980429201E+00   0.1000000000E-03   0.1199773061E-04  -0.1199773061E-04   0.1810000000E-01   0.1945082139E-02  -0.1945082139E-02   0.1067191020E+01   0.7876681566E-02   0.7876681566E-02  -0.4122309339E-03   0.4122309337E-03  -0.9456630762E-09   0.0000000000E+00   0.1059315782E+01
   0.2018200000E+01   0.9980429201E+00   0.9980429201E+00   0.1000000000E-03  -0.1199773061E-04  -0.1199773061E-04   0.1810000000E-01  -0.1945082139E-02  -0.1945082139E-02   0.1067191020E+01   0.7876681566E-02   0.7876681566E-02   0.4122309337E-03   0.4122309337E-03   0.9456192773E-09   0.0000000000E+00   0.1059315782E+01
     1     2     3     4     5     6     7     8
     2     9    10     3     6    11    12     7
 VARIABLES = X,Y,Z,DU1,DU2,DU3,U1,U2,U3,S11,S22,S33,S12,S13,S23,Vf,SMISES
 ZONE, T="0.1830D+01" F=FEPOINT, I=   12 J=    2 ET=BRICK
   0.0000000000E+00   0.2464383651E-02   0.2464383651E-02   0.0000000000E+00   0.1256571142E-04   0.1256571142E-04   0.0000000000E+00   0.2451817939E-02   0.2451817939E-02   0.1053669886E+01  -0.6585359388E-02  -0.6585359388E-02  -0.4353548786E-03  -0.4353548786E-03   0.1084158602E-08   0.0000000000E+00   0.1060256855E+01
   0.1009643674E+01   0.2147136959E-02   0.2147136959E-02   0.4997312305E-04   0.1238666432E-04   0.1238666432E-04   0.9593700838E-02   0.2134750295E-02   0.2134750295E-02   0.1060876923E+01   0.1037422404E-02   0.1037422404E-02  -0.4354684100E-03  -0.4354684100E-03   0.1012888026E-08   0.0000000000E+00   0.1059841111E+01
   0.1009643674E+01   0.9978528630E+00   0.2147136959E-02   0.4997312305E-04  -0.1238666432E-04   0.1238666432E-04   0.9593700838E-02  -0.2134750294E-02   0.2134750295E-02   0.1060876923E+01   0.1037422404E-02   0.1037422404E-02   0.4354684100E-03  -0.4354684100E-03  -0.1012880449E-08   0.0000000000E+00   0.1059841111E+01
   0.0000000000E+00   0.9975356163E+00   0.2464383651E-02   0.0000000000E+00  -0.1256571142E-04   0.1256571142E-04   0.0000000000E+00  -0.2451817939E-02   0.2451817939E-02   0.1053669886E+01  -0.6585359388E-02  -0.6585359388E-02   0.4353548785E-03  -0.4353548786E-03  -0.1084182512E-08   0.0000000000E+00   0.1060256855E+01
   0.0000000000E+00   0.2464383651E-02   0.9975356163E+00   0.0000000000E+00   0.1256571142E-04  -0.1256571142E-04   0.0000000000E+00   0.2451817939E-02  -0.2451817939E-02   0.1053669886E+01  -0.6585359388E-02  -0.6585359388E-02  -0.4353548786E-03   0.4353548785E-03  -0.1084182516E-08   0.0000000000E+00   0.1060256855E+01
   0.1009643674E+01   0.2147136959E-02   0.9978528630E+00   0.4997312305E-04   0.1238666432E-04  -0.1238666432E-04   0.9593700838E-02   0.2134750295E-02  -0.2134750294E-02   0.1060876923E+01   0.1037422404E-02   0.1037422404E-02  -0.4354684100E-03   0.4354684100E-03  -0.1012880445E-08   0.0000000000E+00   0.1059841111E+01
   0.1009643674E+01   0.9978528630E+00   0.9978528630E+00   0.4997312305E-04  -0.1238666432E-04  -0.1238666432E-04   0.9593700838E-02  -0.2134750294E-02  -0.2134750294E-02   0.1060876923E+01   0.1037422404E-02   0.1037422404E-02   0.4354684099E-03   0.4354684099E-03   0.1012872864E-08   0.0000000000E+00   0.1059841111E+01
   0.0000000000E+00   0.9975356163E+00   0.9975356163E+00   0.0000000000E+00  -0.1256571142E-04  -0.1256571142E-04   0.0000000000E+00  -0.2451817939E-02  -0.2451817939E-02   0.1053669886E+01  -0.6585359388E-02  -0.6585359388E-02   0.4353548785E-03   0.4353548785E-03   0.1084206346E-08   0.0000000000E+00   0.1060256855E+01
   0.2018300000E+01   0.1969269184E-02   0.1969269184E-02   0.1000000000E-03   0.1218931441E-04   0.1218931441E-04   0.1820000000E-01   0.1957079869E-02   0.1957079869E-02   0.1068077092E+01   0.8663637810E-02   0.8663637810E-02  -0.4358135875E-03  -0.4358135875E-03   0.9468873695E-09   0.0000000000E+00   0.1059415067E+01
   0.2018300000E+01   0.9980307308E+00   0.1969269184E-02   0.1000000000E-03  -0.1218931441E-04   0.1218931441E-04   0.1820000000E-01  -0.1957079869E-02   0.1957079869E-02   0.1068077092E+01   0.8663637809E-02   0.8663637809E-02   0.4358135874E-03  -0.4358135875E-03  -0.9468429787E-09   0.0000000000E+00   0.1059415067E+01
   0.2018300000E+01   0.1969269184E-02   0.9980307308E+00   0.1000000000E-03   0.1218931441E-04  -0.1218931441E-04   0.1820000000E-01   0.1957079869E-02  -0.1957079869E-02   0.1068077092E+01   0.8663637809E-02   0.8663637809E-02  -0.4358135875E-03   0.4358135874E-03  -0.9468429870E-09   0.0000000000E+00   0.1059415067E+01
   0.2018300000E+01   0.9980307308E+00   0.9980307308E+00   0.1000000000E-03  -0.1218931441E-04  -0.1218931441E-04   0.1820000000E-01  -0.1957079869E-02  -0.1957079869E-02   0.1068077092E+01   0.8663637809E-02   0.8663637809E-02   0.4358135873E-03   0.4358135873E-03   0.9467985685E-09   0.0000000000E+00   0.1059415067E+01
     1     2     3     4     5     6     7     8
     2     9    10     3     6    11    12     7
 VARIABLES = X,Y,Z,DU1,DU2,DU3,U1,U2,U3,S11,S22,S33,S12,S13,S23,Vf,SMISES
 ZONE, T="0.1840D+01" F=FEPOINT, I=   12 J=    2 ET=BRICK
   0.0000000000E+00   0.2476788178E-02   0.2476788178E-02   0.0000000000E+00   0.1240452729E-04   0.1240452729E-04   0.0000000000E+00   0.2464383651E-02   0.2464383651E-02   0.1053034460E+01  -0.7206263340E-02  -0.7206263340E-02  -0.4355442218E-03  -0.4355442218E-03   0.1055186109E-08   0.0000000000E+00   0.1060242334E+01
   0.1009693816E+01   0.2159538425E-02   0.2159538425E-02   0.5014211974E-04   0.1240146644E-04   0.1240146644E-04   0.9643673961E-02   0.2147136959E-02   0.2147136959E-02   0.1060716007E+01   0.8281927119E-03   0.8281927119E-03  -0.4366082559E-03  -0.4366082559E-03   0.9886908924E-09   0.0000000000E+00   0.1059889433E+01
   0.1009693816E+01   0.9978404616E+00   0.2159538425E-02   0.5014211974E-04  -0.1240146644E-04   0.1240146644E-04   0.9643673961E-02  -0.2147136959E-02   0.2147136959E-02   0.1060716007E+01   0.8281927119E-03   0.8281927119E-03   0.4366082559E-03  -0.4366082559E-03  -0.9886846478E-09   0.0000000000E+00   0.1059889433E+01
   0.0000000000E+00   0.9975232118E+00   0.2476788178E-02   0.0000000000E+00  -0.1240452729E-04   0.1240452729E-04   0.0000000000E+00  -0.2464383651E-02   0.2464383651E-02   0.1053034460E+01  -0.7206263339E-02  -0.7206263339E-02   0.4355442217E-03  -0.4355442218E-03  -0.1055211319E-08   0.0000000000E+00   0.1060242334E+01
   0.0000000000E+00   0.2476788178E-02   0.9975232118E+00   0.0000000000E+00   0.1240452729E-04  -0.1240452729E-04   0.0000000000E+00   0.2464383651E-02  -0.2464383651E-02   0.1053034460E+01  -0.7206263339E-02  -0.7206263339E-02  -0.4355442218E-03   0.4355442217E-03  -0.1055211322E-08   0.0000000000E+00   0.1060242334E+01
   0.1009693816E+01   0.2159538425E-02   0.9978404616E+00   0.5014211974E-04   0.1240146644E-04  -0.1240146644E-04   0.9643673961E-02   0.2147136959E-02  -0.2147136959E-02   0.1060716007E+01   0.8281927119E-03   0.8281927119E-03  -0.4366082559E-03   0.4366082559E-03  -0.9886846438E-09   0.0000000000E+00   0.1059889433E+01
   0.1009693816E+01   0.9978404616E+00   0.9978404616E+00   0.5014211974E-04  -0.1240146644E-04  -0.1240146644E-04   0.9643673961E-02  -0.2147136959E-02  -0.2147136959E-02   0.1060716007E+01   0.8281927118E-03   0.8281927118E-03   0.4366082559E-03   0.4366082559E-03   0.9886784023E-09   0.0000000000E+00   0.1059889433E+01
   0.0000000000E+00   0.9975232118E+00   0.9975232118E+00   0.0000000000E+00  -0.1240452729E-04  -0.1240452729E-04   0.0000000000E+00  -0.2464383651E-02  -0.2464383651E-02   0.1053034460E+01  -0.7206263339E-02  -0.7206263339E-02   0.4355442217E-03   0.4355442217E-03   0.1055236454E-08   0.0000000000E+00   0.1060242334E+01
   0.2018400000E+01   0.1981648123E-02   0.1981648123E-02   0.1000000000E-03   0.1237893925E-04   0.1237893925E-04   0.1830000000E-01   0.1969269184E-02   0.1969269184E-02   0.1068390004E+01   0.8866423096E-02   0.8866423096E-02  -0.4378969524E-03  -0.4378969524E-03   0.9272181578E-09   0.0000000000E+00   0.1059525210E+01
   0.2018400000E+01   0.9980183519E+00   0.1981648123E-02   0.1000000000E-03  -0.1237893925E-04   0.1237893925E-04   0.1830000000E-01  -0.1969269184E-02   0.1969269184E-02   0.1068390004E+01   0.8866423096E-02   0.8866423096E-02   0.4378969523E-03  -0.4378969524E-03  -0.9271747428E-09   0.0000000000E+00   0.1059525210E+01
   0.2018400000E+01   0.1981648123E-02   0.9980183519E+00   0.1000000000E-03   0.1237893925E-04  -0.1237893925E-04   0.1830000000E-01   0.1969269184E-02  -0.1969269184E-02   0.1068390004E+01   0.8866423096E-02   0.8866423096E-02  -0.4378969524E-03   0.4378969523E-03  -0.9271747498E-09   0.0000000000E+00   0.1059525210E+01
   0.2018400000E+01   0.9980183519E+00   0.9980183519E+00   0.1000000000E-03  -0.1237893925E-04  -0.1237893925E-04   0.1830000000E-01  -0.1969269184E-02  -0.1969269184E-02   0.1068390004E+01   0.8866423096E-02   0.8866423096E-02   0.4378969522E-03   0.4378969522E-03   0.9271313167E-09   0.0000000000E+00   0.1059525210E+01
     1     2     3     4     5     6     7     8
     2     9    10     3     6    11    12     7
 VARIABLES = X,Y,Z,DU1,DU2,DU3,U1,U2,U3,S11,S22,S33,S12,S13,S23,Vf,SMISES
 ZONE, T="0.1850D+01" F=FEPOINT, I=   12 J=    2 ET=BRICK
   0.0000000000E+00   0.2489033316E-02   0.2489033316E-02   0.0000000000E+00   0.1224513782E-04   0.1224513782E-04   0.0000000000E+00   0.2476788178E-02   0.2476788178E-02   0.1052839000E+01  -0.7373976997E-02  -0.7373976997E-02  -0.4149479209E-03  -0.4149479209E-03   0.1003650535E-08   0.0000000000E+00   0.1060214439E+01
   0.1009744121E+01   0.2171948697E-02   0.2171948697E-02   0.5030466486E-04   0.1241027173E-04   0.1241027173E-04   0.9693816081E-02   0.2159538425E-02   0.2159538425E-02   0.1060490622E+01   0.5599965095E-03   0.5599965095E-03  -0.4169625868E-03  -0.4169625868E-03   0.9417219563E-09   0.0000000000E+00   0.1059932102E+01
   0.1009744121E+01   0.9978280513E+00   0.2171948697E-02   0.5030466486E-04  -0.1241027173E-04   0.1241027173E-04   0.9693816081E-02  -0.2159538425E-02   0.2159538425E-02   0.1060490622E+01   0.5599965095E-03   0.5599965095E-03   0.4169625868E-03  -0.4169625868E-03  -0.9417171705E-09   0.0000000000E+00   0.1059932102E+01
   0.0000000000E+00   0.9975109667E+00   0.2489033316E-02   0.0000000000E+00  -0.1224513782E-04   0.1224513782E-04   0.0000000000E+00  -0.2476788178E-02   0.2476788178E-02   0.1052839000E+01  -0.7373976996E-02  -0.7373976996E-02   0.4149479208E-03  -0.4149479209E-03  -0.1003675865E-08   0.0000000000E+00   0.1060214439E+01
   0.0000000000E+00   0.2489033316E-02   0.9975109667E+00   0.0000000000E+00   0.1224513782E-04  -0.1224513782E-04   0.0000000000E+00   0.2476788178E-02  -0.2476788178E-02   0.1052839000E+01  -0.7373976996E-02  -0.7373976996E-02  -0.4149479209E-03   0.4149479208E-03  -0.1003675869E-08   0.0000000000E+00   0.1060214439E+01
   0.1009744121E+01   0.2171948697E-02   0.9978280513E+00   0.5030466486E-04   0.1241027173E-04  -0.1241027173E-04   0.9693816081E-02   0.2159538425E-02  -0.2159538425E-02   0.1060490622E+01   0.5599965095E-03   0.5599965095E-03  -0.4169625868E-03   0.4169625868E-03  -0.9417171660E-09   0.0000000000E+00   0.1059932102E+01
   0.1009744121E+01   0.9978280513E+00   0.9978280513E+00   0.5030466486E-04  -0.1241027173E-04  -0.1241027173E-04   0.9693816081E-02  -0.2159538425E-02  -0.2159538425E-02   0.1060490622E+01   0.5599965095E-03   0.5599965095E-03   0.4169625868E-03   0.4169625868E-03   0.9417123920E-09   0.0000000000E+00   0.1059932102E+01
   0.0000000000E+00   0.9975109667E+00   0.9975109667E+00   0.0000000000E+00  -0.1224513782E-04  -0.1224513782E-04   0.0000000000E+00  -0.2476788178E-02  -0.2476788178E-02   0.1052839000E+01  -0.7373976996E-02  -0.7373976996E-02   0.4149479208E-03   0.4149479208E-03   0.1003701131E-08   0.0000000000E+00   0.1060214439E+01
   0.2018500000E+01   0.1994202982E-02   0.1994202982E-02   0.1000000000E-03   0.1255485865E-04   0.1255485865E-04   0.1840000000E-01   0.1981648123E-02   0.1981648123E-02   0.1068134092E+01   0.8498045876E-02   0.8498045876E-02  -0.4191936757E-03  -0.4191936757E-03   0.8845785373E-09   0.0000000000E+00   0.1059637539E+01
   0.2018500000E+01   0.9980057970E+00   0.1994202982E-02   0.1000000000E-03  -0.1255485865E-04   0.1255485865E-04   0.1840000000E-01  -0.1981648123E-02   0.1981648123E-02   0.1068134092E+01   0.8498045875E-02   0.8498045875E-02   0.4191936755E-03  -0.4191936756E-03  -0.8845375759E-09   0.0000000000E+00   0.1059637539E+01
   0.2018500000E+01   0.1994202982E-02   0.9980057970E+00   0.1000000000E-03   0.1255485865E-04  -0.1255485865E-04   0.1840000000E-01   0.1981648123E-02  -0.1981648123E-02   0.1068134092E+01   0.8498045875E-02   0.8498045875E-02  -0.4191936756E-03   0.4191936755E-03  -0.8845375816E-09   0.0000000000E+00   0.1059637539E+01
   0.2018500000E+01   0.9980057970E+00   0.9980057970E+00   0.1000000000E-03  -0.1255485865E-04  -0.1255485865E-04   0.1840000000E-01  -0.1981648123E-02  -0.1981648123E-02   0.1068134092E+01   0.8498045875E-02   0.8498045875E-02   0.4191936755E-03   0.4191936755E-03   0.8844966094E-09   0.0000000000E+00   0.1059637539E+01
     1     2     3     4     5     6     7     8
     2     9    10     3     6    11    12     7
 VARIABLES = X,Y,Z,DU1,DU2,DU3,U1,U2,U3,S11,S22,S33,S12,S13,S23,Vf,SMISES
 ZONE, T="0.1860D+01" F=FEPOINT, I=   12 J=    2 ET=BRICK
   0.0000000000E+00   0.2501130366E-02   0.2501130366E-02   0.0000000000E+00   0.1209705024E-04   0.1209705024E-04   0.0000000000E+00   0.2489033316E-02   0.2489033316E-02   0.1053086388E+01  -0.7086922263E-02  -0.7086922263E-02  -0.3755332853E-03  -0.3755332853E-03   0.9327619244E-09   0.0000000000E+00   0.1060174508E+01
   0.1009794572E+01   0.2184361340E-02   0.2184361340E-02   0.5045129488E-04   0.1241264313E-04   0.1241264313E-04   0.9744120745E-02   0.2171948697E-02   0.2171948697E-02   0.1060221972E+01   0.2575363243E-03   0.2575363243E-03  -0.3784929258E-03  -0.3784929258E-03   0.8750414449E-09   0.0000000000E+00   0.1059965652E+01
   0.1009794572E+01   0.9978156387E+00   0.2184361340E-02   0.5045129488E-04  -0.1241264313E-04   0.1241264313E-04   0.9744120745E-02  -0.2171948697E-02   0.2171948697E-02   0.1060221972E+01   0.2575363243E-03   0.2575363243E-03   0.3784929258E-03  -0.3784929258E-03  -0.8750381689E-09   0.0000000000E+00   0.1059965652E+01
   0.0000000000E+00   0.9974988696E+00   0.2501130366E-02   0.0000000000E+00  -0.1209705024E-04   0.1209705024E-04   0.0000000000E+00  -0.2489033316E-02   0.2489033316E-02   0.1053086388E+01  -0.7086922263E-02  -0.7086922263E-02   0.3755332852E-03  -0.3755332853E-03  -0.9327862532E-09   0.0000000000E+00   0.1060174508E+01
   0.0000000000E+00   0.2501130366E-02   0.9974988696E+00   0.0000000000E+00   0.1209705024E-04  -0.1209705024E-04   0.0000000000E+00   0.2489033316E-02  -0.2489033316E-02   0.1053086388E+01  -0.7086922263E-02  -0.7086922263E-02  -0.3755332853E-03   0.3755332852E-03  -0.9327862564E-09   0.0000000000E+00   0.1060174508E+01
   0.1009794572E+01   0.2184361340E-02   0.9978156387E+00   0.5045129488E-04   0.1241264313E-04  -0.1241264313E-04   0.9744120745E-02   0.2171948697E-02  -0.2171948697E-02   0.1060221972E+01   0.2575363243E-03   0.2575363243E-03  -0.3784929258E-03   0.3784929258E-03  -0.8750381640E-09   0.0000000000E+00   0.1059965652E+01
   0.1009794572E+01   0.9978156387E+00   0.9978156387E+00   0.5045129488E-04  -0.1241264313E-04  -0.1241264313E-04   0.9744120745E-02  -0.2171948697E-02  -0.2171948697E-02   0.1060221972E+01   0.2575363243E-03   0.2575363243E-03   0.3784929258E-03   0.3784929258E-03   0.8750349076E-09   0.0000000000E+00   0.1059965652E+01
   0.0000000000E+00   0.9974988696E+00   0.9974988696E+00   0.0000000000E+00  -0.1209705024E-04  -0.1209705024E-04   0.0000000000E+00  -0.2489033316E-02  -0.2489033316E-02   0.1053086388E+01  -0.7086922262E-02  -0.7086922262E-02   0.3755332852E-03   0.3755332852E-03   0.9328105235E-09   0.0000000000E+00   0.1060174508E+01
   0.2018600000E+01   0.2006909669E-02   0.2006909669E-02   0.1000000000E-03   0.1270668694E-04   0.1270668694E-04   0.1850000000E-01   0.1994202982E-02   0.1994202982E-02   0.1067348863E+01   0.7606341170E-02   0.7606341170E-02  -0.3816592249E-03  -0.3816592249E-03   0.8218786733E-09   0.0000000000E+00   0.1059743759E+01
   0.2018600000E+01   0.9979930903E+00   0.2006909669E-02   0.1000000000E-03  -0.1270668694E-04   0.1270668694E-04   0.1850000000E-01  -0.1994202982E-02   0.1994202982E-02   0.1067348863E+01   0.7606341170E-02   0.7606341170E-02   0.3816592248E-03  -0.3816592248E-03  -0.8218414388E-09   0.0000000000E+00   0.1059743759E+01
   0.2018600000E+01   0.2006909669E-02   0.9979930903E+00   0.1000000000E-03   0.1270668694E-04  -0.1270668694E-04   0.1850000000E-01   0.1994202982E-02  -0.1994202982E-02   0.1067348863E+01   0.7606341170E-02   0.7606341170E-02  -0.3816592248E-03   0.3816592248E-03  -0.8218414430E-09   0.0000000000E+00   0.1059743759E+01
   0.2018600000E+01   0.9979930903E+00   0.9979930903E+00   0.1000000000E-03  -0.1270668694E-04  -0.1270668694E-04   0.1850000000E-01  -0.1994202982E-02  -0.1994202982E-02   0.1067348863E+01   0.7606341170E-02   0.7606341170E-02   0.3816592247E-03   0.3816592247E-03   0.8218042047E-09   0.0000000000E+00   0.1059743759E+01
     1     2     3     4     5     6     7     8
     2     9    10     3     6    11    12     7
 VARIABLES = X,Y,Z,DU1,DU2,DU3,U1,U2,U3,S11,S22,S33,S12,S13,S23,Vf,SMISES
 ZONE, T="0.1870D+01" F=FEPOINT, I=   12 J=    2 ET=BRICK
   0.0000000000E+00   0.2513099275E-02   0.2513099275E-02   0.0000000000E+00   0.1196890863E-04   0.1196890863E-04   0.0000000000E+00   0.2501130366E-02   0.2501130366E-02   0.1053753062E+01  -0.6370876770E-02  -0.6370876770E-02  -0.3203407830E-03  -0.3203407830E-03   0.8496792676E-09   0.0000000000E+00   0.1060124810E+01
   0.1009845146E+01   0.2196770023E-02   0.2196770023E-02   0.5057381885E-04   0.1240868245E-04   0.1240868245E-04   0.9794572040E-02   0.2184361340E-02   0.2184361340E-02   0.1059933591E+01  -0.5305740778E-04  -0.5305740778E-04  -0.3242378829E-03  -0.3242378829E-03   0.7956844917E-09   0.0000000000E+00   0.1059987541E+01
   0.1009845146E+01   0.9978032300E+00   0.2196770023E-02   0.5057381885E-04  -0.1240868245E-04   0.1240868245E-04   0.9794572040E-02  -0.2184361340E-02   0.2184361340E-02   0.1059933591E+01  -0.5305740778E-04  -0.5305740778E-04   0.3242378829E-03  -0.3242378829E-03  -0.7956827005E-09   0.0000000000E+00   0.1059987541E+01
   0.0000000000E+00   0.9974869007E+00   0.2513099275E-02   0.0000000000E+00  -0.1196890863E-04   0.1196890863E-04   0.0000000000E+00  -0.2501130366E-02   0.2501130366E-02   0.1053753062E+01  -0.6370876769E-02  -0.6370876769E-02   0.3203407829E-03  -0.3203407830E-03  -0.8497015811E-09   0.0000000000E+00   0.1060124810E+01
   0.0000000000E+00   0.2513099275E-02   0.9974869007E+00   0.0000000000E+00   0.1196890863E-04  -0.1196890863E-04   0.0000000000E+00   0.2501130366E-02  -0.2501130366E-02   0.1053753062E+01  -0.6370876769E-02  -0.6370876769E-02  -0.3203407830E-03   0.3203407829E-03  -0.8497015842E-09   0.0000000000E+00   0.1060124810E+01
   0.1009845146E+01   0.2196770023E-02   0.9978032300E+00   0.5057381885E-04   0.1240868245E-04  -0.1240868245E-04   0.9794572040E-02   0.2184361340E-02  -0.2184361340E-02   0.1059933591E+01  -0.5305740778E-04  -0.5305740778E-04  -0.3242378829E-03   0.3242378829E-03  -0.7956826948E-09   0.0000000000E+00   0.1059987541E+01
   0.1009845146E+01   0.9978032300E+00   0.9978032300E+00   0.5057381885E-04  -0.1240868245E-04  -0.1240868245E-04   0.9794572040E-02  -0.2184361340E-02  -0.2184361340E-02   0.1059933591E+01  -0.5305740778E-04  -0.5305740778E-04   0.3242378829E-03   0.3242378829E-03   0.7956809296E-09   0.0000000000E+00   0.1059987541E+01
   0.0000000000E+00   0.9974869007E+00   0.9974869007E+00   0.0000000000E+00  -0.1196890863E-04  -0.1196890863E-04   0.0000000000E+00  -0.2501130366E-02  -0.2501130366E-02   0.1053753062E+01  -0.6370876769E-02  -0.6370876769E-02   0.3203407829E-03   0.3203407829E-03   0.8497238460E-09   0.0000000000E+00   0.1060124810E+01
   0.2018700000E+01   0.2019735648E-02   0.2019735648E-02   0.1000000000E-03   0.1282597956E-04   0.1282597956E-04   0.1860000000E-01   0.2006909669E-02   0.2006909669E-02   0.1066104935E+01   0.6269354556E-02   0.6269354556E-02  -0.3283302071E-03  -0.3283302071E-03   0.7460302644E-09   0.0000000000E+00   0.1059836496E+01
   0.2018700000E+01   0.9979802644E+00   0.2019735648E-02   0.1000000000E-03  -0.1282597956E-04   0.1282597956E-04   0.1860000000E-01  -0.2006909668E-02   0.2006909669E-02   0.1066104935E+01   0.6269354556E-02   0.6269354555E-02   0.3283302070E-03  -0.3283302070E-03  -0.7459977625E-09   0.0000000000E+00   0.1059836496E+01
   0.2018700000E+01   0.2019735648E-02   0.9979802644E+00   0.1000000000E-03   0.1282597956E-04  -0.1282597956E-04   0.1860000000E-01   0.2006909669E-02  -0.2006909668E-02   0.1066104935E+01   0.6269354555E-02   0.6269354556E-02  -0.3283302070E-03   0.3283302070E-03  -0.7459977646E-09   0.0000000000E+00   0.1059836496E+01
   0.2018700000E+01   0.9979802644E+00   0.9979802644E+00   0.1000000000E-03  -0.1282597956E-04  -0.1282597956E-04   0.1860000000E-01  -0.2006909668E-02  -0.2006909668E-02   0.1066104935E+01   0.6269354555E-02   0.6269354555E-02   0.3283302069E-03   0.3283302069E-03   0.7459652646E-09   0.0000000000E+00   0.1059836496E+01
     1     2     3     4     5     6     7     8
     2     9    10     3     6    11    12     7
 VARIABLES = X,Y,Z,DU1,DU2,DU3,U1,U2,U3,S11,S22,S33,S12,S13,S23,Vf,SMISES
 ZONE, T="0.1880D+01" F=FEPOINT, I=   12 J=    2 ET=BRICK
   0.0000000000E+00   0.2524967262E-02   0.2524967262E-02   0.0000000000E+00   0.1186798714E-04   0.1186798714E-04   0.0000000000E+00   0.2513099275E-02   0.2513099275E-02   0.1054790804E+01  -0.5277058269E-02  -0.5277058269E-02  -0.2532643739E-03  -0.2532643739E-03   0.7636426029E-09   0.0000000000E+00   0.1060068407E+01
   0.1009895812E+01   0.2209169016E-02   0.2209169016E-02   0.5066577109E-04   0.1239899324E-04   0.1239899324E-04   0.9845145859E-02   0.2196770023E-02   0.2196770023E-02   0.1059649334E+01  -0.3464040499E-03  -0.3464040499E-03  -0.2580922692E-03  -0.2580922692E-03   0.7128061461E-09   0.0000000000E+00   0.1059996304E+01
   0.1009895812E+01   0.9977908310E+00   0.2209169016E-02   0.5066577109E-04  -0.1239899324E-04   0.1239899324E-04   0.9845145859E-02  -0.2196770023E-02   0.2196770023E-02   0.1059649334E+01  -0.3464040499E-03  -0.3464040499E-03   0.2580922692E-03  -0.2580922692E-03  -0.7128057424E-09   0.0000000000E+00   0.1059996304E+01
   0.0000000000E+00   0.9974750327E+00   0.2524967262E-02   0.0000000000E+00  -0.1186798714E-04   0.1186798714E-04   0.0000000000E+00  -0.2513099275E-02   0.2513099275E-02   0.1054790804E+01  -0.5277058269E-02  -0.5277058269E-02   0.2532643738E-03  -0.2532643739E-03  -0.7636620567E-09   0.0000000000E+00   0.1060068407E+01
   0.0000000000E+00   0.2524967262E-02   0.9974750327E+00   0.0000000000E+00   0.1186798714E-04  -0.1186798714E-04   0.0000000000E+00   0.2513099275E-02  -0.2513099275E-02   0.1054790804E+01  -0.5277058269E-02  -0.5277058269E-02  -0.2532643739E-03   0.2532643738E-03  -0.7636620587E-09   0.0000000000E+00   0.1060068407E+01
   0.1009895812E+01   0.2209169016E-02   0.9977908310E+00   0.5066577109E-04   0.1239899324E-04  -0.1239899324E-04   0.9845145859E-02   0.2196770023E-02  -0.2196770023E-02   0.1059649334E+01  -0.3464040499E-03  -0.3464040499E-03  -0.2580922692E-03   0.2580922692E-03  -0.7128057360E-09   0.0000000000E+00   0.1059996304E+01
   0.1009895812E+01   0.9977908310E+00   0.9977908310E+00   0.5066577109E-04  -0.1239899324E-04  -0.1239899324E-04   0.9845145859E-02  -0.2196770023E-02  -0.2196770023E-02   0.1059649334E+01  -0.3464040499E-03  -0.3464040499E-03   0.2580922692E-03   0.2580922692E-03   0.7128053630E-09   0.0000000000E+00   0.1059996304E+01
   0.0000000000E+00   0.9974750327E+00   0.9974750327E+00   0.0000000000E+00  -0.1186798714E-04  -0.1186798714E-04   0.0000000000E+00  -0.2513099275E-02  -0.2513099275E-02   0.1054790804E+01  -0.5277058269E-02  -0.5277058269E-02   0.2532643738E-03   0.2532643738E-03   0.7636814720E-09   0.0000000000E+00   0.1060068407E+01
   0.2018800000E+01   0.2032642314E-02   0.2032642314E-02   0.1000000000E-03   0.1290666597E-04   0.1290666597E-04   0.1870000000E-01   0.2019735648E-02   0.2019735648E-02   0.1064498223E+01   0.4589070226E-02   0.4589070226E-02  -0.2631022926E-03  -0.2631022926E-03   0.6661043544E-09   0.0000000000E+00   0.1059909741E+01
   0.2018800000E+01   0.9979673577E+00   0.2032642314E-02   0.1000000000E-03  -0.1290666597E-04   0.1290666597E-04   0.1870000000E-01  -0.2019735648E-02   0.2019735648E-02   0.1064498223E+01   0.4589070226E-02   0.4589070226E-02   0.2631022925E-03  -0.2631022925E-03  -0.6660772786E-09   0.0000000000E+00   0.1059909741E+01
   0.2018800000E+01   0.2032642314E-02   0.9979673577E+00   0.1000000000E-03   0.1290666597E-04  -0.1290666597E-04   0.1870000000E-01   0.2019735648E-02  -0.2019735648E-02   0.1064498223E+01   0.4589070226E-02   0.4589070226E-02  -0.2631022925E-03   0.2631022925E-03  -0.6660772790E-09   0.0000000000E+00   0.1059909741E+01
   0.2018800000E+01   0.9979673577E+00   0.9979673577E+00   0.1000000000E-03  -0.1290666597E-04  -0.1290666597E-04   0.1870000000E-01  -0.2019735648E-02  -0.2019735648E-02   0.1064498223E+01   0.4589070225E-02   0.4589070225E-02   0.2631022925E-03   0.2631022925E-03   0.6660502084E-09   0.0000000000E+00   0.1059909741E+01
     1     2     3     4     5     6     7     8
     2     9    10     3     6    11    12     7
 VARIABLES = X,Y,Z,DU1,DU2,DU3,U1,U2,U3,S11,S22,S33,S12,S13,S23,Vf,SMISES
 ZONE, T="0.1890D+01" F=FEPOINT, I=   12 J=    2 ET=BRICK
   0.0000000000E+00   0.2536767035E-02   0.2536767035E-02   0.0000000000E+00   0.1179977351E-04   0.1179977351E-04   0.0000000000E+00   0.2524967262E-02   0.2524967262E-02   0.1056130001E+01  -0.3878676049E-02  -0.3878676049E-02  -0.1787880206E-03  -0.1787880206E-03   0.6837864486E-09   0.0000000000E+00   0.1060008948E+01
   0.1009946534E+01   0.2221553621E-02   0.2221553621E-02   0.5072274453E-04   0.1238460538E-04   0.1238460538E-04   0.9895811630E-02   0.2209169016E-02   0.2209169016E-02   0.1059391444E+01  -0.5998733661E-03  -0.5998733661E-03  -0.1845420625E-03  -0.1845420625E-03   0.6355025325E-09   0.0000000000E+00   0.1059991606E+01
   0.1009946534E+01   0.9977784464E+00   0.2221553621E-02   0.5072274453E-04  -0.1238460538E-04   0.1238460538E-04   0.9895811630E-02  -0.2209169016E-02   0.2209169016E-02   0.1059391444E+01  -0.5998733661E-03  -0.5998733661E-03   0.1845420625E-03  -0.1845420625E-03  -0.6355033607E-09   0.0000000000E+00   0.1059991606E+01
   0.0000000000E+00   0.9974632330E+00   0.2536767035E-02   0.0000000000E+00  -0.1179977351E-04   0.1179977351E-04   0.0000000000E+00  -0.2524967262E-02   0.2524967262E-02   0.1056130001E+01  -0.3878676049E-02  -0.3878676049E-02   0.1787880205E-03  -0.1787880206E-03  -0.6838024115E-09   0.0000000000E+00   0.1060008948E+01
   0.0000000000E+00   0.2536767035E-02   0.9974632330E+00   0.0000000000E+00   0.1179977351E-04  -0.1179977351E-04   0.0000000000E+00   0.2524967262E-02  -0.2524967262E-02   0.1056130001E+01  -0.3878676049E-02  -0.3878676049E-02  -0.1787880206E-03   0.1787880205E-03  -0.6838024128E-09   0.0000000000E+00   0.1060008948E+01
   0.1009946534E+01   0.2221553621E-02   0.9977784464E+00   0.5072274453E-04   0.1238460538E-04  -0.1238460538E-04   0.9895811630E-02   0.2209169016E-02  -0.2209169016E-02   0.1059391444E+01  -0.5998733661E-03  -0.5998733661E-03  -0.1845420625E-03   0.1845420625E-03  -0.6355033536E-09   0.0000000000E+00   0.1059991606E+01
   0.1009946534E+01   0.9977784464E+00   0.9977784464E+00   0.5072274453E-04  -0.1238460538E-04  -0.1238460538E-04   0.9895811630E-02  -0.2209169016E-02  -0.2209169016E-02   0.1059391443E+01  -0.5998733660E-03  -0.5998733660E-03   0.1845420625E-03   0.1845420625E-03   0.6355042122E-09   0.0000000000E+00   0.1059991606E+01
   0.0000000000E+00   0.9974632330E+00   0.9974632330E+00   0.0000000000E+00  -0.1179977351E-04  -0.1179977351E-04   0.0000000000E+00  -0.2524967262E-02  -0.2524967262E-02   0.1056130001E+01  -0.3878676049E-02  -0.3878676049E-02   0.1787880205E-03   0.1787880205E-03   0.6838183458E-09   0.0000000000E+00   0.1060008948E+01
   0.2018900000E+01   0.2045587629E-02   0.2045587629E-02   0.1000000000E-03   0.1294531534E-04   0.1294531534E-04   0.1880000000E-01   0.2032642314E-02   0.2032642314E-02   0.1062642823E+01   0.2683960977E-02   0.2683960977E-02  -0.1904636488E-03  -0.1904636488E-03   0.5911599385E-09   0.0000000000E+00   0.1059959170E+01
   0.2018900000E+01   0.9979544124E+00   0.2045587629E-02   0.1000000000E-03  -0.1294531534E-04   0.1294531534E-04   0.1880000000E-01  -0.2032642314E-02   0.2032642314E-02   0.1062642823E+01   0.2683960977E-02   0.2683960977E-02   0.1904636487E-03  -0.1904636488E-03  -0.5911386476E-09   0.0000000000E+00   0.1059959170E+01
   0.2018900000E+01   0.2045587629E-02   0.9979544124E+00   0.1000000000E-03   0.1294531534E-04  -0.1294531534E-04   0.1880000000E-01   0.2032642314E-02  -0.2032642314E-02   0.1062642823E+01   0.2683960977E-02   0.2683960977E-02  -0.1904636488E-03   0.1904636487E-03  -0.5911386464E-09   0.0000000000E+00   0.1059959170E+01
   0.2018900000E+01   0.9979544124E+00   0.9979544124E+00   0.1000000000E-03  -0.1294531534E-04  -0.1294531534E-04   0.1880000000E-01  -0.2032642314E-02  -0.2032642314E-02   0.1062642823E+01   0.2683960976E-02   0.2683960976E-02   0.1904636487E-03   0.1904636487E-03   0.5911173599E-09   0.0000000000E+00   0.1059959170E+01
     1     2     3     4     5     6     7     8
     2     9    10     3     6    11    12     7
 VARIABLES = X,Y,Z,DU1,DU2,DU3,U1,U2,U3,S11,S22,S33,S12,S13,S23,Vf,SMISES
 ZONE, T="0.1900D+01" F=FEPOINT, I=   12 J=    2 ET=BRICK
   0.0000000000E+00   0.2548534703E-02   0.2548534703E-02   0.0000000000E+00   0.1176766749E-04   0.1176766749E-04   0.0000000000E+00   0.2536767035E-02   0.2536767035E-02   0.1057684153E+01  -0.2266171760E-02  -0.2266171760E-02  -0.1016956531E-03  -0.1016956531E-03   0.6171578752E-09   0.0000000000E+00   0.1059950413E+01
   0.1009997277E+01   0.2233920491E-02   0.2233920491E-02   0.5074258846E-04   0.1236686942E-04   0.1236686942E-04   0.9946534375E-02   0.2221553621E-02   0.2221553621E-02   0.1059178853E+01  -0.7952573173E-03  -0.7952573173E-03  -0.1083728735E-03  -0.1083728735E-03   0.5708323828E-09   0.0000000000E+00   0.1059974211E+01
   0.1009997277E+01   0.9977660795E+00   0.2233920491E-02   0.5074258846E-04  -0.1236686942E-04   0.1236686942E-04   0.9946534375E-02  -0.2221553621E-02   0.2221553621E-02   0.1059178853E+01  -0.7952573173E-03  -0.7952573173E-03   0.1083728735E-03  -0.1083728735E-03  -0.5708342383E-09   0.0000000000E+00   0.1059974211E+01
   0.0000000000E+00   0.9974514653E+00   0.2548534703E-02   0.0000000000E+00  -0.1176766749E-04   0.1176766749E-04   0.0000000000E+00  -0.2536767035E-02   0.2536767035E-02   0.1057684153E+01  -0.2266171760E-02  -0.2266171760E-02   0.1016956530E-03  -0.1016956531E-03  -0.6171699597E-09   0.0000000000E+00   0.1059950413E+01
   0.0000000000E+00   0.2548534703E-02   0.9974514653E+00   0.0000000000E+00   0.1176766749E-04  -0.1176766749E-04   0.0000000000E+00   0.2536767035E-02  -0.2536767035E-02   0.1057684153E+01  -0.2266171760E-02  -0.2266171760E-02  -0.1016956531E-03   0.1016956530E-03  -0.6171699599E-09   0.0000000000E+00   0.1059950413E+01
   0.1009997277E+01   0.2233920491E-02   0.9977660795E+00   0.5074258846E-04   0.1236686942E-04  -0.1236686942E-04   0.9946534375E-02   0.2221553621E-02  -0.2221553621E-02   0.1059178853E+01  -0.7952573173E-03  -0.7952573173E-03  -0.1083728735E-03   0.1083728735E-03  -0.5708342299E-09   0.0000000000E+00   0.1059974211E+01
   0.1009997277E+01   0.9977660795E+00   0.9977660795E+00   0.5074258846E-04  -0.1236686942E-04  -0.1236686942E-04   0.9946534375E-02  -0.2221553621E-02  -0.2221553621E-02   0.1059178853E+01  -0.7952573172E-03  -0.7952573172E-03   0.1083728735E-03   0.1083728735E-03   0.5708361173E-09   0.0000000000E+00   0.1059974211E+01
   0.0000000000E+00   0.9974514653E+00   0.9974514653E+00   0.0000000000E+00  -0.1176766749E-04  -0.1176766749E-04   0.0000000000E+00  -0.2536767035E-02  -0.2536767035E-02   0.1057684153E+01  -0.2266171760E-02  -0.2266171760E-02   0.1016956530E-03   0.1016956530E-03   0.6171820232E-09   0.0000000000E+00   0.1059950413E+01
   0.2019000000E+01   0.2058528856E-02   0.2058528856E-02   0.1000000000E-03   0.1294122701E-04   0.1294122701E-04   0.1890000000E-01   0.2045587629E-02   0.2045587629E-02   0.1060663096E+01   0.6808858397E-03   0.6808858397E-03  -0.1152019053E-03  -0.1152019053E-03   0.5282685349E-09   0.0000000000E+00   0.1059982323E+01
   0.2019000000E+01   0.9979414711E+00   0.2058528856E-02   0.1000000000E-03  -0.1294122701E-04   0.1294122701E-04   0.1890000000E-01  -0.2045587629E-02   0.2045587629E-02   0.1060663096E+01   0.6808858397E-03   0.6808858397E-03   0.1152019053E-03  -0.1152019053E-03  -0.5282530478E-09   0.0000000000E+00   0.1059982323E+01
   0.2019000000E+01   0.2058528856E-02   0.9979414711E+00   0.1000000000E-03   0.1294122701E-04  -0.1294122701E-04   0.1890000000E-01   0.2045587629E-02  -0.2045587629E-02   0.1060663096E+01   0.6808858397E-03   0.6808858397E-03  -0.1152019053E-03   0.1152019053E-03  -0.5282530439E-09   0.0000000000E+00   0.1059982323E+01
   0.2019000000E+01   0.9979414711E+00   0.9979414711E+00   0.1000000000E-03  -0.1294122701E-04  -0.1294122701E-04   0.1890000000E-01  -0.2045587629E-02  -0.2045587629E-02   0.1060663096E+01   0.6808858397E-03   0.6808858397E-03   0.1152019052E-03   0.1152019052E-03   0.5282375630E-09   0.0000000000E+00   0.1059982323E+01
     1     2     3     4     5     6     7     8
     2     9    10     3     6    11    12     7
 VARIABLES = X,Y,Z,DU1,DU2,DU3,U1,U2,U3,S11,S22,S33,S12,S13,S23,Vf,SMISES
 ZONE, T="0.1910D+01" F=FEPOINT, I=   12 J=    2 ET=BRICK
   0.0000000000E+00   0.2560307514E-02   0.2560307514E-02   0.0000000000E+00   0.1177281105E-04   0.1177281105E-04   0.0000000000E+00   0.2548534703E-02   0.2548534703E-02   0.1059355361E+01  -0.5414536369E-03  -0.5414536369E-03  -0.2677280573E-04  -0.2677280573E-04   0.5673783990E-09   0.0000000000E+00   0.1059896821E+01
   0.1010048002E+01   0.2246267821E-02   0.2246267821E-02   0.5072546341E-04   0.1234733081E-04   0.1234733081E-04   0.9997276963E-02   0.2233920491E-02   0.2233920491E-02   0.1059025845E+01  -0.9199960517E-03  -0.9199960517E-03  -0.3437045859E-04  -0.3437045859E-04   0.5224788015E-09   0.0000000000E+00   0.1059945852E+01
   0.1010048002E+01   0.9977537322E+00   0.2246267821E-02   0.5072546341E-04  -0.1234733081E-04   0.1234733081E-04   0.9997276963E-02  -0.2233920491E-02   0.2233920491E-02   0.1059025845E+01  -0.9199960517E-03  -0.9199960517E-03   0.3437045864E-04  -0.3437045859E-04  -0.5224814514E-09   0.0000000000E+00   0.1059945852E+01
   0.0000000000E+00   0.9974396925E+00   0.2560307514E-02   0.0000000000E+00  -0.1177281105E-04   0.1177281105E-04   0.0000000000E+00  -0.2548534703E-02   0.2548534703E-02   0.1059355361E+01  -0.5414536368E-03  -0.5414536368E-03   0.2677280569E-04  -0.2677280573E-04  -0.5673864763E-09   0.0000000000E+00   0.1059896821E+01
   0.0000000000E+00   0.2560307514E-02   0.9974396925E+00   0.0000000000E+00   0.1177281105E-04  -0.1177281105E-04   0.0000000000E+00   0.2548534703E-02  -0.2548534703E-02   0.1059355361E+01  -0.5414536368E-03  -0.5414536368E-03  -0.2677280573E-04   0.2677280569E-04  -0.5673864752E-09   0.0000000000E+00   0.1059896821E+01
   0.1010048002E+01   0.2246267821E-02   0.9977537322E+00   0.5072546341E-04   0.1234733081E-04  -0.1234733081E-04   0.9997276963E-02   0.2233920491E-02  -0.2233920491E-02   0.1059025845E+01  -0.9199960517E-03  -0.9199960517E-03  -0.3437045859E-04   0.3437045864E-04  -0.5224814419E-09   0.0000000000E+00   0.1059945852E+01
   0.1010048002E+01   0.9977537322E+00   0.9977537322E+00   0.5072546341E-04  -0.1234733081E-04  -0.1234733081E-04   0.9997276963E-02  -0.2233920491E-02  -0.2233920491E-02   0.1059025845E+01  -0.9199960517E-03  -0.9199960517E-03   0.3437045863E-04   0.3437045863E-04   0.5224841231E-09   0.0000000000E+00   0.1059945851E+01
   0.0000000000E+00   0.9974396925E+00   0.9974396925E+00   0.0000000000E+00  -0.1177281105E-04  -0.1177281105E-04   0.0000000000E+00  -0.2548534703E-02  -0.2548534703E-02   0.1059355361E+01  -0.5414536368E-03  -0.5414536368E-03   0.2677280569E-04   0.2677280569E-04   0.5673945375E-09   0.0000000000E+00   0.1059896821E+01
   0.2019100000E+01   0.2071425205E-02   0.2071425205E-02   0.1000000000E-03   0.1289634862E-04   0.1289634862E-04   0.1900000000E-01   0.2058528856E-02   0.2058528856E-02   0.1058685506E+01  -0.1293126871E-02  -0.1293126871E-02  -0.4210352532E-04  -0.4210352532E-04   0.4811753935E-09   0.0000000000E+00   0.1059978648E+01
   0.2019100000E+01   0.9979285748E+00   0.2071425205E-02   0.1000000000E-03  -0.1289634862E-04   0.1289634862E-04   0.1900000000E-01  -0.2058528856E-02   0.2058528856E-02   0.1058685506E+01  -0.1293126871E-02  -0.1293126871E-02   0.4210352528E-04  -0.4210352532E-04  -0.4811654106E-09   0.0000000000E+00   0.1059978648E+01
   0.2019100000E+01   0.2071425205E-02   0.9979285748E+00   0.1000000000E-03   0.1289634862E-04  -0.1289634862E-04   0.1900000000E-01   0.2058528856E-02  -0.2058528856E-02   0.1058685506E+01  -0.1293126871E-02  -0.1293126871E-02  -0.4210352532E-04   0.4210352528E-04  -0.4811654046E-09   0.0000000000E+00   0.1059978648E+01
   0.2019100000E+01   0.9979285748E+00   0.9979285748E+00   0.1000000000E-03  -0.1289634862E-04  -0.1289634862E-04   0.1900000000E-01  -0.2058528856E-02  -0.2058528856E-02   0.1058685506E+01  -0.1293126871E-02  -0.1293126871E-02   0.4210352528E-04   0.4210352528E-04   0.4811554279E-09   0.0000000000E+00   0.1059978648E+01
     1     2     3     4     5     6     7     8
     2     9    10     3     6    11    12     7
 VARIABLES = X,Y,Z,DU1,DU2,DU3,U1,U2,U3,S11,S22,S33,S12,S13,S23,Vf,SMISES
 ZONE, T="0.1920D+01" F=FEPOINT, I=   12 J=    2 ET=BRICK
   0.0000000000E+00   0.2572121573E-02   0.2572121573E-02   0.0000000000E+00   0.1181405952E-04   0.1181405952E-04   0.0000000000E+00   0.2560307514E-02   0.2560307514E-02   0.1061040430E+01   0.1188509654E-02   0.1188509654E-02   0.4148199354E-04   0.4148199354E-04   0.5342084639E-09   0.0000000000E+00   0.1059851935E+01
   0.1010098676E+01   0.2258595417E-02   0.2258595417E-02   0.5067375441E-04   0.1232759520E-04   0.1232759520E-04   0.1004800243E-01   0.2246267821E-02   0.2246267821E-02   0.1058941151E+01  -0.9678833775E-03  -0.9678833775E-03   0.3296842964E-04   0.3296842964E-04   0.4903101187E-09   0.0000000000E+00   0.1059909044E+01
   0.1010098676E+01   0.9977414046E+00   0.2258595417E-02   0.5067375441E-04  -0.1232759520E-04   0.1232759520E-04   0.1004800243E-01  -0.2246267821E-02   0.2246267821E-02   0.1058941151E+01  -0.9678833775E-03  -0.9678833775E-03  -0.3296842959E-04   0.3296842964E-04  -0.4903133182E-09   0.0000000000E+00   0.1059909044E+01
   0.0000000000E+00   0.9974278784E+00   0.2572121573E-02   0.0000000000E+00  -0.1181405952E-04   0.1181405952E-04   0.0000000000E+00  -0.2560307514E-02   0.2560307514E-02   0.1061040430E+01   0.1188509654E-02   0.1188509654E-02  -0.4148199358E-04   0.4148199354E-04  -0.5342126615E-09   0.0000000000E+00   0.1059851935E+01
   0.0000000000E+00   0.2572121573E-02   0.9974278784E+00   0.0000000000E+00   0.1181405952E-04  -0.1181405952E-04   0.0000000000E+00   0.2560307514E-02  -0.2560307514E-02   0.1061040430E+01   0.1188509654E-02   0.1188509654E-02   0.4148199354E-04  -0.4148199358E-04  -0.5342126596E-09   0.0000000000E+00   0.1059851935E+01
   0.1010098676E+01   0.2258595417E-02   0.9977414046E+00   0.5067375441E-04   0.1232759520E-04  -0.1232759520E-04   0.1004800243E-01   0.2246267821E-02  -0.2246267821E-02   0.1058941151E+01  -0.9678833775E-03  -0.9678833775E-03   0.3296842964E-04  -0.3296842959E-04  -0.4903133075E-09   0.0000000000E+00   0.1059909044E+01
   0.1010098676E+01   0.9977414046E+00   0.9977414046E+00   0.5067375441E-04  -0.1232759520E-04  -0.1232759520E-04   0.1004800243E-01  -0.2246267821E-02  -0.2246267821E-02   0.1058941151E+01  -0.9678833774E-03  -0.9678833774E-03  -0.3296842959E-04  -0.3296842959E-04   0.4903165396E-09   0.0000000000E+00   0.1059909044E+01
   0.0000000000E+00   0.9974278784E+00   0.9974278784E+00   0.0000000000E+00  -0.1181405952E-04  -0.1181405952E-04   0.0000000000E+00  -0.2560307514E-02  -0.2560307514E-02   0.1061040430E+01   0.1188509653E-02   0.1188509653E-02  -0.4148199358E-04  -0.4148199358E-04   0.5342168503E-09   0.0000000000E+00   0.1059851935E+01
   0.2019200000E+01   0.2084240241E-02   0.2084240241E-02   0.1000000000E-03   0.1281503567E-04   0.1281503567E-04   0.1910000000E-01   0.2071425205E-02   0.2071425205E-02   0.1056830711E+01  -0.3118695715E-02  -0.3118695715E-02   0.2433591299E-04   0.2433591299E-04   0.4498563938E-09   0.0000000000E+00   0.1059949412E+01
   0.2019200000E+01   0.9979157598E+00   0.2084240241E-02   0.1000000000E-03  -0.1281503567E-04   0.1281503567E-04   0.1910000000E-01  -0.2071425205E-02   0.2071425205E-02   0.1056830711E+01  -0.3118695715E-02  -0.3118695715E-02  -0.2433591302E-04   0.2433591300E-04  -0.4498513337E-09   0.0000000000E+00   0.1059949412E+01
   0.2019200000E+01   0.2084240241E-02   0.9979157598E+00   0.1000000000E-03   0.1281503567E-04  -0.1281503567E-04   0.1910000000E-01   0.2071425205E-02  -0.2071425205E-02   0.1056830711E+01  -0.3118695715E-02  -0.3118695715E-02   0.2433591300E-04  -0.2433591302E-04  -0.4498513253E-09   0.0000000000E+00   0.1059949412E+01
   0.2019200000E+01   0.9979157598E+00   0.9979157598E+00   0.1000000000E-03  -0.1281503567E-04  -0.1281503567E-04   0.1910000000E-01  -0.2071425205E-02  -0.2071425205E-02   0.1056830711E+01  -0.3118695715E-02  -0.3118695715E-02  -0.2433591303E-04  -0.2433591303E-04   0.4498462728E-09   0.0000000000E+00   0.1059949412E+01
     1     2     3     4     5     6     7     8
     2     9    10     3     6    11    12     7
 VARIABLES = X,Y,Z,DU1,DU2,DU3,U1,U2,U3,S11,S22,S33,S12,S13,S23,Vf,SMISES
 ZONE, T="0.1930D+01" F=FEPOINT, I=   12 J=    2 ET=BRICK
   0.0000000000E+00   0.2584009667E-02   0.2584009667E-02   0.0000000000E+00   0.1188809341E-04   0.1188809341E-04   0.0000000000E+00   0.2572121573E-02   0.2572121573E-02   0.1062637225E+01   0.2818330486E-02   0.2818330486E-02   0.9911916710E-04   0.9911916710E-04   0.5140449764E-09   0.0000000000E+00   0.1059818978E+01
   0.1010149268E+01   0.2270904613E-02   0.2270904613E-02   0.5059185279E-04   0.1230919618E-04   0.1230919618E-04   0.1009867618E-01   0.2258595417E-02   0.2258595417E-02   0.1058927550E+01  -0.9392230408E-03  -0.9392230408E-03   0.8969788571E-04   0.8969788571E-04   0.4708699349E-09   0.0000000000E+00   0.1059866842E+01
   0.1010149268E+01   0.9977290954E+00   0.2270904613E-02   0.5059185279E-04  -0.1230919618E-04   0.1230919618E-04   0.1009867618E-01  -0.2258595417E-02   0.2258595417E-02   0.1058927550E+01  -0.9392230407E-03  -0.9392230407E-03  -0.8969788565E-04   0.8969788570E-04  -0.4708734479E-09   0.0000000000E+00   0.1059866842E+01
   0.0000000000E+00   0.9974159903E+00   0.2584009667E-02   0.0000000000E+00  -0.1188809341E-04   0.1188809341E-04   0.0000000000E+00  -0.2572121573E-02   0.2572121573E-02   0.1062637225E+01   0.2818330486E-02   0.2818330486E-02  -0.9911916713E-04   0.9911916709E-04  -0.5140456652E-09   0.0000000000E+00   0.1059818978E+01
   0.0000000000E+00   0.2584009667E-02   0.9974159903E+00   0.0000000000E+00   0.1188809341E-04  -0.1188809341E-04   0.0000000000E+00   0.2572121573E-02  -0.2572121573E-02   0.1062637225E+01   0.2818330486E-02   0.2818330486E-02   0.9911916709E-04  -0.9911916713E-04  -0.5140456632E-09   0.0000000000E+00   0.1059818978E+01
   0.1010149268E+01   0.2270904613E-02   0.9977290954E+00   0.5059185279E-04   0.1230919618E-04  -0.1230919618E-04   0.1009867618E-01   0.2258595417E-02  -0.2258595417E-02   0.1058927550E+01  -0.9392230407E-03  -0.9392230407E-03   0.8969788570E-04  -0.8969788565E-04  -0.4708734364E-09   0.0000000000E+00   0.1059866842E+01
   0.1010149268E+01   0.9977290954E+00   0.9977290954E+00   0.5059185279E-04  -0.1230919618E-04  -0.1230919618E-04   0.1009867618E-01  -0.2258595417E-02  -0.2258595417E-02   0.1058927550E+01  -0.9392230407E-03  -0.9392230407E-03  -0.8969788565E-04  -0.8969788565E-04   0.4708769805E-09   0.0000000000E+00   0.1059866842E+01
   0.0000000000E+00   0.9974159903E+00   0.9974159903E+00   0.0000000000E+00  -0.1188809341E-04  -0.1188809341E-04   0.0000000000E+00  -0.2572121573E-02  -0.2572121573E-02   0.1062637225E+01   0.2818330486E-02   0.2818330486E-02  -0.9911916712E-04  -0.9911916712E-04   0.5140463522E-09   0.0000000000E+00   0.1059818977E+01
   0.2019300000E+01   0.2096943916E-02   0.2096943916E-02   0.1000000000E-03   0.1270367512E-04   0.1270367512E-04   0.1920000000E-01   0.2084240241E-02   0.2084240241E-02   0.1055206402E+01  -0.4691039385E-02  -0.4691039385E-02   0.8017350069E-04   0.8017350069E-04   0.4310004814E-09   0.0000000000E+00   0.1059897496E+01
   0.2019300000E+01   0.9979030561E+00   0.2096943916E-02   0.1000000000E-03  -0.1270367511E-04   0.1270367512E-04   0.1920000000E-01  -0.2084240241E-02   0.2084240241E-02   0.1055206402E+01  -0.4691039385E-02  -0.4691039385E-02  -0.8017350071E-04   0.8017350069E-04  -0.4309995330E-09   0.0000000000E+00   0.1059897496E+01
   0.2019300000E+01   0.2096943916E-02   0.9979030561E+00   0.1000000000E-03   0.1270367512E-04  -0.1270367511E-04   0.1920000000E-01   0.2084240241E-02  -0.2084240241E-02   0.1055206402E+01  -0.4691039385E-02  -0.4691039385E-02   0.8017350069E-04  -0.8017350071E-04  -0.4309995227E-09   0.0000000000E+00   0.1059897496E+01
   0.2019300000E+01   0.9979030561E+00   0.9979030561E+00   0.1000000000E-03  -0.1270367511E-04  -0.1270367511E-04   0.1920000000E-01  -0.2084240241E-02  -0.2084240241E-02   0.1055206402E+01  -0.4691039385E-02  -0.4691039385E-02  -0.8017350071E-04  -0.8017350071E-04   0.4309985817E-09   0.0000000000E+00   0.1059897496E+01
     1     2     3     4     5     6     7     8
     2     9    10     3     6    11    12     7
 VARIABLES = X,Y,Z,DU1,DU2,DU3,U1,U2,U3,S11,S22,S33,S12,S13,S23,Vf,SMISES
 ZONE, T="0.1940D+01" F=FEPOINT, I=   12 J=    2 ET=BRICK
   0.0000000000E+00   0.2595999329E-02   0.2595999329E-02   0.0000000000E+00   0.1198966213E-04   0.1198966213E-04   0.0000000000E+00   0.2584009667E-02   0.2584009667E-02   0.1064050865E+01   0.4250661412E-02   0.4250661412E-02   0.1429585454E-03   0.1429585454E-03   0.5011625301E-09   0.0000000000E+00   0.1059800377E+01
   0.1010199754E+01   0.2283198089E-02   0.2283198089E-02   0.5048582392E-04   0.1229347596E-04   0.1229347596E-04   0.1014926803E-01   0.2270904613E-02   0.2270904613E-02   0.1058981962E+01  -0.8404529749E-03  -0.8404529749E-03   0.1326426721E-03   0.1326426721E-03   0.4586067631E-09   0.0000000000E+00   0.1059822565E+01
   0.1010199754E+01   0.9977168019E+00   0.2283198089E-02   0.5048582392E-04  -0.1229347596E-04   0.1229347596E-04   0.1014926803E-01  -0.2270904613E-02   0.2270904613E-02   0.1058981962E+01  -0.8404529749E-03  -0.8404529749E-03  -0.1326426720E-03   0.1326426720E-03  -0.4586103746E-09   0.0000000000E+00   0.1059822565E+01
   0.0000000000E+00   0.9974040007E+00   0.2595999329E-02   0.0000000000E+00  -0.1198966213E-04   0.1198966213E-04   0.0000000000E+00  -0.2584009667E-02   0.2584009667E-02   0.1064050865E+01   0.4250661412E-02   0.4250661412E-02  -0.1429585454E-03   0.1429585453E-03  -0.5011602933E-09   0.0000000000E+00   0.1059800377E+01
   0.0000000000E+00   0.2595999329E-02   0.9974040007E+00   0.0000000000E+00   0.1198966213E-04  -0.1198966213E-04   0.0000000000E+00   0.2584009667E-02  -0.2584009667E-02   0.1064050865E+01   0.4250661412E-02   0.4250661412E-02   0.1429585453E-03  -0.1429585454E-03  -0.5011602910E-09   0.0000000000E+00   0.1059800377E+01
   0.1010199754E+01   0.2283198089E-02   0.9977168019E+00   0.5048582392E-04   0.1229347596E-04  -0.1229347596E-04   0.1014926803E-01   0.2270904613E-02  -0.2270904613E-02   0.1058981962E+01  -0.8404529749E-03  -0.8404529749E-03   0.1326426720E-03  -0.1326426720E-03  -0.4586103623E-09   0.0000000000E+00   0.1059822565E+01
   0.1010199754E+01   0.9977168019E+00   0.9977168019E+00   0.5048582392E-04  -0.1229347596E-04  -0.1229347596E-04   0.1014926803E-01  -0.2270904613E-02  -0.2270904613E-02   0.1058981962E+01  -0.8404529748E-03  -0.8404529748E-03  -0.1326426720E-03  -0.1326426720E-03   0.4586140048E-09   0.0000000000E+00   0.1059822565E+01
   0.0000000000E+00   0.9974040007E+00   0.9974040007E+00   0.0000000000E+00  -0.1198966213E-04  -0.1198966213E-04   0.0000000000E+00  -0.2584009667E-02  -0.2584009667E-02   0.1064050865E+01   0.4250661412E-02   0.4250661412E-02  -0.1429585454E-03  -0.1429585454E-03   0.5011580616E-09   0.0000000000E+00   0.1059800377E+01
   0.2019400000E+01   0.2109514119E-02   0.2109514119E-02   0.1000000000E-03   0.1257020277E-04   0.1257020277E-04   0.1930000000E-01   0.2096943916E-02   0.2096943916E-02   0.1053901292E+01  -0.5925683970E-02  -0.5925683970E-02   0.1222382314E-03   0.1222382314E-03   0.4192278548E-09   0.0000000000E+00   0.1059827103E+01
   0.2019400000E+01   0.9978904859E+00   0.2109514119E-02   0.1000000000E-03  -0.1257020277E-04   0.1257020277E-04   0.1930000000E-01  -0.2096943916E-02   0.2096943916E-02   0.1053901292E+01  -0.5925683970E-02  -0.5925683970E-02  -0.1222382314E-03   0.1222382314E-03  -0.4192300397E-09   0.0000000000E+00   0.1059827103E+01
   0.2019400000E+01   0.2109514119E-02   0.9978904859E+00   0.1000000000E-03   0.1257020277E-04  -0.1257020277E-04   0.1930000000E-01   0.2096943916E-02  -0.2096943916E-02   0.1053901292E+01  -0.5925683970E-02  -0.5925683970E-02   0.1222382314E-03  -0.1222382314E-03  -0.4192300277E-09   0.0000000000E+00   0.1059827103E+01
   0.2019400000E+01   0.9978904859E+00   0.9978904859E+00   0.1000000000E-03  -0.1257020277E-04  -0.1257020277E-04   0.1930000000E-01  -0.2096943916E-02  -0.2096943916E-02   0.1053901292E+01  -0.5925683970E-02  -0.5925683970E-02  -0.1222382314E-03  -0.1222382314E-03   0.4192322205E-09   0.0000000000E+00   0.1059827103E+01
     1     2     3     4     5     6     7     8
     2     9    10     3     6    11    12     7
 VARIABLES = X,Y,Z,DU1,DU2,DU3,U1,U2,U3,S11,S22,S33,S12,S13,S23,Vf,SMISES
 ZONE, T="0.1950D+01" F=FEPOINT, I=   12 J=    2 ET=BRICK
   0.0000000000E+00   0.2608111272E-02   0.2608111272E-02   0.0000000000E+00   0.1211194269E-04   0.1211194269E-04   0.0000000000E+00   0.2595999329E-02   0.2595999329E-02   0.1065199402E+01   0.5402068655E-02   0.5402068655E-02   0.1707564100E-03   0.1707564100E-03   0.4893482342E-09   0.0000000000E+00   0.1059797581E+01
   0.1010250117E+01   0.2295479577E-02   0.2295479577E-02   0.5036298495E-04   0.1228148776E-04   0.1228148776E-04   0.1019975386E-01   0.2283198089E-02   0.2283198089E-02   0.1059096005E+01  -0.6832966258E-03  -0.6832966258E-03   0.1595643113E-03   0.1595643113E-03   0.4474936440E-09   0.0000000000E+00   0.1059779519E+01
   0.1010250117E+01   0.9977045204E+00   0.2295479577E-02   0.5036298495E-04  -0.1228148776E-04   0.1228148776E-04   0.1019975386E-01  -0.2283198089E-02   0.2283198089E-02   0.1059096005E+01  -0.6832966258E-03  -0.6832966258E-03  -0.1595643113E-03   0.1595643113E-03  -0.4474971749E-09   0.0000000000E+00   0.1059779519E+01
   0.0000000000E+00   0.9973918887E+00   0.2608111272E-02   0.0000000000E+00  -0.1211194269E-04   0.1211194269E-04   0.0000000000E+00  -0.2595999329E-02   0.2595999329E-02   0.1065199402E+01   0.5402068655E-02   0.5402068655E-02  -0.1707564100E-03   0.1707564100E-03  -0.4893438237E-09   0.0000000000E+00   0.1059797581E+01
   0.0000000000E+00   0.2608111272E-02   0.9973918887E+00   0.0000000000E+00   0.1211194269E-04  -0.1211194269E-04   0.0000000000E+00   0.2595999329E-02  -0.2595999329E-02   0.1065199402E+01   0.5402068655E-02   0.5402068655E-02   0.1707564100E-03  -0.1707564100E-03  -0.4893438214E-09   0.0000000000E+00   0.1059797581E+01
   0.1010250117E+01   0.2295479577E-02   0.9977045204E+00   0.5036298495E-04   0.1228148776E-04  -0.1228148776E-04   0.1019975386E-01   0.2283198089E-02  -0.2283198089E-02   0.1059096005E+01  -0.6832966258E-03  -0.6832966258E-03   0.1595643113E-03  -0.1595643113E-03  -0.4474971616E-09   0.0000000000E+00   0.1059779519E+01
   0.1010250117E+01   0.9977045204E+00   0.9977045204E+00   0.5036298495E-04  -0.1228148776E-04  -0.1228148776E-04   0.1019975386E-01  -0.2283198089E-02  -0.2283198089E-02   0.1059096005E+01  -0.6832966258E-03  -0.6832966258E-03  -0.1595643113E-03  -0.1595643113E-03   0.4475007257E-09   0.0000000000E+00   0.1059779519E+01
   0.0000000000E+00   0.9973918887E+00   0.9973918887E+00   0.0000000000E+00  -0.1211194269E-04  -0.1211194269E-04   0.0000000000E+00  -0.2595999329E-02  -0.2595999329E-02   0.1065199402E+01   0.5402068655E-02   0.5402068655E-02  -0.1707564100E-03  -0.1707564100E-03   0.4893394246E-09   0.0000000000E+00   0.1059797581E+01
   0.2019500000E+01   0.2121937668E-02   0.2121937668E-02   0.1000000000E-03   0.1242354940E-04   0.1242354940E-04   0.1940000000E-01   0.2109514119E-02   0.2109514119E-02   0.1052980563E+01  -0.6762639226E-02  -0.6762639226E-02   0.1482961965E-03   0.1482961965E-03   0.4086947381E-09   0.0000000000E+00   0.1059743389E+01
   0.2019500000E+01   0.9978780623E+00   0.2121937668E-02   0.1000000000E-03  -0.1242354940E-04   0.1242354940E-04   0.1940000000E-01  -0.2109514119E-02   0.2109514119E-02   0.1052980563E+01  -0.6762639226E-02  -0.6762639226E-02  -0.1482961965E-03   0.1482961965E-03  -0.4086989792E-09   0.0000000000E+00   0.1059743389E+01
   0.2019500000E+01   0.2121937668E-02   0.9978780623E+00   0.1000000000E-03   0.1242354940E-04  -0.1242354940E-04   0.1940000000E-01   0.2109514119E-02  -0.2109514119E-02   0.1052980563E+01  -0.6762639226E-02  -0.6762639226E-02   0.1482961965E-03  -0.1482961965E-03  -0.4086989651E-09   0.0000000000E+00   0.1059743389E+01
   0.2019500000E+01   0.9978780623E+00   0.9978780623E+00   0.1000000000E-03  -0.1242354940E-04  -0.1242354940E-04   0.1940000000E-01  -0.2109514119E-02  -0.2109514119E-02   0.1052980563E+01  -0.6762639226E-02  -0.6762639226E-02  -0.1482961965E-03  -0.1482961965E-03   0.4087032172E-09   0.0000000000E+00   0.1059743389E+01
     1     2     3     4     5     6     7     8
     2     9    10     3     6    11    12     7
 VARIABLES = X,Y,Z,DU1,DU2,DU3,U1,U2,U3,S11,S22,S33,S12,S13,S23,Vf,SMISES
 ZONE, T="0.1960D+01" F=FEPOINT, I=   12 J=    2 ET=BRICK
   0.0000000000E+00   0.2620358261E-02   0.2620358261E-02   0.0000000000E+00   0.1224698934E-04   0.1224698934E-04   0.0000000000E+00   0.2608111272E-02   0.2608111272E-02   0.1066018611E+01   0.6207957149E-02   0.6207957149E-02   0.1813107068E-03   0.1813107068E-03   0.4735121249E-09   0.0000000000E+00   0.1059810933E+01
   0.1010300348E+01   0.2307753503E-02   0.2307753503E-02   0.5023142094E-04   0.1227392681E-04   0.1227392681E-04   0.1025011684E-01   0.2295479577E-02   0.2295479577E-02   0.1059256958E+01  -0.4835353171E-03  -0.4835353171E-03   0.1692653142E-03   0.1692653142E-03   0.4326211328E-09   0.0000000000E+00   0.1059740737E+01
   0.1010300348E+01   0.9976922465E+00   0.2307753503E-02   0.5023142094E-04  -0.1227392681E-04   0.1227392681E-04   0.1025011684E-01  -0.2295479576E-02   0.2295479577E-02   0.1059256958E+01  -0.4835353171E-03  -0.4835353171E-03  -0.1692653141E-03   0.1692653142E-03  -0.4326244499E-09   0.0000000000E+00   0.1059740737E+01
   0.0000000000E+00   0.9973796417E+00   0.2620358261E-02   0.0000000000E+00  -0.1224698934E-04   0.1224698934E-04   0.0000000000E+00  -0.2608111272E-02   0.2608111272E-02   0.1066018611E+01   0.6207957149E-02   0.6207957149E-02  -0.1813107068E-03   0.1813107067E-03  -0.4735064064E-09   0.0000000000E+00   0.1059810933E+01
   0.0000000000E+00   0.2620358261E-02   0.9973796417E+00   0.0000000000E+00   0.1224698934E-04  -0.1224698934E-04   0.0000000000E+00   0.2608111272E-02  -0.2608111272E-02   0.1066018611E+01   0.6207957149E-02   0.6207957149E-02   0.1813107067E-03  -0.1813107068E-03  -0.4735064038E-09   0.0000000000E+00   0.1059810933E+01
   0.1010300348E+01   0.2307753503E-02   0.9976922465E+00   0.5023142094E-04   0.1227392681E-04  -0.1227392681E-04   0.1025011684E-01   0.2295479577E-02  -0.2295479576E-02   0.1059256958E+01  -0.4835353171E-03  -0.4835353171E-03   0.1692653142E-03  -0.1692653141E-03  -0.4326244354E-09   0.0000000000E+00   0.1059740737E+01
   0.1010300348E+01   0.9976922465E+00   0.9976922465E+00   0.5023142094E-04  -0.1227392681E-04  -0.1227392681E-04   0.1025011684E-01  -0.2295479576E-02  -0.2295479576E-02   0.1059256958E+01  -0.4835353171E-03  -0.4835353171E-03  -0.1692653141E-03  -0.1692653141E-03   0.4326277902E-09   0.0000000000E+00   0.1059740737E+01
   0.0000000000E+00   0.9973796417E+00   0.9973796417E+00   0.0000000000E+00  -0.1224698934E-04  -0.1224698934E-04   0.0000000000E+00  -0.2608111272E-02  -0.2608111272E-02   0.1066018611E+01   0.6207957149E-02   0.6207957149E-02  -0.1813107068E-03  -0.1813107068E-03   0.4735007084E-09   0.0000000000E+00   0.1059810933E+01
   0.2019600000E+01   0.2134210721E-02   0.2134210721E-02   0.1000000000E-03   0.1227305282E-04   0.1227305282E-04   0.1950000000E-01   0.2121937668E-02   0.2121937668E-02   0.1052482987E+01  -0.7168868947E-02  -0.7168868947E-02   0.1571538822E-03   0.1571538822E-03   0.3946694508E-09   0.0000000000E+00   0.1059652066E+01
   0.2019600000E+01   0.9978657893E+00   0.2134210721E-02   0.1000000000E-03  -0.1227305282E-04   0.1227305282E-04   0.1950000000E-01  -0.2121937668E-02   0.2121937668E-02   0.1052482987E+01  -0.7168868946E-02  -0.7168868946E-02  -0.1571538822E-03   0.1571538822E-03  -0.3946746474E-09   0.0000000000E+00   0.1059652066E+01
   0.2019600000E+01   0.2134210721E-02   0.9978657893E+00   0.1000000000E-03   0.1227305282E-04  -0.1227305282E-04   0.1950000000E-01   0.2121937668E-02  -0.2121937668E-02   0.1052482987E+01  -0.7168868946E-02  -0.7168868946E-02   0.1571538822E-03  -0.1571538822E-03  -0.3946746319E-09   0.0000000000E+00   0.1059652066E+01
   0.2019600000E+01   0.9978657893E+00   0.9978657893E+00   0.1000000000E-03  -0.1227305282E-04  -0.1227305282E-04   0.1950000000E-01  -0.2121937668E-02  -0.2121937668E-02   0.1052482987E+01  -0.7168868946E-02  -0.7168868946E-02  -0.1571538822E-03  -0.1571538822E-03   0.3946798410E-09   0.0000000000E+00   0.1059652066E+01
     1     2     3     4     5     6     7     8
     2     9    10     3     6    11    12     7
 VARIABLES = X,Y,Z,DU1,DU2,DU3,U1,U2,U3,S11,S22,S33,S12,S13,S23,Vf,SMISES
 ZONE, T="0.1970D+01" F=FEPOINT, I=   12 J=    2 ET=BRICK
   0.0000000000E+00   0.2632744506E-02   0.2632744506E-02   0.0000000000E+00   0.1238624470E-04   0.1238624470E-04   0.0000000000E+00   0.2620358261E-02   0.2620358261E-02   0.1066465621E+01   0.6626248102E-02   0.6626248102E-02   0.1744999427E-03   0.1744999427E-03   0.4508898472E-09   0.0000000000E+00   0.1059839631E+01
   0.1010350448E+01   0.2320024597E-02   0.2320024597E-02   0.5009947065E-04   0.1227109375E-04   0.1227109375E-04   0.1030034826E-01   0.2307753503E-02   0.2307753503E-02   0.1059449007E+01  -0.2595209706E-03  -0.2595209706E-03   0.1616273248E-03   0.1616273248E-03   0.4113824839E-09   0.0000000000E+00   0.1059708751E+01
   0.1010350448E+01   0.9976799754E+00   0.2320024597E-02   0.5009947065E-04  -0.1227109375E-04   0.1227109375E-04   0.1030034826E-01  -0.2307753503E-02   0.2307753503E-02   0.1059449007E+01  -0.2595209706E-03  -0.2595209705E-03  -0.1616273248E-03   0.1616273248E-03  -0.4113855047E-09   0.0000000000E+00   0.1059708751E+01
   0.0000000000E+00   0.9973672555E+00   0.2632744506E-02   0.0000000000E+00  -0.1238624470E-04   0.1238624470E-04   0.0000000000E+00  -0.2620358261E-02   0.2620358261E-02   0.1066465621E+01   0.6626248102E-02   0.6626248102E-02  -0.1744999427E-03   0.1744999427E-03  -0.4508837433E-09   0.0000000000E+00   0.1059839631E+01
   0.0000000000E+00   0.2632744506E-02   0.9973672555E+00   0.0000000000E+00   0.1238624470E-04  -0.1238624470E-04   0.0000000000E+00   0.2620358261E-02  -0.2620358261E-02   0.1066465621E+01   0.6626248102E-02   0.6626248102E-02   0.1744999427E-03  -0.1744999427E-03  -0.4508837402E-09   0.0000000000E+00   0.1059839631E+01
   0.1010350448E+01   0.2320024597E-02   0.9976799754E+00   0.5009947065E-04   0.1227109375E-04  -0.1227109375E-04   0.1030034826E-01   0.2307753503E-02  -0.2307753503E-02   0.1059449007E+01  -0.2595209705E-03  -0.2595209706E-03   0.1616273248E-03  -0.1616273248E-03  -0.4113854888E-09   0.0000000000E+00   0.1059708751E+01
   0.1010350448E+01   0.9976799754E+00   0.9976799754E+00   0.5009947065E-04  -0.1227109375E-04  -0.1227109375E-04   0.1030034826E-01  -0.2307753503E-02  -0.2307753503E-02   0.1059449007E+01  -0.2595209705E-03  -0.2595209705E-03  -0.1616273248E-03  -0.1616273248E-03   0.4113885527E-09   0.0000000000E+00   0.1059708750E+01
   0.0000000000E+00   0.9973672555E+00   0.9973672555E+00   0.0000000000E+00  -0.1238624470E-04  -0.1238624470E-04   0.0000000000E+00  -0.2620358261E-02  -0.2620358261E-02   0.1066465621E+01   0.6626248102E-02   0.6626248102E-02  -0.1744999427E-03  -0.1744999427E-03   0.4508776706E-09   0.0000000000E+00   0.1059839631E+01
   0.2019700000E+01   0.2146338594E-02   0.2146338594E-02   0.1000000000E-03   0.1212787336E-04   0.1212787336E-04   0.1960000000E-01   0.2134210721E-02   0.2134210721E-02   0.1052419802E+01  -0.7138994884E-02  -0.7138994884E-02   0.1486956120E-03   0.1486956120E-03   0.3747006307E-09   0.0000000000E+00   0.1059558985E+01
   0.2019700000E+01   0.9978536614E+00   0.2146338594E-02   0.1000000000E-03  -0.1212787336E-04   0.1212787336E-04   0.1960000000E-01  -0.2134210721E-02   0.2134210721E-02   0.1052419802E+01  -0.7138994883E-02  -0.7138994883E-02  -0.1486956120E-03   0.1486956120E-03  -0.3747057228E-09   0.0000000000E+00   0.1059558985E+01
   0.2019700000E+01   0.2146338594E-02   0.9978536614E+00   0.1000000000E-03   0.1212787336E-04  -0.1212787336E-04   0.1960000000E-01   0.2134210721E-02  -0.2134210721E-02   0.1052419802E+01  -0.7138994883E-02  -0.7138994883E-02   0.1486956120E-03  -0.1486956120E-03  -0.3747057057E-09   0.0000000000E+00   0.1059558985E+01
   0.2019700000E+01   0.9978536614E+00   0.9978536614E+00   0.1000000000E-03  -0.1212787336E-04  -0.1212787336E-04   0.1960000000E-01  -0.2134210721E-02  -0.2134210721E-02   0.1052419802E+01  -0.7138994883E-02  -0.7138994883E-02  -0.1486956120E-03  -0.1486956120E-03   0.3747108142E-09   0.0000000000E+00   0.1059558985E+01
     1     2     3     4     5     6     7     8
     2     9    10     3     6    11    12     7
 VARIABLES = X,Y,Z,DU1,DU2,DU3,U1,U2,U3,S11,S22,S33,S12,S13,S23,Vf,SMISES
 ZONE, T="0.1980D+01" F=FEPOINT, I=   12 J=    2 ET=BRICK
   0.0000000000E+00   0.2645265585E-02   0.2645265585E-02   0.0000000000E+00   0.1252107953E-04   0.1252107953E-04   0.0000000000E+00   0.2632744506E-02   0.2632744506E-02   0.1066521177E+01   0.6639592906E-02   0.6639592906E-02   0.1512554059E-03   0.1512554059E-03   0.4215769646E-09   0.0000000000E+00   0.1059881778E+01
   0.1010400423E+01   0.2332297489E-02   0.2332297489E-02   0.4997521429E-04   0.1227289172E-04   0.1227289172E-04   0.1035044773E-01   0.2320024597E-02   0.2320024597E-02   0.1059654687E+01  -0.3056282978E-04  -0.3056282978E-04   0.1375830105E-03   0.1375830105E-03   0.3839926702E-09   0.0000000000E+00   0.1059685412E+01
   0.1010400423E+01   0.9976677025E+00   0.2332297489E-02   0.4997521429E-04  -0.1227289172E-04   0.1227289172E-04   0.1035044773E-01  -0.2320024597E-02   0.2320024597E-02   0.1059654687E+01  -0.3056282978E-04  -0.3056282978E-04  -0.1375830105E-03   0.1375830105E-03  -0.3839953648E-09   0.0000000000E+00   0.1059685411E+01
   0.0000000000E+00   0.9973547344E+00   0.2645265585E-02   0.0000000000E+00  -0.1252107953E-04   0.1252107953E-04   0.0000000000E+00  -0.2632744506E-02   0.2632744506E-02   0.1066521177E+01   0.6639592906E-02   0.6639592906E-02  -0.1512554059E-03   0.1512554059E-03  -0.4215713967E-09   0.0000000000E+00   0.1059881778E+01
   0.0000000000E+00   0.2645265585E-02   0.9973547344E+00   0.0000000000E+00   0.1252107953E-04  -0.1252107953E-04   0.0000000000E+00   0.2632744506E-02  -0.2632744506E-02   0.1066521177E+01   0.6639592906E-02   0.6639592906E-02   0.1512554059E-03  -0.1512554059E-03  -0.4215713934E-09   0.0000000000E+00   0.1059881778E+01
   0.1010400423E+01   0.2332297489E-02   0.9976677025E+00   0.4997521429E-04   0.1227289172E-04  -0.1227289172E-04   0.1035044773E-01   0.2320024597E-02  -0.2320024597E-02   0.1059654687E+01  -0.3056282978E-04  -0.3056282978E-04   0.1375830105E-03  -0.1375830105E-03  -0.3839953477E-09   0.0000000000E+00   0.1059685411E+01
   0.1010400423E+01   0.9976677025E+00   0.9976677025E+00   0.4997521429E-04  -0.1227289172E-04  -0.1227289172E-04   0.1035044773E-01  -0.2320024597E-02  -0.2320024597E-02   0.1059654687E+01  -0.3056282978E-04  -0.3056282978E-04  -0.1375830104E-03  -0.1375830104E-03   0.3839980902E-09   0.0000000000E+00   0.1059685411E+01
   0.0000000000E+00   0.9973547344E+00   0.9973547344E+00   0.0000000000E+00  -0.1252107953E-04  -0.1252107953E-04   0.0000000000E+00  -0.2632744506E-02  -0.2632744506E-02   0.1066521177E+01   0.6639592906E-02   0.6639592906E-02  -0.1512554059E-03  -0.1512554059E-03   0.4215658669E-09   0.0000000000E+00   0.1059881778E+01
   0.2019800000E+01   0.2158335042E-02   0.2158335042E-02   0.1000000000E-03   0.1199644808E-04   0.1199644808E-04   0.1970000000E-01   0.2146338594E-02   0.2146338594E-02   0.1052775330E+01  -0.6694285098E-02  -0.6694285098E-02   0.1238551456E-03   0.1238551456E-03   0.3491213782E-09   0.0000000000E+00   0.1059469745E+01
   0.2019800000E+01   0.9978416650E+00   0.2158335042E-02   0.1000000000E-03  -0.1199644808E-04   0.1199644808E-04   0.1970000000E-01  -0.2146338594E-02   0.2146338594E-02   0.1052775330E+01  -0.6694285097E-02  -0.6694285097E-02  -0.1238551456E-03   0.1238551456E-03  -0.3491254133E-09   0.0000000000E+00   0.1059469745E+01
   0.2019800000E+01   0.2158335042E-02   0.9978416650E+00   0.1000000000E-03   0.1199644808E-04  -0.1199644808E-04   0.1970000000E-01   0.2146338594E-02  -0.2146338594E-02   0.1052775330E+01  -0.6694285097E-02  -0.6694285097E-02   0.1238551456E-03  -0.1238551456E-03  -0.3491253948E-09   0.0000000000E+00   0.1059469745E+01
   0.2019800000E+01   0.9978416650E+00   0.9978416650E+00   0.1000000000E-03  -0.1199644808E-04  -0.1199644808E-04   0.1970000000E-01  -0.2146338594E-02  -0.2146338594E-02   0.1052775330E+01  -0.6694285097E-02  -0.6694285097E-02  -0.1238551456E-03  -0.1238551456E-03   0.3491294501E-09   0.0000000000E+00   0.1059469745E+01
     1     2     3     4     5     6     7     8
     2     9    10     3     6    11    12     7
 VARIABLES = X,Y,Z,DU1,DU2,DU3,U1,U2,U3,S11,S22,S33,S12,S13,S23,Vf,SMISES
 ZONE, T="0.1990D+01" F=FEPOINT, I=   12 J=    2 ET=BRICK
   0.0000000000E+00   0.2657908912E-02   0.2657908912E-02   0.0000000000E+00   0.1264332689E-04   0.1264332689E-04   0.0000000000E+00   0.2645265585E-02   0.2645265585E-02   0.1066190399E+01   0.6256003383E-02   0.6256003383E-02   0.1134704072E-03   0.1134704072E-03   0.3883104437E-09   0.0000000000E+00   0.1059934505E+01
   0.1010450289E+01   0.2344576344E-02   0.2344576344E-02   0.4986599382E-04   0.1227885559E-04   0.1227885559E-04   0.1040042295E-01   0.2332297489E-02   0.2332297489E-02   0.1059856372E+01   0.1846753807E-03   0.1846753807E-03   0.9902546773E-04   0.9902546773E-04   0.3532585948E-09   0.0000000000E+00   0.1059671782E+01
   0.1010450289E+01   0.9976554237E+00   0.2344576344E-02   0.4986599382E-04  -0.1227885559E-04   0.1227885559E-04   0.1040042295E-01  -0.2332297489E-02   0.2332297489E-02   0.1059856372E+01   0.1846753807E-03   0.1846753807E-03  -0.9902546768E-04   0.9902546773E-04  -0.3532609810E-09   0.0000000000E+00   0.1059671782E+01
   0.0000000000E+00   0.9973420911E+00   0.2657908912E-02   0.0000000000E+00  -0.1264332689E-04   0.1264332689E-04   0.0000000000E+00  -0.2645265585E-02   0.2645265585E-02   0.1066190399E+01   0.6256003383E-02   0.6256003383E-02  -0.1134704072E-03   0.1134704072E-03  -0.3883062656E-09   0.0000000000E+00   0.1059934505E+01
   0.0000000000E+00   0.2657908912E-02   0.9973420911E+00   0.0000000000E+00   0.1264332689E-04  -0.1264332689E-04   0.0000000000E+00   0.2645265585E-02  -0.2645265585E-02   0.1066190399E+01   0.6256003383E-02   0.6256003383E-02   0.1134704072E-03  -0.1134704072E-03  -0.3883062616E-09   0.0000000000E+00   0.1059934505E+01
   0.1010450289E+01   0.2344576344E-02   0.9976554237E+00   0.4986599382E-04   0.1227885559E-04  -0.1227885559E-04   0.1040042295E-01   0.2332297489E-02  -0.2332297489E-02   0.1059856372E+01   0.1846753807E-03   0.1846753807E-03   0.9902546773E-04  -0.9902546768E-04  -0.3532609626E-09   0.0000000000E+00   0.1059671782E+01
   0.1010450289E+01   0.9976554237E+00   0.9976554237E+00   0.4986599382E-04  -0.1227885559E-04  -0.1227885559E-04   0.1040042295E-01  -0.2332297489E-02  -0.2332297489E-02   0.1059856372E+01   0.1846753807E-03   0.1846753807E-03  -0.9902546768E-04  -0.9902546768E-04   0.3532634008E-09   0.0000000000E+00   0.1059671782E+01
   0.0000000000E+00   0.9973420911E+00   0.9973420911E+00   0.0000000000E+00  -0.1264332689E-04  -0.1264332689E-04   0.0000000000E+00  -0.2645265585E-02  -0.2645265585E-02   0.1066190399E+01   0.6256003383E-02   0.6256003383E-02  -0.1134704072E-03  -0.1134704072E-03   0.3883021337E-09   0.0000000000E+00   0.1059934505E+01
   0.2019900000E+01   0.2170221057E-02   0.2170221057E-02   0.1000000000E-03   0.1188601476E-04   0.1188601476E-04   0.1980000000E-01   0.2158335042E-02   0.2158335042E-02   0.1053509199E+01  -0.5880079323E-02  -0.5880079323E-02   0.8452527601E-04   0.8452527601E-04   0.3208083975E-09   0.0000000000E+00   0.1059389339E+01
   0.2019900000E+01   0.9978297789E+00   0.2170221057E-02   0.1000000000E-03  -0.1188601475E-04   0.1188601476E-04   0.1980000000E-01  -0.2158335042E-02   0.2158335042E-02   0.1053509199E+01  -0.5880079323E-02  -0.5880079323E-02  -0.8452527602E-04   0.8452527601E-04  -0.3208105818E-09   0.0000000000E+00   0.1059389339E+01
   0.2019900000E+01   0.2170221057E-02   0.9978297789E+00   0.1000000000E-03   0.1188601476E-04  -0.1188601475E-04   0.1980000000E-01   0.2158335042E-02  -0.2158335042E-02   0.1053509199E+01  -0.5880079323E-02  -0.5880079323E-02   0.8452527601E-04  -0.8452527602E-04  -0.3208105620E-09   0.0000000000E+00   0.1059389339E+01
   0.2019900000E+01   0.9978297789E+00   0.9978297789E+00   0.1000000000E-03  -0.1188601475E-04  -0.1188601475E-04   0.1980000000E-01  -0.2158335042E-02  -0.2158335042E-02   0.1053509199E+01  -0.5880079322E-02  -0.5880079322E-02  -0.8452527601E-04  -0.8452527601E-04   0.3208127682E-09   0.0000000000E+00   0.1059389339E+01
     1     2     3     4     5     6     7     8
     2     9    10     3     6    11    12     7
 VARIABLES = X,Y,Z,DU1,DU2,DU3,U1,U2,U3,S11,S22,S33,S12,S13,S23,Vf,SMISES
 ZONE, T="0.2000D+01" F=FEPOINT, I=   12 J=    2 ET=BRICK
   0.0000000000E+00   0.2670654690E-02   0.2670654690E-02   0.0000000000E+00   0.1274577734E-04   0.1274577734E-04   0.0000000000E+00   0.2657908912E-02   0.2657908912E-02   0.1065502021E+01   0.5507881401E-02   0.5507881401E-02   0.6385400128E-04   0.6385400128E-04   0.3555977058E-09   0.0000000000E+00   0.1059994175E+01
   0.1010500067E+01   0.2356864554E-02   0.2356864554E-02   0.4977799399E-04   0.1228820919E-04   0.1228820919E-04   0.1045028894E-01   0.2344576344E-02   0.2344576344E-02   0.1060037705E+01   0.3696397557E-03   0.3696397557E-03   0.4866254570E-04   0.4866254570E-04   0.3237018317E-09   0.0000000000E+00   0.1059668087E+01
   0.1010500067E+01   0.9976431354E+00   0.2356864554E-02   0.4977799399E-04  -0.1228820919E-04   0.1228820919E-04   0.1045028894E-01  -0.2344576344E-02   0.2344576344E-02   0.1060037705E+01   0.3696397557E-03   0.3696397557E-03  -0.4866254565E-04   0.4866254570E-04  -0.3237039677E-09   0.0000000000E+00   0.1059668087E+01
   0.0000000000E+00   0.9973293453E+00   0.2670654690E-02   0.0000000000E+00  -0.1274577734E-04   0.1274577734E-04   0.0000000000E+00  -0.2657908912E-02   0.2657908912E-02   0.1065502021E+01   0.5507881401E-02   0.5507881401E-02  -0.6385400130E-04   0.6385400128E-04  -0.3555956533E-09   0.0000000000E+00   0.1059994175E+01
   0.0000000000E+00   0.2670654690E-02   0.9973293453E+00   0.0000000000E+00   0.1274577734E-04  -0.1274577734E-04   0.0000000000E+00   0.2657908912E-02  -0.2657908912E-02   0.1065502021E+01   0.5507881401E-02   0.5507881401E-02   0.6385400128E-04  -0.6385400130E-04  -0.3555956487E-09   0.0000000000E+00   0.1059994175E+01
   0.1010500067E+01   0.2356864554E-02   0.9976431354E+00   0.4977799399E-04   0.1228820919E-04  -0.1228820919E-04   0.1045028894E-01   0.2344576344E-02  -0.2344576344E-02   0.1060037705E+01   0.3696397557E-03   0.3696397557E-03   0.4866254570E-04  -0.4866254565E-04  -0.3237039485E-09   0.0000000000E+00   0.1059668087E+01
   0.1010500067E+01   0.9976431354E+00   0.9976431354E+00   0.4977799399E-04  -0.1228820919E-04  -0.1228820919E-04   0.1045028894E-01  -0.2344576344E-02  -0.2344576344E-02   0.1060037705E+01   0.3696397557E-03   0.3696397557E-03  -0.4866254565E-04  -0.4866254565E-04   0.3237061382E-09   0.0000000000E+00   0.1059668087E+01
   0.0000000000E+00   0.9973293453E+00   0.9973293453E+00   0.0000000000E+00  -0.1274577734E-04  -0.1274577734E-04   0.0000000000E+00  -0.2657908912E-02  -0.2657908912E-02   0.1065502021E+01   0.5507881401E-02   0.5507881401E-02  -0.6385400130E-04  -0.6385400130E-04   0.3555936513E-09   0.0000000000E+00   0.1059994174E+01
   0.2020000000E+01   0.2182023288E-02   0.2182023288E-02   0.1000000000E-03   0.1180223089E-04   0.1180223089E-04   0.1990000000E-01   0.2170221057E-02   0.2170221057E-02   0.1054559965E+01  -0.4761890386E-02  -0.4761890386E-02   0.3341276648E-04   0.3341276648E-04   0.2942983436E-09   0.0000000000E+00   0.1059321865E+01
   0.2020000000E+01   0.9978179767E+00   0.2182023288E-02   0.1000000000E-03  -0.1180223089E-04   0.1180223089E-04   0.1990000000E-01  -0.2170221057E-02   0.2170221057E-02   0.1054559965E+01  -0.4761890385E-02  -0.4761890385E-02  -0.3341276648E-04   0.3341276648E-04  -0.2942980808E-09   0.0000000000E+00   0.1059321865E+01
   0.2020000000E+01   0.2182023288E-02   0.9978179767E+00   0.1000000000E-03   0.1180223089E-04  -0.1180223089E-04   0.1990000000E-01   0.2170221057E-02  -0.2170221057E-02   0.1054559965E+01  -0.4761890385E-02  -0.4761890385E-02   0.3341276648E-04  -0.3341276648E-04  -0.2942980599E-09   0.0000000000E+00   0.1059321865E+01
   0.2020000000E+01   0.9978179767E+00   0.9978179767E+00   0.1000000000E-03  -0.1180223089E-04  -0.1180223089E-04   0.1990000000E-01  -0.2170221057E-02  -0.2170221057E-02   0.1054559965E+01  -0.4761890385E-02  -0.4761890385E-02  -0.3341276648E-04  -0.3341276648E-04   0.2942978213E-09   0.0000000000E+00   0.1059321865E+01
     1     2     3     4     5     6     7     8
     2     9    10     3     6    11    12     7
